! ListType=Log
# MHZ S RI R 50
0.0010000     0.9958430  -0.0569342   0.0006760  -0.0000645   0.0000000   0.0000000   0.0000000   0.0000000
0.0010139     0.9954604  -0.0572775   0.0007767  -0.0000475   0.0000000   0.0000000   0.0000000   0.0000000
0.0010280     0.9951728  -0.0589395   0.0007099  -0.0000735   0.0000000   0.0000000   0.0000000   0.0000000
0.0010424     0.9957130  -0.0593627   0.0008039  -0.0000853   0.0000000   0.0000000   0.0000000   0.0000000
0.0010569     0.9948288  -0.0605058   0.0007362  -0.0000437   0.0000000   0.0000000   0.0000000   0.0000000
0.0010716     0.9952687  -0.0609413   0.0008295  -0.0000518   0.0000000   0.0000000   0.0000000   0.0000000
0.0010865     0.9953776  -0.0624098   0.0007835  -0.0001126   0.0000000   0.0000000   0.0000000   0.0000000
0.0011016     0.9950392  -0.0627948   0.0008513  -0.0001093   0.0000000   0.0000000   0.0000000   0.0000000
0.0011170     0.9949499  -0.0633892   0.0009646  -0.0001098   0.0000000   0.0000000   0.0000000   0.0000000
0.0011325     0.9946206  -0.0643018   0.0008906  -0.0000883   0.0000000   0.0000000   0.0000000   0.0000000
0.0011483     0.9947725  -0.0656836   0.0008607  -0.0001365   0.0000000   0.0000000   0.0000000   0.0000000
0.0011643     0.9945174  -0.0662507   0.0009798  -0.0001147   0.0000000   0.0000000   0.0000000   0.0000000
0.0011805     0.9942797  -0.0671164   0.0010088  -0.0000886   0.0000000   0.0000000   0.0000000   0.0000000
0.0011970     0.9943113  -0.0688955   0.0009666  -0.0001189   0.0000000   0.0000000   0.0000000   0.0000000
0.0012136     0.9944958  -0.0693763   0.0010657  -0.0001299   0.0000000   0.0000000   0.0000000   0.0000000
0.0012305     0.9940538  -0.0701746   0.0010844  -0.0001202   0.0000000   0.0000000   0.0000000   0.0000000
0.0012477     0.9939640  -0.0715828   0.0010608  -0.0001619   0.0000000   0.0000000   0.0000000   0.0000000
0.0012650     0.9937969  -0.0721334   0.0011468  -0.0001716   0.0000000   0.0000000   0.0000000   0.0000000
0.0012826     0.9933537  -0.0728442   0.0011796  -0.0001282   0.0000000   0.0000000   0.0000000   0.0000000
0.0013005     0.9934906  -0.0743463   0.0011959  -0.0001540   0.0000000   0.0000000   0.0000000   0.0000000
0.0013186     0.9935125  -0.0757684   0.0011799  -0.0001802   0.0000000   0.0000000   0.0000000   0.0000000
0.0013370     0.9931616  -0.0766599   0.0012552  -0.0001840   0.0000000   0.0000000   0.0000000   0.0000000
0.0013556     0.9932605  -0.0773070   0.0013254  -0.0001977   0.0000000   0.0000000   0.0000000   0.0000000
0.0013745     0.9929690  -0.0786989   0.0012845  -0.0001693   0.0000000   0.0000000   0.0000000   0.0000000
0.0013936     0.9929076  -0.0797482   0.0013927  -0.0001950   0.0000000   0.0000000   0.0000000   0.0000000
0.0014130     0.9924692  -0.0809683   0.0013737  -0.0001870   0.0000000   0.0000000   0.0000000   0.0000000
0.0014327     0.9927104  -0.0819994   0.0014287  -0.0002155   0.0000000   0.0000000   0.0000000   0.0000000
0.0014527     0.9924549  -0.0831056   0.0015122  -0.0002681   0.0000000   0.0000000   0.0000000   0.0000000
0.0014729     0.9918939  -0.0845999   0.0015145  -0.0002632   0.0000000   0.0000000   0.0000000   0.0000000
0.0014934     0.9918236  -0.0854852   0.0015851  -0.0002277   0.0000000   0.0000000   0.0000000   0.0000000
0.0015142     0.9916498  -0.0870204   0.0015905  -0.0002765   0.0000000   0.0000000   0.0000000   0.0000000
0.0015353     0.9915894  -0.0880326   0.0016675  -0.0002804   0.0000000   0.0000000   0.0000000   0.0000000
0.0015567     0.9914418  -0.0893448   0.0017166  -0.0003250   0.0000000   0.0000000   0.0000000   0.0000000
0.0015783     0.9907836  -0.0906806   0.0017319  -0.0002752   0.0000000   0.0000000   0.0000000   0.0000000
0.0016003     0.9908736  -0.0922948   0.0017881  -0.0003269   0.0000000   0.0000000   0.0000000   0.0000000
0.0016226     0.9907848  -0.0933246   0.0018441  -0.0003724   0.0000000   0.0000000   0.0000000   0.0000000
0.0016452     0.9900038  -0.0947219   0.0018769  -0.0003135   0.0000000   0.0000000   0.0000000   0.0000000
0.0016681     0.9900172  -0.0960504   0.0019320  -0.0003513   0.0000000   0.0000000   0.0000000   0.0000000
0.0016913     0.9900979  -0.0974017   0.0019840  -0.0003629   0.0000000   0.0000000   0.0000000   0.0000000
0.0017149     0.9894747  -0.0985180   0.0020895  -0.0004048   0.0000000   0.0000000   0.0000000   0.0000000
0.0017388     0.9892135  -0.0999534   0.0021273  -0.0004035   0.0000000   0.0000000   0.0000000   0.0000000
0.0017630     0.9888105  -0.1013292   0.0021703  -0.0004238   0.0000000   0.0000000   0.0000000   0.0000000
0.0017875     0.9885151  -0.1030358   0.0022172  -0.0004425   0.0000000   0.0000000   0.0000000   0.0000000
0.0018124     0.9884315  -0.1041207   0.0023088  -0.0004833   0.0000000   0.0000000   0.0000000   0.0000000
0.0018377     0.9880551  -0.1058506   0.0023593  -0.0004750   0.0000000   0.0000000   0.0000000   0.0000000
0.0018632     0.9876346  -0.1071762   0.0024439  -0.0004873   0.0000000   0.0000000   0.0000000   0.0000000
0.0018892     0.9870127  -0.1090864   0.0025044  -0.0005030   0.0000000   0.0000000   0.0000000   0.0000000
0.0019155     0.9871616  -0.1103550   0.0026055  -0.0005653   0.0000000   0.0000000   0.0000000   0.0000000
0.0019422     0.9865302  -0.1117322   0.0026220  -0.0005691   0.0000000   0.0000000   0.0000000   0.0000000
0.0019692     0.9862360  -0.1134298   0.0027317  -0.0006186   0.0000000   0.0000000   0.0000000   0.0000000
0.0019966     0.9859727  -0.1151432   0.0027842  -0.0006199   0.0000000   0.0000000   0.0000000   0.0000000
0.0020244     0.9854542  -0.1166152   0.0028683  -0.0006411   0.0000000   0.0000000   0.0000000   0.0000000
0.0020526     0.9849272  -0.1187078   0.0029212  -0.0006853   0.0000000   0.0000000   0.0000000   0.0000000
0.0020812     0.9850469  -0.1201399   0.0030486  -0.0007175   0.0000000   0.0000000   0.0000000   0.0000000
0.0021102     0.9842163  -0.1219328   0.0031099  -0.0007295   0.0000000   0.0000000   0.0000000   0.0000000
0.0021396     0.9838621  -0.1237016   0.0031900  -0.0007728   0.0000000   0.0000000   0.0000000   0.0000000
0.0021694     0.9835491  -0.1255101   0.0032900  -0.0007950   0.0000000   0.0000000   0.0000000   0.0000000
0.0021996     0.9831230  -0.1272869   0.0033698  -0.0008492   0.0000000   0.0000000   0.0000000   0.0000000
0.0022302     0.9828841  -0.1291451   0.0034886  -0.0008640   0.0000000   0.0000000   0.0000000   0.0000000
0.0022613     0.9821944  -0.1308872   0.0035732  -0.0009146   0.0000000   0.0000000   0.0000000   0.0000000
0.0022928     0.9816089  -0.1326823   0.0036771  -0.0009546   0.0000000   0.0000000   0.0000000   0.0000000
0.0023247     0.9808451  -0.1345002   0.0037736  -0.0009775   0.0000000   0.0000000   0.0000000   0.0000000
0.0023571     0.9803072  -0.1368339   0.0038680  -0.0010350   0.0000000   0.0000000   0.0000000   0.0000000
0.0023899     0.9801179  -0.1385303   0.0039947  -0.0010859   0.0000000   0.0000000   0.0000000   0.0000000
0.0024232     0.9793895  -0.1404295   0.0041085  -0.0011187   0.0000000   0.0000000   0.0000000   0.0000000
0.0024569     0.9785373  -0.1428108   0.0042006  -0.0011443   0.0000000   0.0000000   0.0000000   0.0000000
0.0024911     0.9781569  -0.1448564   0.0043211  -0.0012384   0.0000000   0.0000000   0.0000000   0.0000000
0.0025258     0.9775296  -0.1466368   0.0044610  -0.0012622   0.0000000   0.0000000   0.0000000   0.0000000
0.0025610     0.9769704  -0.1488036   0.0045872  -0.0013159   0.0000000   0.0000000   0.0000000   0.0000000
0.0025967     0.9762756  -0.1507704   0.0046735  -0.0013716   0.0000000   0.0000000   0.0000000   0.0000000
0.0026328     0.9754307  -0.1531195   0.0048182  -0.0014145   0.0000000   0.0000000   0.0000000   0.0000000
0.0026695     0.9747655  -0.1552220   0.0049542  -0.0015038   0.0000000   0.0000000   0.0000000   0.0000000
0.0027067     0.9741753  -0.1576179   0.0050676  -0.0015555   0.0000000   0.0000000   0.0000000   0.0000000
0.0027443     0.9732302  -0.1599693   0.0052051  -0.0016415   0.0000000   0.0000000   0.0000000   0.0000000
0.0027826     0.9725717  -0.1619341   0.0053713  -0.0017087   0.0000000   0.0000000   0.0000000   0.0000000
0.0028213     0.9716874  -0.1646675   0.0055155  -0.0017790   0.0000000   0.0000000   0.0000000   0.0000000
0.0028606     0.9710290  -0.1670600   0.0056601  -0.0018561   0.0000000   0.0000000   0.0000000   0.0000000
0.0029004     0.9698543  -0.1692649   0.0058206  -0.0019539   0.0000000   0.0000000   0.0000000   0.0000000
0.0029408     0.9690986  -0.1718452   0.0059713  -0.0020371   0.0000000   0.0000000   0.0000000   0.0000000
0.0029818     0.9685147  -0.1744863   0.0061510  -0.0021168   0.0000000   0.0000000   0.0000000   0.0000000
0.0030233     0.9670439  -0.1768410   0.0063151  -0.0022151   0.0000000   0.0000000   0.0000000   0.0000000
0.0030654     0.9660813  -0.1795497   0.0064877  -0.0022910   0.0000000   0.0000000   0.0000000   0.0000000
0.0031081     0.9652244  -0.1821514   0.0066725  -0.0023969   0.0000000   0.0000000   0.0000000   0.0000000
0.0031514     0.9642309  -0.1849298   0.0068285  -0.0025299   0.0000000   0.0000000   0.0000000   0.0000000
0.0031952     0.9632075  -0.1873684   0.0070290  -0.0026318   0.0000000   0.0000000   0.0000000   0.0000000
0.0032397     0.9620825  -0.1902233   0.0072321  -0.0027353   0.0000000   0.0000000   0.0000000   0.0000000
0.0032849     0.9611745  -0.1930747   0.0074253  -0.0028579   0.0000000   0.0000000   0.0000000   0.0000000
0.0033306     0.9596666  -0.1958225   0.0076308  -0.0029852   0.0000000   0.0000000   0.0000000   0.0000000
0.0033770     0.9584551  -0.1987271   0.0078228  -0.0031259   0.0000000   0.0000000   0.0000000   0.0000000
0.0034240     0.9573477  -0.2015947   0.0080649  -0.0032800   0.0000000   0.0000000   0.0000000   0.0000000
0.0034717     0.9558603  -0.2047821   0.0082284  -0.0033850   0.0000000   0.0000000   0.0000000   0.0000000
0.0035200     0.9542295  -0.2073653   0.0084899  -0.0035465   0.0000000   0.0000000   0.0000000   0.0000000
0.0035690     0.9526264  -0.2105705   0.0086962  -0.0037071   0.0000000   0.0000000   0.0000000   0.0000000
0.0036187     0.9512686  -0.2137485   0.0089365  -0.0038766   0.0000000   0.0000000   0.0000000   0.0000000
0.0036691     0.9499695  -0.2167429   0.0091733  -0.0040514   0.0000000   0.0000000   0.0000000   0.0000000
0.0037202     0.9486214  -0.2201082   0.0094192  -0.0042438   0.0000000   0.0000000   0.0000000   0.0000000
0.0037720     0.9467273  -0.2233489   0.0096947  -0.0044098   0.0000000   0.0000000   0.0000000   0.0000000
0.0038246     0.9446520  -0.2264133   0.0099341  -0.0046231   0.0000000   0.0000000   0.0000000   0.0000000
0.0038778     0.9431939  -0.2299181   0.0101722  -0.0048276   0.0000000   0.0000000   0.0000000   0.0000000
0.0039318     0.9412145  -0.2334298   0.0104465  -0.0050482   0.0000000   0.0000000   0.0000000   0.0000000
0.0039866     0.9391022  -0.2365495   0.0107108  -0.0052703   0.0000000   0.0000000   0.0000000   0.0000000
0.0040421     0.9372353  -0.2402098   0.0110111  -0.0054976   0.0000000   0.0000000   0.0000000   0.0000000
0.0040984     0.9352250  -0.2437202   0.0112797  -0.0057525   0.0000000   0.0000000   0.0000000   0.0000000
0.0041555     0.9329291  -0.2474465   0.0115814  -0.0060046   0.0000000   0.0000000   0.0000000   0.0000000
0.0042133     0.9307490  -0.2510306   0.0118902  -0.0062851   0.0000000   0.0000000   0.0000000   0.0000000
0.0042720     0.9283883  -0.2546544   0.0121887  -0.0065638   0.0000000   0.0000000   0.0000000   0.0000000
0.0043315     0.9261622  -0.2582680   0.0124845  -0.0068674   0.0000000   0.0000000   0.0000000   0.0000000
0.0043918     0.9232841  -0.2619835   0.0128042  -0.0071727   0.0000000   0.0000000   0.0000000   0.0000000
0.0044530     0.9207573  -0.2662473   0.0131144  -0.0075097   0.0000000   0.0000000   0.0000000   0.0000000
0.0045150     0.9181565  -0.2700358   0.0134283  -0.0078442   0.0000000   0.0000000   0.0000000   0.0000000
0.0045778     0.9152648  -0.2738956   0.0137842  -0.0082246   0.0000000   0.0000000   0.0000000   0.0000000
0.0046416     0.9123867  -0.2780816   0.0141032  -0.0085785   0.0000000   0.0000000   0.0000000   0.0000000
0.0047062     0.9089944  -0.2819076   0.0144553  -0.0089841   0.0000000   0.0000000   0.0000000   0.0000000
0.0047718     0.9055816  -0.2859317   0.0147968  -0.0093865   0.0000000   0.0000000   0.0000000   0.0000000
0.0048382     0.9024419  -0.2899465   0.0151390  -0.0098173   0.0000000   0.0000000   0.0000000   0.0000000
0.0049056     0.8991802  -0.2942125   0.0155209  -0.0102721   0.0000000   0.0000000   0.0000000   0.0000000
0.0049739     0.8954004  -0.2985166   0.0158697  -0.0107524   0.0000000   0.0000000   0.0000000   0.0000000
0.0050432     0.8913404  -0.3027702   0.0161988  -0.0112677   0.0000000   0.0000000   0.0000000   0.0000000
0.0051134     0.8875137  -0.3068715   0.0165826  -0.0117760   0.0000000   0.0000000   0.0000000   0.0000000
0.0051846     0.8833394  -0.3112844   0.0169465  -0.0123055   0.0000000   0.0000000   0.0000000   0.0000000
0.0052568     0.8791327  -0.3155258   0.0172917  -0.0128635   0.0000000   0.0000000   0.0000000   0.0000000
0.0053300     0.8745856  -0.3199729   0.0176630  -0.0134963   0.0000000   0.0000000   0.0000000   0.0000000
0.0054042     0.8698793  -0.3242469   0.0180342  -0.0141080   0.0000000   0.0000000   0.0000000   0.0000000
0.0054795     0.8646697  -0.3285630   0.0183834  -0.0147628   0.0000000   0.0000000   0.0000000   0.0000000
0.0055558     0.8596467  -0.3330341   0.0187448  -0.0154490   0.0000000   0.0000000   0.0000000   0.0000000
0.0056331     0.8541775  -0.3371571   0.0191080  -0.0161832   0.0000000   0.0000000   0.0000000   0.0000000
0.0057116     0.8486577  -0.3416624   0.0194482  -0.0169053   0.0000000   0.0000000   0.0000000   0.0000000
0.0057911     0.8426785  -0.3459058   0.0198076  -0.0176960   0.0000000   0.0000000   0.0000000   0.0000000
0.0058718     0.8366137  -0.3499817   0.0201246  -0.0185314   0.0000000   0.0000000   0.0000000   0.0000000
0.0059535     0.8301435  -0.3541104   0.0204427  -0.0193802   0.0000000   0.0000000   0.0000000   0.0000000
0.0060364     0.8236147  -0.3582023   0.0207577  -0.0202760   0.0000000   0.0000000   0.0000000   0.0000000
0.0061205     0.8164088  -0.3622254   0.0210115  -0.0212179   0.0000000   0.0000000   0.0000000   0.0000000
0.0062057     0.8092478  -0.3660843   0.0213006  -0.0221847   0.0000000   0.0000000   0.0000000   0.0000000
0.0062921     0.8015986  -0.3698223   0.0215532  -0.0232090   0.0000000   0.0000000   0.0000000   0.0000000
0.0063798     0.7936375  -0.3736176   0.0217737  -0.0242836   0.0000000   0.0000000   0.0000000   0.0000000
0.0064686     0.7853575  -0.3771456   0.0219557  -0.0253893   0.0000000   0.0000000   0.0000000   0.0000000
0.0065587     0.7768144  -0.3803886   0.0221028  -0.0265242   0.0000000   0.0000000   0.0000000   0.0000000
0.0066500     0.7676287  -0.3834989   0.0222239  -0.0277167   0.0000000   0.0000000   0.0000000   0.0000000
0.0067426     0.7581592  -0.3864612   0.0223015  -0.0289893   0.0000000   0.0000000   0.0000000   0.0000000
0.0068365     0.7484015  -0.3884295   0.0223264  -0.0302543   0.0000000   0.0000000   0.0000000   0.0000000
0.0069317     0.7384976  -0.3909957   0.0223051  -0.0315879   0.0000000   0.0000000   0.0000000   0.0000000
0.0070282     0.7278657  -0.3930196   0.0222032  -0.0329636   0.0000000   0.0000000   0.0000000   0.0000000
0.0071261     0.7169896  -0.3945615   0.0220781  -0.0343966   0.0000000   0.0000000   0.0000000   0.0000000
0.0072253     0.7056289  -0.3955409   0.0218320  -0.0358245   0.0000000   0.0000000   0.0000000   0.0000000
0.0073260     0.6940942  -0.3958782   0.0215352  -0.0373282   0.0000000   0.0000000   0.0000000   0.0000000
0.0074280     0.6818863  -0.3955125   0.0211546  -0.0388539   0.0000000   0.0000000   0.0000000   0.0000000
0.0075314     0.6694719  -0.3950541   0.0206505  -0.0404151   0.0000000   0.0000000   0.0000000   0.0000000
0.0076363     0.6567640  -0.3934356   0.0200596  -0.0420120   0.0000000   0.0000000   0.0000000   0.0000000
0.0077426     0.6440703  -0.3913530   0.0193884  -0.0435825   0.0000000   0.0000000   0.0000000   0.0000000
0.0078505     0.6305952  -0.3886570   0.0185654  -0.0451931   0.0000000   0.0000000   0.0000000   0.0000000
0.0079598     0.6171925  -0.3848291   0.0176017  -0.0467979   0.0000000   0.0000000   0.0000000   0.0000000
0.0080706     0.6036591  -0.3802471   0.0165377  -0.0483989   0.0000000   0.0000000   0.0000000   0.0000000
0.0081830     0.5901747  -0.3744402   0.0153732  -0.0499468   0.0000000   0.0000000   0.0000000   0.0000000
0.0082970     0.5767934  -0.3680817   0.0140735  -0.0514852   0.0000000   0.0000000   0.0000000   0.0000000
0.0084125     0.5635817  -0.3606980   0.0126291  -0.0529646   0.0000000   0.0000000   0.0000000   0.0000000
0.0085296     0.5502455  -0.3521644   0.0110351  -0.0544186   0.0000000   0.0000000   0.0000000   0.0000000
0.0086484     0.5375022  -0.3430968   0.0093796  -0.0557691   0.0000000   0.0000000   0.0000000   0.0000000
0.0087689     0.5249566  -0.3323017   0.0075467  -0.0570134   0.0000000   0.0000000   0.0000000   0.0000000
0.0088910     0.5129014  -0.3214531   0.0056298  -0.0581944   0.0000000   0.0000000   0.0000000   0.0000000
0.0090148     0.5015158  -0.3092732   0.0035769  -0.0592473   0.0000000   0.0000000   0.0000000   0.0000000
0.0091403     0.4911074  -0.2966187   0.0014981  -0.0602203   0.0000000   0.0000000   0.0000000   0.0000000
0.0092676     0.4810200  -0.2831376  -0.0006975  -0.0610272   0.0000000   0.0000000   0.0000000   0.0000000
0.0093966     0.4719132  -0.2691096  -0.0029720  -0.0617201   0.0000000   0.0000000   0.0000000   0.0000000
0.0095275     0.4637522  -0.2545066  -0.0052978  -0.0622756   0.0000000   0.0000000   0.0000000   0.0000000
0.0096602     0.4564343  -0.2395738  -0.0076174  -0.0627064   0.0000000   0.0000000   0.0000000   0.0000000
0.0097947     0.4501522  -0.2242249  -0.0099696  -0.0629745   0.0000000   0.0000000   0.0000000   0.0000000
0.0099311     0.4445683  -0.2088039  -0.0123470  -0.0631150   0.0000000   0.0000000   0.0000000   0.0000000
0.0100694     0.4401387  -0.1936134  -0.0146939  -0.0631662   0.0000000   0.0000000   0.0000000   0.0000000
0.0102096     0.4364701  -0.1776645  -0.0170272  -0.0630756   0.0000000   0.0000000   0.0000000   0.0000000
0.0103518     0.4341072  -0.1622046  -0.0193516  -0.0628270   0.0000000   0.0000000   0.0000000   0.0000000
0.0104959     0.4322182  -0.1468272  -0.0216657  -0.0624539   0.0000000   0.0000000   0.0000000   0.0000000
0.0106421     0.4310984  -0.1319375  -0.0238691  -0.0619798   0.0000000   0.0000000   0.0000000   0.0000000
0.0107903     0.4310623  -0.1172151  -0.0260659  -0.0614838   0.0000000   0.0000000   0.0000000   0.0000000
0.0109405     0.4315433  -0.1028016  -0.0282129  -0.0608071   0.0000000   0.0000000   0.0000000   0.0000000
0.0110929     0.4328705  -0.0887240  -0.0302514  -0.0600923   0.0000000   0.0000000   0.0000000   0.0000000
0.0112474     0.4347921  -0.0750883  -0.0322311  -0.0592442   0.0000000   0.0000000   0.0000000   0.0000000
0.0114040     0.4373402  -0.0618537  -0.0341226  -0.0583838   0.0000000   0.0000000   0.0000000   0.0000000
0.0115628     0.4402659  -0.0491088  -0.0360121  -0.0574215   0.0000000   0.0000000   0.0000000   0.0000000
0.0117238     0.4436959  -0.0369591  -0.0377875  -0.0564737   0.0000000   0.0000000   0.0000000   0.0000000
0.0118871     0.4479599  -0.0249802  -0.0393369  -0.0553203   0.0000000   0.0000000   0.0000000   0.0000000
0.0120526     0.4518682  -0.0156399  -0.0421895  -0.0537469   0.0000000   0.0000000   0.0000000   0.0000000
0.0122204     0.4565265  -0.0033416  -0.0426865  -0.0530481   0.0000000   0.0000000   0.0000000   0.0000000
0.0123906     0.4616993   0.0068802  -0.0441443  -0.0519819   0.0000000   0.0000000   0.0000000   0.0000000
0.0125632     0.4668544   0.0166568  -0.0454755  -0.0507480   0.0000000   0.0000000   0.0000000   0.0000000
0.0127381     0.4722133   0.0257202  -0.0468491  -0.0495080   0.0000000   0.0000000   0.0000000   0.0000000
0.0129155     0.4778766   0.0344703  -0.0481070  -0.0482668   0.0000000   0.0000000   0.0000000   0.0000000
0.0130954     0.4836241   0.0427192  -0.0492820  -0.0470118   0.0000000   0.0000000   0.0000000   0.0000000
0.0132777     0.4896169   0.0503697  -0.0504434  -0.0457410   0.0000000   0.0000000   0.0000000   0.0000000
0.0134626     0.4956521   0.0575496  -0.0514452  -0.0444175   0.0000000   0.0000000   0.0000000   0.0000000
0.0136501     0.5016908   0.0643436  -0.0525420  -0.0432046   0.0000000   0.0000000   0.0000000   0.0000000
0.0138402     0.5077276   0.0710212  -0.0534889  -0.0419009   0.0000000   0.0000000   0.0000000   0.0000000
0.0140329     0.5140240   0.0768615  -0.0542628  -0.0405702   0.0000000   0.0000000   0.0000000   0.0000000
0.0142283     0.5204362   0.0825893  -0.0550921  -0.0392677   0.0000000   0.0000000   0.0000000   0.0000000
0.0144264     0.5264371   0.0878253  -0.0558644  -0.0380264   0.0000000   0.0000000   0.0000000   0.0000000
0.0146273     0.5325413   0.0926673  -0.0565624  -0.0367019   0.0000000   0.0000000   0.0000000   0.0000000
0.0148310     0.5386345   0.0971447  -0.0571965  -0.0354676   0.0000000   0.0000000   0.0000000   0.0000000
0.0150376     0.5447487   0.1013223  -0.0578029  -0.0342201   0.0000000   0.0000000   0.0000000   0.0000000
0.0152470     0.5507828   0.1052577  -0.0583889  -0.0329650   0.0000000   0.0000000   0.0000000   0.0000000
0.0154593     0.5566795   0.1087414  -0.0589077  -0.0316813   0.0000000   0.0000000   0.0000000   0.0000000
0.0156746     0.5626305   0.1121524  -0.0593659  -0.0304827   0.0000000   0.0000000   0.0000000   0.0000000
0.0158928     0.5685547   0.1152865  -0.0598235  -0.0292501   0.0000000   0.0000000   0.0000000   0.0000000
0.0161141     0.5741887   0.1179503  -0.0602201  -0.0280607   0.0000000   0.0000000   0.0000000   0.0000000
0.0163385     0.5800488   0.1205573  -0.0605772  -0.0268354   0.0000000   0.0000000   0.0000000   0.0000000
0.0165661     0.5854584   0.1229165  -0.0609238  -0.0256877   0.0000000   0.0000000   0.0000000   0.0000000
0.0167967     0.5909585   0.1248706  -0.0612030  -0.0245150   0.0000000   0.0000000   0.0000000   0.0000000
0.0170307     0.5964070   0.1268336  -0.0614356  -0.0233593   0.0000000   0.0000000   0.0000000   0.0000000
0.0172678     0.6014720   0.1286251  -0.0617057  -0.0222675   0.0000000   0.0000000   0.0000000   0.0000000
0.0175083     0.6065168   0.1301986  -0.0619229  -0.0211479   0.0000000   0.0000000   0.0000000   0.0000000
0.0177521     0.6116877   0.1314926  -0.0620760  -0.0200090   0.0000000   0.0000000   0.0000000   0.0000000
0.0179993     0.6167105   0.1328302  -0.0622320  -0.0189129   0.0000000   0.0000000   0.0000000   0.0000000
0.0182499     0.6216447   0.1336142  -0.0623464  -0.0178544   0.0000000   0.0000000   0.0000000   0.0000000
0.0185041     0.6263872   0.1346096  -0.0624329  -0.0168277   0.0000000   0.0000000   0.0000000   0.0000000
0.0187617     0.6309697   0.1353200  -0.0625158  -0.0157735   0.0000000   0.0000000   0.0000000   0.0000000
0.0190230     0.6355086   0.1360454  -0.0625745  -0.0147460   0.0000000   0.0000000   0.0000000   0.0000000
0.0192879     0.6398353   0.1365341  -0.0625875  -0.0137460   0.0000000   0.0000000   0.0000000   0.0000000
0.0195565     0.6441198   0.1369974  -0.0626152  -0.0127603   0.0000000   0.0000000   0.0000000   0.0000000
0.0198288     0.6484284   0.1373944  -0.0626205  -0.0117817   0.0000000   0.0000000   0.0000000   0.0000000
0.0201050     0.6523763   0.1374349  -0.0625775  -0.0108286   0.0000000   0.0000000   0.0000000   0.0000000
0.0203849     0.6564896   0.1375227  -0.0625184  -0.0098561   0.0000000   0.0000000   0.0000000   0.0000000
0.0206688     0.6603757   0.1376276  -0.0624421  -0.0089297   0.0000000   0.0000000   0.0000000   0.0000000
0.0209566     0.6641852   0.1375441  -0.0623569  -0.0079965   0.0000000   0.0000000   0.0000000   0.0000000
0.0212485     0.6681133   0.1374274  -0.0622577  -0.0070756   0.0000000   0.0000000   0.0000000   0.0000000
0.0215443     0.6716917   0.1372710  -0.0621632  -0.0062361   0.0000000   0.0000000   0.0000000   0.0000000
0.0218444     0.6752391   0.1368866  -0.0620334  -0.0053246   0.0000000   0.0000000   0.0000000   0.0000000
0.0221486     0.6786573   0.1367955  -0.0618579  -0.0044862   0.0000000   0.0000000   0.0000000   0.0000000
0.0224570     0.6820505   0.1363137  -0.0617479  -0.0036224   0.0000000   0.0000000   0.0000000   0.0000000
0.0227697     0.6852962   0.1359603  -0.0615565  -0.0027672   0.0000000   0.0000000   0.0000000   0.0000000
0.0230868     0.6885628   0.1353327  -0.0613827  -0.0019999   0.0000000   0.0000000   0.0000000   0.0000000
0.0234083     0.6916235   0.1349602  -0.0611755  -0.0011179   0.0000000   0.0000000   0.0000000   0.0000000
0.0237342     0.6948000   0.1343563  -0.0609241  -0.0003468   0.0000000   0.0000000   0.0000000   0.0000000
0.0240648     0.6977004   0.1336692  -0.0607993   0.0003275   0.0000000   0.0000000   0.0000000   0.0000000
0.0243999     0.7007438   0.1330060  -0.0604667   0.0011977   0.0000000   0.0000000   0.0000000   0.0000000
0.0247396     0.7033515   0.1324330  -0.0602399   0.0019347   0.0000000   0.0000000   0.0000000   0.0000000
0.0250842     0.7061520   0.1318057  -0.0599788   0.0027186   0.0000000   0.0000000   0.0000000   0.0000000
0.0254335     0.7087695   0.1309261  -0.0597125   0.0034335   0.0000000   0.0000000   0.0000000   0.0000000
0.0257876     0.7116024   0.1302239  -0.0594441   0.0041419   0.0000000   0.0000000   0.0000000   0.0000000
0.0261467     0.7140477   0.1294733  -0.0591246   0.0048780   0.0000000   0.0000000   0.0000000   0.0000000
0.0265108     0.7166210   0.1287580  -0.0588447   0.0055542   0.0000000   0.0000000   0.0000000   0.0000000
0.0268800     0.7190061   0.1279033  -0.0585198   0.0062207   0.0000000   0.0000000   0.0000000   0.0000000
0.0272543     0.7214332   0.1270141  -0.0582040   0.0069271   0.0000000   0.0000000   0.0000000   0.0000000
0.0276339     0.7235894   0.1261138  -0.0578907   0.0075687   0.0000000   0.0000000   0.0000000   0.0000000
0.0280187     0.7259187   0.1252760  -0.0575351   0.0082273   0.0000000   0.0000000   0.0000000   0.0000000
0.0284088     0.7281146   0.1244125  -0.0572126   0.0088696   0.0000000   0.0000000   0.0000000   0.0000000
0.0288044     0.7302952   0.1233710  -0.0568575   0.0094834   0.0000000   0.0000000   0.0000000   0.0000000
0.0292056     0.7324110   0.1226204  -0.0564682   0.0101056   0.0000000   0.0000000   0.0000000   0.0000000
0.0296123     0.7344665   0.1216888  -0.0560922   0.0106942   0.0000000   0.0000000   0.0000000   0.0000000
0.0300246     0.7363677   0.1207658  -0.0557267   0.0112867   0.0000000   0.0000000   0.0000000   0.0000000
0.0304427     0.7383816   0.1197550  -0.0553473   0.0118718   0.0000000   0.0000000   0.0000000   0.0000000
0.0308666     0.7401932   0.1188859  -0.0549747   0.0124280   0.0000000   0.0000000   0.0000000   0.0000000
0.0312965     0.7420704   0.1179391  -0.0545484   0.0129818   0.0000000   0.0000000   0.0000000   0.0000000
0.0317323     0.7438418   0.1169078  -0.0541680   0.0135454   0.0000000   0.0000000   0.0000000   0.0000000
0.0321742     0.7457426   0.1159873  -0.0537311   0.0140768   0.0000000   0.0000000   0.0000000   0.0000000
0.0326222     0.7473884   0.1150569  -0.0533122   0.0146168   0.0000000   0.0000000   0.0000000   0.0000000
0.0330765     0.7490325   0.1141288  -0.0528940   0.0151083   0.0000000   0.0000000   0.0000000   0.0000000
0.0335371     0.7507453   0.1130677  -0.0524646   0.0156088   0.0000000   0.0000000   0.0000000   0.0000000
0.0340041     0.7523205   0.1121501  -0.0520337   0.0161187   0.0000000   0.0000000   0.0000000   0.0000000
0.0344776     0.7539448   0.1111814  -0.0516037   0.0165918   0.0000000   0.0000000   0.0000000   0.0000000
0.0349578     0.7554322   0.1102116  -0.0511241   0.0170513   0.0000000   0.0000000   0.0000000   0.0000000
0.0354446     0.7569795   0.1093723  -0.0506826   0.0175128   0.0000000   0.0000000   0.0000000   0.0000000
0.0359381     0.7584196   0.1082522  -0.0502008   0.0179668   0.0000000   0.0000000   0.0000000   0.0000000
0.0364386     0.7598323   0.1073204  -0.0497474   0.0183923   0.0000000   0.0000000   0.0000000   0.0000000
0.0369460     0.7611391   0.1063324  -0.0492961   0.0188165   0.0000000   0.0000000   0.0000000   0.0000000
0.0374605     0.7626113   0.1053821  -0.0488131   0.0192208   0.0000000   0.0000000   0.0000000   0.0000000
0.0379822     0.7640988   0.1044898  -0.0483317   0.0196251   0.0000000   0.0000000   0.0000000   0.0000000
0.0385111     0.7651846   0.1035095  -0.0478495   0.0200057   0.0000000   0.0000000   0.0000000   0.0000000
0.0390474     0.7664726   0.1025371  -0.0473566   0.0203876   0.0000000   0.0000000   0.0000000   0.0000000
0.0395911     0.7678734   0.1016996  -0.0468773   0.0207598   0.0000000   0.0000000   0.0000000   0.0000000
0.0401424     0.7690553   0.1007101  -0.0463840   0.0211221   0.0000000   0.0000000   0.0000000   0.0000000
0.0407014     0.7702462   0.0997032  -0.0458715   0.0214617   0.0000000   0.0000000   0.0000000   0.0000000
0.0412682     0.7713914   0.0988329  -0.0453972   0.0218131   0.0000000   0.0000000   0.0000000   0.0000000
0.0418429     0.7726093   0.0978962  -0.0448797   0.0221330   0.0000000   0.0000000   0.0000000   0.0000000
0.0424256     0.7736297   0.0969536  -0.0443672   0.0224427   0.0000000   0.0000000   0.0000000   0.0000000
0.0430164     0.7747692   0.0959666  -0.0438465   0.0227312   0.0000000   0.0000000   0.0000000   0.0000000
0.0436154     0.7758278   0.0950843  -0.0433448   0.0230188   0.0000000   0.0000000   0.0000000   0.0000000
0.0442227     0.7768808   0.0941065  -0.0428372   0.0233164   0.0000000   0.0000000   0.0000000   0.0000000
0.0448386     0.7779479   0.0932040  -0.0423061   0.0235846   0.0000000   0.0000000   0.0000000   0.0000000
0.0454630     0.7788668   0.0923425  -0.0417902   0.0238509   0.0000000   0.0000000   0.0000000   0.0000000
0.0460960     0.7799578   0.0914138  -0.0412927   0.0240874   0.0000000   0.0000000   0.0000000   0.0000000
0.0467380     0.7809993   0.0905187  -0.0407570   0.0243277   0.0000000   0.0000000   0.0000000   0.0000000
0.0473888     0.7818588   0.0896058  -0.0402393   0.0245633   0.0000000   0.0000000   0.0000000   0.0000000
0.0480487     0.7829293   0.0886513  -0.0397134   0.0247716   0.0000000   0.0000000   0.0000000   0.0000000
0.0487178     0.7837443   0.0878846  -0.0391889   0.0249832   0.0000000   0.0000000   0.0000000   0.0000000
0.0493962     0.7846456   0.0869380  -0.0386512   0.0251542   0.0000000   0.0000000   0.0000000   0.0000000
0.0500841     0.7855253   0.0860429  -0.0381396   0.0253444   0.0000000   0.0000000   0.0000000   0.0000000
0.0507815     0.7863443   0.0850901  -0.0376010   0.0255222   0.0000000   0.0000000   0.0000000   0.0000000
0.0514887     0.7872108   0.0842817  -0.0370735   0.0256783   0.0000000   0.0000000   0.0000000   0.0000000
0.0522057     0.7880149   0.0834885  -0.0365567   0.0258374   0.0000000   0.0000000   0.0000000   0.0000000
0.0529327     0.7888764   0.0825461  -0.0360305   0.0259788   0.0000000   0.0000000   0.0000000   0.0000000
0.0536698     0.7896870   0.0816951  -0.0355309   0.0261178   0.0000000   0.0000000   0.0000000   0.0000000
0.0544171     0.7904389   0.0808759  -0.0349925   0.0262395   0.0000000   0.0000000   0.0000000   0.0000000
0.0551749     0.7911763   0.0799375  -0.0344809   0.0263444   0.0000000   0.0000000   0.0000000   0.0000000
0.0559433     0.7920113   0.0791223  -0.0339370   0.0264473   0.0000000   0.0000000   0.0000000   0.0000000
0.0567223     0.7927929   0.0783530  -0.0334274   0.0265349   0.0000000   0.0000000   0.0000000   0.0000000
0.0575122     0.7934176   0.0775406  -0.0329145   0.0266275   0.0000000   0.0000000   0.0000000   0.0000000
0.0583131     0.7940781   0.0767085  -0.0324028   0.0266883   0.0000000   0.0000000   0.0000000   0.0000000
0.0591251     0.7947520   0.0758600  -0.0318916   0.0267598   0.0000000   0.0000000   0.0000000   0.0000000
0.0599484     0.7954599   0.0750819  -0.0313809   0.0268148   0.0000000   0.0000000   0.0000000   0.0000000
0.0607832     0.7961420   0.0742360  -0.0308787   0.0268577   0.0000000   0.0000000   0.0000000   0.0000000
0.0616297     0.7968087   0.0734434  -0.0303626   0.0268978   0.0000000   0.0000000   0.0000000   0.0000000
0.0624879     0.7974303   0.0727124  -0.0298694   0.0269188   0.0000000   0.0000000   0.0000000   0.0000000
0.0633580     0.7980790   0.0718298  -0.0293723   0.0269252   0.0000000   0.0000000   0.0000000   0.0000000
0.0642403     0.7986932   0.0710792  -0.0288805   0.0269645   0.0000000   0.0000000   0.0000000   0.0000000
0.0651349     0.7992866   0.0702331  -0.0283749   0.0269334   0.0000000   0.0000000   0.0000000   0.0000000
0.0660419     0.7998778   0.0694597  -0.0278734   0.0269394   0.0000000   0.0000000   0.0000000   0.0000000
0.0669616     0.8003801   0.0687054  -0.0274026   0.0269345   0.0000000   0.0000000   0.0000000   0.0000000
0.0678941     0.8009995   0.0679663  -0.0269210   0.0269142   0.0000000   0.0000000   0.0000000   0.0000000
0.0688395     0.8016190   0.0671864  -0.0264351   0.0268677   0.0000000   0.0000000   0.0000000   0.0000000
0.0697981     0.8021828   0.0663749  -0.0259533   0.0268235   0.0000000   0.0000000   0.0000000   0.0000000
0.0707701     0.8025772   0.0656896  -0.0254710   0.0267798   0.0000000   0.0000000   0.0000000   0.0000000
0.0717556     0.8031069   0.0648339  -0.0250091   0.0267445   0.0000000   0.0000000   0.0000000   0.0000000
0.0727548     0.8037653   0.0641601  -0.0245777   0.0266740   0.0000000   0.0000000   0.0000000   0.0000000
0.0737680     0.8041483   0.0635636  -0.0241224   0.0266013   0.0000000   0.0000000   0.0000000   0.0000000
0.0747952     0.8046142   0.0626919  -0.0236663   0.0265323   0.0000000   0.0000000   0.0000000   0.0000000
0.0758368     0.8051941   0.0619176  -0.0232043   0.0264448   0.0000000   0.0000000   0.0000000   0.0000000
0.0768928     0.8056648   0.0612357  -0.0227727   0.0263604   0.0000000   0.0000000   0.0000000   0.0000000
0.0779636     0.8061704   0.0604984  -0.0223312   0.0262549   0.0000000   0.0000000   0.0000000   0.0000000
0.0790493     0.8066190   0.0598173  -0.0218933   0.0261471   0.0000000   0.0000000   0.0000000   0.0000000
0.0801501     0.8069748   0.0590647  -0.0214758   0.0260477   0.0000000   0.0000000   0.0000000   0.0000000
0.0812662     0.8074568   0.0584132  -0.0210422   0.0259414   0.0000000   0.0000000   0.0000000   0.0000000
0.0823979     0.8078440   0.0576363  -0.0206344   0.0258028   0.0000000   0.0000000   0.0000000   0.0000000
0.0835453     0.8082944   0.0570120  -0.0202191   0.0256880   0.0000000   0.0000000   0.0000000   0.0000000
0.0847087     0.8087590   0.0562818  -0.0198027   0.0255622   0.0000000   0.0000000   0.0000000   0.0000000
0.0858883     0.8091389   0.0555717  -0.0193971   0.0254086   0.0000000   0.0000000   0.0000000   0.0000000
0.0870843     0.8094989   0.0549999  -0.0190091   0.0252795   0.0000000   0.0000000   0.0000000   0.0000000
0.0882970     0.8098750   0.0542003  -0.0186041   0.0251235   0.0000000   0.0000000   0.0000000   0.0000000
0.0895266     0.8102814   0.0534864  -0.0182225   0.0249704   0.0000000   0.0000000   0.0000000   0.0000000
0.0907733     0.8106898   0.0528628  -0.0178443   0.0248266   0.0000000   0.0000000   0.0000000   0.0000000
0.0920373     0.8109809   0.0522798  -0.0174662   0.0246769   0.0000000   0.0000000   0.0000000   0.0000000
0.0933190     0.8113989   0.0515190  -0.0171003   0.0245106   0.0000000   0.0000000   0.0000000   0.0000000
0.0946185     0.8117335   0.0509267  -0.0167156   0.0243335   0.0000000   0.0000000   0.0000000   0.0000000
0.0959361     0.8121562   0.0503393  -0.0163748   0.0241619   0.0000000   0.0000000   0.0000000   0.0000000
0.0972720     0.8124345   0.0495578  -0.0160064   0.0239926   0.0000000   0.0000000   0.0000000   0.0000000
0.0986266     0.8127566   0.0489226  -0.0156469   0.0238122   0.0000000   0.0000000   0.0000000   0.0000000
0.1000000     0.8130069   0.0483039  -0.0153231   0.0236430   0.0000000   0.0000000   0.0000000   0.0000000
0.1013925     0.8132427   0.0476592  -0.0149796   0.0234510   0.0000000   0.0000000   0.0000000   0.0000000
0.1028045     0.8136636   0.0470432  -0.0146548   0.0232548   0.0000000   0.0000000   0.0000000   0.0000000
0.1042361     0.8139170   0.0464467  -0.0143316   0.0230942   0.0000000   0.0000000   0.0000000   0.0000000
0.1056876     0.8141900   0.0458917  -0.0140158   0.0229003   0.0000000   0.0000000   0.0000000   0.0000000
0.1071593     0.8145452   0.0452255  -0.0136854   0.0226882   0.0000000   0.0000000   0.0000000   0.0000000
0.1086516     0.8146615   0.0446327  -0.0133784   0.0225073   0.0000000   0.0000000   0.0000000   0.0000000
0.1101646     0.8150434   0.0440908  -0.0130731   0.0223022   0.0000000   0.0000000   0.0000000   0.0000000
0.1116987     0.8152123   0.0435076  -0.0127848   0.0221116   0.0000000   0.0000000   0.0000000   0.0000000
0.1132541     0.8155422   0.0429264  -0.0124855   0.0219055   0.0000000   0.0000000   0.0000000   0.0000000
0.1148312     0.8157838   0.0423043  -0.0122022   0.0217018   0.0000000   0.0000000   0.0000000   0.0000000
0.1164303     0.8160286   0.0417374  -0.0119253   0.0214841   0.0000000   0.0000000   0.0000000   0.0000000
0.1180517     0.8162652   0.0412815  -0.0116445   0.0212789   0.0000000   0.0000000   0.0000000   0.0000000
0.1196956     0.8164827   0.0406612  -0.0113852   0.0210703   0.0000000   0.0000000   0.0000000   0.0000000
0.1213624     0.8167563   0.0400870  -0.0111203   0.0208576   0.0000000   0.0000000   0.0000000   0.0000000
0.1230524     0.8169516   0.0394817  -0.0108576   0.0206556   0.0000000   0.0000000   0.0000000   0.0000000
0.1247660     0.8171511   0.0389644  -0.0106033   0.0204297   0.0000000   0.0000000   0.0000000   0.0000000
0.1265034     0.8173551   0.0383636  -0.0103336   0.0202247   0.0000000   0.0000000   0.0000000   0.0000000
0.1282650     0.8175088   0.0379222  -0.0101107   0.0200072   0.0000000   0.0000000   0.0000000   0.0000000
0.1300511     0.8177085   0.0373605  -0.0098674   0.0197988   0.0000000   0.0000000   0.0000000   0.0000000
0.1318621     0.8179344   0.0367933  -0.0096254   0.0195861   0.0000000   0.0000000   0.0000000   0.0000000
0.1336984     0.8181491   0.0363226  -0.0093987   0.0193676   0.0000000   0.0000000   0.0000000   0.0000000
0.1355602     0.8183947   0.0357791  -0.0091796   0.0191506   0.0000000   0.0000000   0.0000000   0.0000000
0.1374479     0.8185089   0.0352134  -0.0089576   0.0189280   0.0000000   0.0000000   0.0000000   0.0000000
0.1393619     0.8186541   0.0347375  -0.0087367   0.0186893   0.0000000   0.0000000   0.0000000   0.0000000
0.1413026     0.8188604   0.0342567  -0.0085129   0.0184822   0.0000000   0.0000000   0.0000000   0.0000000
0.1432703     0.8191010   0.0337295  -0.0083080   0.0182729   0.0000000   0.0000000   0.0000000   0.0000000
0.1452654     0.8192314   0.0331862  -0.0080920   0.0180443   0.0000000   0.0000000   0.0000000   0.0000000
0.1472883     0.8194854   0.0327046  -0.0079176   0.0178122   0.0000000   0.0000000   0.0000000   0.0000000
0.1493393     0.8195005   0.0321590  -0.0077283   0.0176101   0.0000000   0.0000000   0.0000000   0.0000000
0.1514189     0.8196906   0.0317277  -0.0075295   0.0173918   0.0000000   0.0000000   0.0000000   0.0000000
0.1535275     0.8198319   0.0312336  -0.0073438   0.0171736   0.0000000   0.0000000   0.0000000   0.0000000
0.1556654     0.8200987   0.0307840  -0.0071519   0.0169453   0.0000000   0.0000000   0.0000000   0.0000000
0.1578331     0.8201900   0.0303901  -0.0069826   0.0167172   0.0000000   0.0000000   0.0000000   0.0000000
0.1600310     0.8202456   0.0297286  -0.0068110   0.0164948   0.0000000   0.0000000   0.0000000   0.0000000
0.1622595     0.8204069   0.0293127  -0.0066593   0.0162887   0.0000000   0.0000000   0.0000000   0.0000000
0.1645191     0.8205842   0.0288987  -0.0064874   0.0160677   0.0000000   0.0000000   0.0000000   0.0000000
0.1668101     0.8207615   0.0284589  -0.0063169   0.0158555   0.0000000   0.0000000   0.0000000   0.0000000
0.1691330     0.8208594   0.0279477  -0.0061792   0.0156325   0.0000000   0.0000000   0.0000000   0.0000000
0.1714882     0.8209469   0.0275358  -0.0060065   0.0154207   0.0000000   0.0000000   0.0000000   0.0000000
0.1738762     0.8210801   0.0270198  -0.0058592   0.0151940   0.0000000   0.0000000   0.0000000   0.0000000
0.1762975     0.8212963   0.0266163  -0.0057232   0.0149945   0.0000000   0.0000000   0.0000000   0.0000000
0.1787526     0.8212940   0.0261672  -0.0055600   0.0147740   0.0000000   0.0000000   0.0000000   0.0000000
0.1812418     0.8213909   0.0257587  -0.0054216   0.0145540   0.0000000   0.0000000   0.0000000   0.0000000
0.1837656     0.8215091   0.0253207  -0.0052782   0.0143372   0.0000000   0.0000000   0.0000000   0.0000000
0.1863246     0.8216764   0.0248411  -0.0051482   0.0141269   0.0000000   0.0000000   0.0000000   0.0000000
0.1889193     0.8217804   0.0244636  -0.0050319   0.0139276   0.0000000   0.0000000   0.0000000   0.0000000
0.1915501     0.8218122   0.0240976  -0.0049091   0.0137153   0.0000000   0.0000000   0.0000000   0.0000000
0.1942175     0.8218735   0.0236207  -0.0047700   0.0134956   0.0000000   0.0000000   0.0000000   0.0000000
0.1969220     0.8220547   0.0232598  -0.0046517   0.0132974   0.0000000   0.0000000   0.0000000   0.0000000
0.1996642     0.8220923   0.0228474  -0.0045333   0.0130805   0.0000000   0.0000000   0.0000000   0.0000000
0.2024447     0.8222137   0.0223796  -0.0044102   0.0128601   0.0000000   0.0000000   0.0000000   0.0000000
0.2052638     0.8222615   0.0220701  -0.0043061   0.0126809   0.0000000   0.0000000   0.0000000   0.0000000
0.2081222     0.8223209   0.0216632  -0.0041868   0.0124658   0.0000000   0.0000000   0.0000000   0.0000000
0.2110203     0.8224727   0.0212077  -0.0040840   0.0122564   0.0000000   0.0000000   0.0000000   0.0000000
0.2139589     0.8225258   0.0208202  -0.0039838   0.0120630   0.0000000   0.0000000   0.0000000   0.0000000
0.2169384     0.8226804   0.0204600  -0.0038804   0.0118611   0.0000000   0.0000000   0.0000000   0.0000000
0.2199593     0.8226610   0.0200607  -0.0037922   0.0116697   0.0000000   0.0000000   0.0000000   0.0000000
0.2230223     0.8227030   0.0196514  -0.0036778   0.0114522   0.0000000   0.0000000   0.0000000   0.0000000
0.2261280     0.8228094   0.0192649  -0.0035979   0.0112439   0.0000000   0.0000000   0.0000000   0.0000000
0.2292769     0.8229176   0.0188816  -0.0034938   0.0110649   0.0000000   0.0000000   0.0000000   0.0000000
0.2324697     0.8229915   0.0185563  -0.0034215   0.0108644   0.0000000   0.0000000   0.0000000   0.0000000
0.2357069     0.8230232   0.0181586  -0.0033364   0.0106635   0.0000000   0.0000000   0.0000000   0.0000000
0.2389893     0.8230704   0.0177728  -0.0032595   0.0104707   0.0000000   0.0000000   0.0000000   0.0000000
0.2423173     0.8231644   0.0174484  -0.0031671   0.0102746   0.0000000   0.0000000   0.0000000   0.0000000
0.2456916     0.8231975   0.0170762  -0.0030951   0.0100841   0.0000000   0.0000000   0.0000000   0.0000000
0.2491130     0.8232474   0.0166256  -0.0029994   0.0098763   0.0000000   0.0000000   0.0000000   0.0000000
0.2525820     0.8233155   0.0163408  -0.0029329   0.0096902   0.0000000   0.0000000   0.0000000   0.0000000
0.2560993     0.8234229   0.0160457  -0.0028435   0.0094938   0.0000000   0.0000000   0.0000000   0.0000000
0.2596656     0.8234524   0.0156850  -0.0027804   0.0093036   0.0000000   0.0000000   0.0000000   0.0000000
0.2632815     0.8235053   0.0152526  -0.0027166   0.0091267   0.0000000   0.0000000   0.0000000   0.0000000
0.2669478     0.8235565   0.0149576  -0.0026497   0.0089260   0.0000000   0.0000000   0.0000000   0.0000000
0.2706652     0.8235741   0.0146773  -0.0025718   0.0087343   0.0000000   0.0000000   0.0000000   0.0000000
0.2744343     0.8237159   0.0143660  -0.0025050   0.0085671   0.0000000   0.0000000   0.0000000   0.0000000
0.2782559     0.8236848   0.0139088  -0.0024498   0.0083765   0.0000000   0.0000000   0.0000000   0.0000000
0.2821308     0.8236859   0.0136270  -0.0023942   0.0081950   0.0000000   0.0000000   0.0000000   0.0000000
0.2860596     0.8238478   0.0132524  -0.0023204   0.0080270   0.0000000   0.0000000   0.0000000   0.0000000
0.2900430     0.8238906   0.0128410  -0.0022743   0.0078203   0.0000000   0.0000000   0.0000000   0.0000000
0.2940820     0.8237950   0.0125298  -0.0022087   0.0076465   0.0000000   0.0000000   0.0000000   0.0000000
0.2981772     0.8239295   0.0122199  -0.0021567   0.0074749   0.0000000   0.0000000   0.0000000   0.0000000
0.3023295     0.8239647   0.0119552  -0.0021121   0.0072875   0.0000000   0.0000000   0.0000000   0.0000000
0.3065395     0.8239857   0.0115924  -0.0020498   0.0070972   0.0000000   0.0000000   0.0000000   0.0000000
0.3108082     0.8240066   0.0112909  -0.0020050   0.0069439   0.0000000   0.0000000   0.0000000   0.0000000
0.3151363     0.8240425   0.0109638  -0.0019520   0.0067613   0.0000000   0.0000000   0.0000000   0.0000000
0.3195248     0.8240640   0.0105963  -0.0019181   0.0065888   0.0000000   0.0000000   0.0000000   0.0000000
0.3239743     0.8240912   0.0103412  -0.0018653   0.0064205   0.0000000   0.0000000   0.0000000   0.0000000
0.3284857     0.8240850   0.0100610  -0.0018221   0.0062432   0.0000000   0.0000000   0.0000000   0.0000000
0.3330600     0.8241467   0.0097077  -0.0017859   0.0060674   0.0000000   0.0000000   0.0000000   0.0000000
0.3376980     0.8242325   0.0093591  -0.0017308   0.0058874   0.0000000   0.0000000   0.0000000   0.0000000
0.3424006     0.8242692   0.0090487  -0.0016880   0.0057172   0.0000000   0.0000000   0.0000000   0.0000000
0.3471687     0.8242540   0.0087352  -0.0016513   0.0055519   0.0000000   0.0000000   0.0000000   0.0000000
0.3520031     0.8243032   0.0084562  -0.0016206   0.0053822   0.0000000   0.0000000   0.0000000   0.0000000
0.3569049     0.8243627   0.0081067  -0.0015812   0.0052016   0.0000000   0.0000000   0.0000000   0.0000000
0.3618750     0.8243078   0.0078958  -0.0015560   0.0050422   0.0000000   0.0000000   0.0000000   0.0000000
0.3669142     0.8244496   0.0075246  -0.0015192   0.0048744   0.0000000   0.0000000   0.0000000   0.0000000
0.3720237     0.8244516   0.0073004  -0.0014803   0.0047214   0.0000000   0.0000000   0.0000000   0.0000000
0.3772042     0.8244079   0.0068677  -0.0014481   0.0045364   0.0000000   0.0000000   0.0000000   0.0000000
0.3824570     0.8243737   0.0066506  -0.0014203   0.0043768   0.0000000   0.0000000   0.0000000   0.0000000
0.3877828     0.8244760   0.0064173  -0.0013936   0.0042227   0.0000000   0.0000000   0.0000000   0.0000000
0.3931829     0.8244340   0.0060060  -0.0013691   0.0040553   0.0000000   0.0000000   0.0000000   0.0000000
0.3986581     0.8244386   0.0057950  -0.0013277   0.0038886   0.0000000   0.0000000   0.0000000   0.0000000
0.4042096     0.8245301   0.0054703  -0.0012996   0.0037155   0.0000000   0.0000000   0.0000000   0.0000000
0.4098384     0.8245470   0.0052363  -0.0012736   0.0035566   0.0000000   0.0000000   0.0000000   0.0000000
0.4155455     0.8246364   0.0048972  -0.0012421   0.0034003   0.0000000   0.0000000   0.0000000   0.0000000
0.4213322     0.8245956   0.0045562  -0.0012169   0.0032351   0.0000000   0.0000000   0.0000000   0.0000000
0.4271994     0.8245394   0.0043436  -0.0012088   0.0030806   0.0000000   0.0000000   0.0000000   0.0000000
0.4331483     0.8245439   0.0040081  -0.0011752   0.0029218   0.0000000   0.0000000   0.0000000   0.0000000
0.4391801     0.8245548   0.0037286  -0.0011701   0.0027454   0.0000000   0.0000000   0.0000000   0.0000000
0.4452959     0.8245879   0.0033939  -0.0011391   0.0025811   0.0000000   0.0000000   0.0000000   0.0000000
0.4514968     0.8245351   0.0030927  -0.0011266   0.0024257   0.0000000   0.0000000   0.0000000   0.0000000
0.4577841     0.8245760   0.0028561  -0.0011019   0.0022637   0.0000000   0.0000000   0.0000000   0.0000000
0.4641589     0.8245203   0.0026128  -0.0010768   0.0021155   0.0000000   0.0000000   0.0000000   0.0000000
0.4706225     0.8245999   0.0022065  -0.0010545   0.0019629   0.0000000   0.0000000   0.0000000   0.0000000
0.4771761     0.8245690   0.0020046  -0.0010510   0.0017958   0.0000000   0.0000000   0.0000000   0.0000000
0.4838210     0.8246283   0.0017021  -0.0010221   0.0016442   0.0000000   0.0000000   0.0000000   0.0000000
0.4905584     0.8246528   0.0013477  -0.0010054   0.0014811   0.0000000   0.0000000   0.0000000   0.0000000
0.4973896     0.8245930   0.0010233  -0.0009942   0.0013112   0.0000000   0.0000000   0.0000000   0.0000000
0.5043159     0.8246573   0.0008724  -0.0009749   0.0011661   0.0000000   0.0000000   0.0000000   0.0000000
0.5113388     0.8246957   0.0005174  -0.0009577   0.0010110   0.0000000   0.0000000   0.0000000   0.0000000
0.5184594     0.8246956   0.0002785  -0.0009609   0.0008517   0.0000000   0.0000000   0.0000000   0.0000000
0.5256791     0.8246529  -0.0000405  -0.0009398   0.0006779   0.0000000   0.0000000   0.0000000   0.0000000
0.5329994     0.8246503  -0.0002651  -0.0009325   0.0005436   0.0000000   0.0000000   0.0000000   0.0000000
0.5404216     0.8246500  -0.0006196  -0.0009262   0.0003725   0.0000000   0.0000000   0.0000000   0.0000000
0.5479472     0.8246405  -0.0009265  -0.0009147   0.0002223   0.0000000   0.0000000   0.0000000   0.0000000
0.5555776     0.8246057  -0.0012149  -0.0008938   0.0000568   0.0000000   0.0000000   0.0000000   0.0000000
0.5633143     0.8245846  -0.0015474  -0.0008931  -0.0000879   0.0000000   0.0000000   0.0000000   0.0000000
0.5711586     0.8246166  -0.0017125  -0.0008778  -0.0002641   0.0000000   0.0000000   0.0000000   0.0000000
0.5791123     0.8246162  -0.0020373  -0.0008795  -0.0004073   0.0000000   0.0000000   0.0000000   0.0000000
0.5871766     0.8246050  -0.0023816  -0.0008771  -0.0005739   0.0000000   0.0000000   0.0000000   0.0000000
0.5953533     0.8247171  -0.0026067  -0.0008552  -0.0007284   0.0000000   0.0000000   0.0000000   0.0000000
0.6036439     0.8246842  -0.0028469  -0.0008626  -0.0008988   0.0000000   0.0000000   0.0000000   0.0000000
0.6120498     0.8245913  -0.0031535  -0.0008548  -0.0010280   0.0000000   0.0000000   0.0000000   0.0000000
0.6205729     0.8245995  -0.0034718  -0.0008483  -0.0012141   0.0000000   0.0000000   0.0000000   0.0000000
0.6292146     0.8245959  -0.0037872  -0.0008524  -0.0013670   0.0000000   0.0000000   0.0000000   0.0000000
0.6379767     0.8246036  -0.0040373  -0.0008391  -0.0015236   0.0000000   0.0000000   0.0000000   0.0000000
0.6468608     0.8245345  -0.0043377  -0.0008386  -0.0016782   0.0000000   0.0000000   0.0000000   0.0000000
0.6558686     0.8245865  -0.0046245  -0.0008329  -0.0018368   0.0000000   0.0000000   0.0000000   0.0000000
0.6650018     0.8245874  -0.0049423  -0.0008365  -0.0020006   0.0000000   0.0000000   0.0000000   0.0000000
0.6742622     0.8245725  -0.0052391  -0.0008412  -0.0021681   0.0000000   0.0000000   0.0000000   0.0000000
0.6836516     0.8244295  -0.0056063  -0.0008387  -0.0023209   0.0000000   0.0000000   0.0000000   0.0000000
0.6931717     0.8245552  -0.0058181  -0.0008349  -0.0024982   0.0000000   0.0000000   0.0000000   0.0000000
0.7028244     0.8244869  -0.0061044  -0.0008516  -0.0026498   0.0000000   0.0000000   0.0000000   0.0000000
0.7126115     0.8245410  -0.0064027  -0.0008504  -0.0028137   0.0000000   0.0000000   0.0000000   0.0000000
0.7225349     0.8245007  -0.0066332  -0.0008581  -0.0029836   0.0000000   0.0000000   0.0000000   0.0000000
0.7325965     0.8244954  -0.0070147  -0.0008390  -0.0031435   0.0000000   0.0000000   0.0000000   0.0000000
0.7427982     0.8245352  -0.0072890  -0.0008460  -0.0033027   0.0000000   0.0000000   0.0000000   0.0000000
0.7531420     0.8244070  -0.0076170  -0.0008472  -0.0034577   0.0000000   0.0000000   0.0000000   0.0000000
0.7636298     0.8244917  -0.0078375  -0.0008612  -0.0036361   0.0000000   0.0000000   0.0000000   0.0000000
0.7742637     0.8243194  -0.0082708  -0.0008768  -0.0037858   0.0000000   0.0000000   0.0000000   0.0000000
0.7850456     0.8244341  -0.0085622  -0.0008705  -0.0039803   0.0000000   0.0000000   0.0000000   0.0000000
0.7959777     0.8243845  -0.0089074  -0.0008744  -0.0041392   0.0000000   0.0000000   0.0000000   0.0000000
0.8070620     0.8243873  -0.0091715  -0.0008820  -0.0042815   0.0000000   0.0000000   0.0000000   0.0000000
0.8183007     0.8244186  -0.0094592  -0.0008908  -0.0044607   0.0000000   0.0000000   0.0000000   0.0000000
0.8296959     0.8243823  -0.0096974  -0.0008956  -0.0046284   0.0000000   0.0000000   0.0000000   0.0000000
0.8412497     0.8242890  -0.0101199  -0.0009026  -0.0047979   0.0000000   0.0000000   0.0000000   0.0000000
0.8529644     0.8242918  -0.0104380  -0.0009091  -0.0049644   0.0000000   0.0000000   0.0000000   0.0000000
0.8648423     0.8242084  -0.0107795  -0.0009259  -0.0051457   0.0000000   0.0000000   0.0000000   0.0000000
0.8768856     0.8241732  -0.0110288  -0.0009124  -0.0052988   0.0000000   0.0000000   0.0000000   0.0000000
0.8890966     0.8241664  -0.0113712  -0.0009442  -0.0054847   0.0000000   0.0000000   0.0000000   0.0000000
0.9014776     0.8242076  -0.0117311  -0.0009521  -0.0056734   0.0000000   0.0000000   0.0000000   0.0000000
0.9140311     0.8240936  -0.0120762  -0.0009680  -0.0058499   0.0000000   0.0000000   0.0000000   0.0000000
0.9267593     0.8241006  -0.0123393  -0.0009858  -0.0060183   0.0000000   0.0000000   0.0000000   0.0000000
0.9396648     0.8240368  -0.0126513  -0.0010002  -0.0061928   0.0000000   0.0000000   0.0000000   0.0000000
0.9527500     0.8240831  -0.0130152  -0.0010048  -0.0063732   0.0000000   0.0000000   0.0000000   0.0000000
0.9660175     0.8239658  -0.0132235  -0.0010232  -0.0065579   0.0000000   0.0000000   0.0000000   0.0000000
0.9794697     0.8240234  -0.0136913  -0.0010355  -0.0067422   0.0000000   0.0000000   0.0000000   0.0000000
0.9931092     0.8239957  -0.0140456  -0.0010657  -0.0069217   0.0000000   0.0000000   0.0000000   0.0000000
1.0069386     0.8238336  -0.0144422  -0.0010671  -0.0070954   0.0000000   0.0000000   0.0000000   0.0000000
1.0209607     0.8238909  -0.0147735  -0.0010944  -0.0072834   0.0000000   0.0000000   0.0000000   0.0000000
1.0351780     0.8237792  -0.0150625  -0.0011051  -0.0074923   0.0000000   0.0000000   0.0000000   0.0000000
1.0495932     0.8237550  -0.0153992  -0.0011228  -0.0076654   0.0000000   0.0000000   0.0000000   0.0000000
1.0642092     0.8237343  -0.0158248  -0.0011478  -0.0078520   0.0000000   0.0000000   0.0000000   0.0000000
1.0790288     0.8237215  -0.0160708  -0.0011490  -0.0080388   0.0000000   0.0000000   0.0000000   0.0000000
1.0940547     0.8237489  -0.0164684  -0.0011879  -0.0082403   0.0000000   0.0000000   0.0000000   0.0000000
1.1092899     0.8236569  -0.0168894  -0.0011966  -0.0084091   0.0000000   0.0000000   0.0000000   0.0000000
1.1247372     0.8236219  -0.0172646  -0.0012376  -0.0086226   0.0000000   0.0000000   0.0000000   0.0000000
1.1403996     0.8235030  -0.0175886  -0.0012466  -0.0088207   0.0000000   0.0000000   0.0000000   0.0000000
1.1562801     0.8234824  -0.0179712  -0.0012698  -0.0089987   0.0000000   0.0000000   0.0000000   0.0000000
1.1723818     0.8235104  -0.0183404  -0.0012970  -0.0092073   0.0000000   0.0000000   0.0000000   0.0000000
1.1887077     0.8233536  -0.0187031  -0.0013248  -0.0094000   0.0000000   0.0000000   0.0000000   0.0000000
1.2052609     0.8233389  -0.0191750  -0.0013580  -0.0096124   0.0000000   0.0000000   0.0000000   0.0000000
1.2220447     0.8233131  -0.0194579  -0.0013801  -0.0097951   0.0000000   0.0000000   0.0000000   0.0000000
1.2390622     0.8232923  -0.0198905  -0.0013930  -0.0100252   0.0000000   0.0000000   0.0000000   0.0000000
1.2563166     0.8232156  -0.0203253  -0.0014344  -0.0102298   0.0000000   0.0000000   0.0000000   0.0000000
1.2738113     0.8231390  -0.0205816  -0.0014638  -0.0104374   0.0000000   0.0000000   0.0000000   0.0000000
1.2915497     0.8230295  -0.0210133  -0.0014867  -0.0106443   0.0000000   0.0000000   0.0000000   0.0000000
1.3095350     0.8230949  -0.0215054  -0.0015257  -0.0108450   0.0000000   0.0000000   0.0000000   0.0000000
1.3277708     0.8229318  -0.0218161  -0.0015413  -0.0110614   0.0000000   0.0000000   0.0000000   0.0000000
1.3462606     0.8228511  -0.0223034  -0.0015772  -0.0112817   0.0000000   0.0000000   0.0000000   0.0000000
1.3650078     0.8228031  -0.0226754  -0.0016236  -0.0115016   0.0000000   0.0000000   0.0000000   0.0000000
1.3840161     0.8228125  -0.0230646  -0.0016594  -0.0117173   0.0000000   0.0000000   0.0000000   0.0000000
1.4032891     0.8226261  -0.0234411  -0.0016936  -0.0119397   0.0000000   0.0000000   0.0000000   0.0000000
1.4228305     0.8226437  -0.0238333  -0.0017270  -0.0121661   0.0000000   0.0000000   0.0000000   0.0000000
1.4426440     0.8226183  -0.0243295  -0.0017604  -0.0123904   0.0000000   0.0000000   0.0000000   0.0000000
1.4627334     0.8225216  -0.0247852  -0.0018094  -0.0126120   0.0000000   0.0000000   0.0000000   0.0000000
1.4831025     0.8224315  -0.0253082  -0.0018466  -0.0128620   0.0000000   0.0000000   0.0000000   0.0000000
1.5037553     0.8223243  -0.0256506  -0.0018852  -0.0130863   0.0000000   0.0000000   0.0000000   0.0000000
1.5246957     0.8221735  -0.0261196  -0.0019179  -0.0133193   0.0000000   0.0000000   0.0000000   0.0000000
1.5459277     0.8221781  -0.0265864  -0.0019649  -0.0135577   0.0000000   0.0000000   0.0000000   0.0000000
1.5674554     0.8221424  -0.0270868  -0.0020269  -0.0137905   0.0000000   0.0000000   0.0000000   0.0000000
1.5892829     0.8219175  -0.0274857  -0.0020618  -0.0140223   0.0000000   0.0000000   0.0000000   0.0000000
1.6114143     0.8218731  -0.0279219  -0.0021052  -0.0142909   0.0000000   0.0000000   0.0000000   0.0000000
1.6338539     0.8218274  -0.0283995  -0.0021747  -0.0145226   0.0000000   0.0000000   0.0000000   0.0000000
1.6566060     0.8217416  -0.0288510  -0.0022123  -0.0147701   0.0000000   0.0000000   0.0000000   0.0000000
1.6796749     0.8216391  -0.0293365  -0.0022638  -0.0150238   0.0000000   0.0000000   0.0000000   0.0000000
1.7030650     0.8215824  -0.0298659  -0.0023113  -0.0152659   0.0000000   0.0000000   0.0000000   0.0000000
1.7267809     0.8214873  -0.0303100  -0.0023686  -0.0155467   0.0000000   0.0000000   0.0000000   0.0000000
1.7508270     0.8213085  -0.0307695  -0.0024281  -0.0157896   0.0000000   0.0000000   0.0000000   0.0000000
1.7752080     0.8213016  -0.0313950  -0.0024929  -0.0160709   0.0000000   0.0000000   0.0000000   0.0000000
1.7999285     0.8211307  -0.0318587  -0.0025441  -0.0163215   0.0000000   0.0000000   0.0000000   0.0000000
1.8249932     0.8210709  -0.0323802  -0.0026032  -0.0165864   0.0000000   0.0000000   0.0000000   0.0000000
1.8504070     0.8209571  -0.0328779  -0.0026742  -0.0168645   0.0000000   0.0000000   0.0000000   0.0000000
1.8761747     0.8207732  -0.0333868  -0.0027310  -0.0171167   0.0000000   0.0000000   0.0000000   0.0000000
1.9023012     0.8207619  -0.0339784  -0.0027742  -0.0174067   0.0000000   0.0000000   0.0000000   0.0000000
1.9287915     0.8205681  -0.0344080  -0.0028633  -0.0176680   0.0000000   0.0000000   0.0000000   0.0000000
1.9556507     0.8204825  -0.0349698  -0.0029214  -0.0179675   0.0000000   0.0000000   0.0000000   0.0000000
1.9828839     0.8202971  -0.0355036  -0.0030007  -0.0182405   0.0000000   0.0000000   0.0000000   0.0000000
2.0104964     0.8202263  -0.0360657  -0.0030716  -0.0185310   0.0000000   0.0000000   0.0000000   0.0000000
2.0384934     0.8200507  -0.0366267  -0.0031496  -0.0188092   0.0000000   0.0000000   0.0000000   0.0000000
2.0668802     0.8198613  -0.0371578  -0.0032327  -0.0191195   0.0000000   0.0000000   0.0000000   0.0000000
2.0956624     0.8197401  -0.0377902  -0.0032965  -0.0193925   0.0000000   0.0000000   0.0000000   0.0000000
2.1248454     0.8196339  -0.0382421  -0.0033863  -0.0196946   0.0000000   0.0000000   0.0000000   0.0000000
2.1544347     0.8194594  -0.0389719  -0.0034692  -0.0200080   0.0000000   0.0000000   0.0000000   0.0000000
2.1844361     0.8193430  -0.0394814  -0.0035552  -0.0203184   0.0000000   0.0000000   0.0000000   0.0000000
2.2148552     0.8191501  -0.0401225  -0.0036394  -0.0206240   0.0000000   0.0000000   0.0000000   0.0000000
2.2456980     0.8190361  -0.0406703  -0.0037223  -0.0209374   0.0000000   0.0000000   0.0000000   0.0000000
2.2769703     0.8188898  -0.0412627  -0.0038082  -0.0212449   0.0000000   0.0000000   0.0000000   0.0000000
2.3086780     0.8186485  -0.0419623  -0.0039127  -0.0215570   0.0000000   0.0000000   0.0000000   0.0000000
2.3408273     0.8185406  -0.0424884  -0.0039953  -0.0218710   0.0000000   0.0000000   0.0000000   0.0000000
2.3734243     0.8182730  -0.0431008  -0.0041034  -0.0222025   0.0000000   0.0000000   0.0000000   0.0000000
2.4064752     0.8181644  -0.0437714  -0.0042066  -0.0225254   0.0000000   0.0000000   0.0000000   0.0000000
2.4399863     0.8180096  -0.0444067  -0.0042925  -0.0228644   0.0000000   0.0000000   0.0000000   0.0000000
2.4739641     0.8177872  -0.0451103  -0.0043979  -0.0232059   0.0000000   0.0000000   0.0000000   0.0000000
2.5084151     0.8176281  -0.0456925  -0.0045124  -0.0235489   0.0000000   0.0000000   0.0000000   0.0000000
2.5433458     0.8174192  -0.0463474  -0.0046217  -0.0238828   0.0000000   0.0000000   0.0000000   0.0000000
2.5787629     0.8172111  -0.0470560  -0.0047384  -0.0242260   0.0000000   0.0000000   0.0000000   0.0000000
2.6146732     0.8170479  -0.0477173  -0.0048519  -0.0245757   0.0000000   0.0000000   0.0000000   0.0000000
2.6510836     0.8167234  -0.0483330  -0.0049641  -0.0249239   0.0000000   0.0000000   0.0000000   0.0000000
2.6880010     0.8164823  -0.0490743  -0.0051042  -0.0252912   0.0000000   0.0000000   0.0000000   0.0000000
2.7254325     0.8163176  -0.0498068  -0.0052144  -0.0256314   0.0000000   0.0000000   0.0000000   0.0000000
2.7633853     0.8161542  -0.0505254  -0.0053504  -0.0260064   0.0000000   0.0000000   0.0000000   0.0000000
2.8018666     0.8159047  -0.0511561  -0.0054811  -0.0263657   0.0000000   0.0000000   0.0000000   0.0000000
2.8408837     0.8156014  -0.0518904  -0.0056323  -0.0267527   0.0000000   0.0000000   0.0000000   0.0000000
2.8804442     0.8153115  -0.0526898  -0.0057539  -0.0271378   0.0000000   0.0000000   0.0000000   0.0000000
2.9205555     0.8151720  -0.0533641  -0.0058891  -0.0274906   0.0000000   0.0000000   0.0000000   0.0000000
2.9612254     0.8149173  -0.0541168  -0.0060241  -0.0278841   0.0000000   0.0000000   0.0000000   0.0000000
3.0024617     0.8145963  -0.0548413  -0.0061933  -0.0282730   0.0000000   0.0000000   0.0000000   0.0000000
3.0442722     0.8142954  -0.0556223  -0.0063378  -0.0286808   0.0000000   0.0000000   0.0000000   0.0000000
3.0866649     0.8140666  -0.0564255  -0.0064937  -0.0290578   0.0000000   0.0000000   0.0000000   0.0000000
3.1296480     0.8137739  -0.0572899  -0.0066530  -0.0294606   0.0000000   0.0000000   0.0000000   0.0000000
3.1732296     0.8134707  -0.0580155  -0.0068177  -0.0298544   0.0000000   0.0000000   0.0000000   0.0000000
3.2174182     0.8131867  -0.0587373  -0.0069678  -0.0302575   0.0000000   0.0000000   0.0000000   0.0000000
3.2622220     0.8129093  -0.0594918  -0.0071468  -0.0306714   0.0000000   0.0000000   0.0000000   0.0000000
3.3076498     0.8125893  -0.0602700  -0.0073287  -0.0310910   0.0000000   0.0000000   0.0000000   0.0000000
3.3537102     0.8122254  -0.0611207  -0.0075044  -0.0315106   0.0000000   0.0000000   0.0000000   0.0000000
3.4004119     0.8119320  -0.0618635  -0.0077048  -0.0319275   0.0000000   0.0000000   0.0000000   0.0000000
3.4477641     0.8115745  -0.0628040  -0.0078977  -0.0323688   0.0000000   0.0000000   0.0000000   0.0000000
3.4957756     0.8111796  -0.0636622  -0.0080897  -0.0327850   0.0000000   0.0000000   0.0000000   0.0000000
3.5444557     0.8108872  -0.0643471  -0.0082898  -0.0332060   0.0000000   0.0000000   0.0000000   0.0000000
3.5938137     0.8105186  -0.0652632  -0.0084729  -0.0336625   0.0000000   0.0000000   0.0000000   0.0000000
3.6438590     0.8101194  -0.0660998  -0.0086774  -0.0341054   0.0000000   0.0000000   0.0000000   0.0000000
3.6946012     0.8097722  -0.0670508  -0.0088983  -0.0345418   0.0000000   0.0000000   0.0000000   0.0000000
3.7460500     0.8093347  -0.0679317  -0.0091153  -0.0349961   0.0000000   0.0000000   0.0000000   0.0000000
3.7982153     0.8089173  -0.0688592  -0.0093434  -0.0354687   0.0000000   0.0000000   0.0000000   0.0000000
3.8511070     0.8085767  -0.0696956  -0.0095673  -0.0359240   0.0000000   0.0000000   0.0000000   0.0000000
3.9047352     0.8081713  -0.0707340  -0.0097959  -0.0364070   0.0000000   0.0000000   0.0000000   0.0000000
3.9591103     0.8076385  -0.0714928  -0.0100335  -0.0368533   0.0000000   0.0000000   0.0000000   0.0000000
4.0142425     0.8073168  -0.0725209  -0.0102791  -0.0373305   0.0000000   0.0000000   0.0000000   0.0000000
4.0701425     0.8068019  -0.0733748  -0.0105299  -0.0378104   0.0000000   0.0000000   0.0000000   0.0000000
4.1268208     0.8063975  -0.0743351  -0.0107970  -0.0382926   0.0000000   0.0000000   0.0000000   0.0000000
4.1842885     0.8059699  -0.0752584  -0.0110653  -0.0387811   0.0000000   0.0000000   0.0000000   0.0000000
4.2425564     0.8054643  -0.0762639  -0.0113030  -0.0392723   0.0000000   0.0000000   0.0000000   0.0000000
4.3016358     0.8049816  -0.0772356  -0.0115977  -0.0397800   0.0000000   0.0000000   0.0000000   0.0000000
4.3615378     0.8044059  -0.0781591  -0.0118730  -0.0402961   0.0000000   0.0000000   0.0000000   0.0000000
4.4222740     0.8038630  -0.0791722  -0.0121688  -0.0407724   0.0000000   0.0000000   0.0000000   0.0000000
4.4838559     0.8034135  -0.0802123  -0.0124579  -0.0412709   0.0000000   0.0000000   0.0000000   0.0000000
4.5462955     0.8028171  -0.0811765  -0.0127753  -0.0417948   0.0000000   0.0000000   0.0000000   0.0000000
4.6096045     0.8022873  -0.0821384  -0.0130795  -0.0423083   0.0000000   0.0000000   0.0000000   0.0000000
4.6737951     0.8016680  -0.0831835  -0.0134070  -0.0428090   0.0000000   0.0000000   0.0000000   0.0000000
4.7388796     0.8011353  -0.0841946  -0.0137419  -0.0433401   0.0000000   0.0000000   0.0000000   0.0000000
4.8048704     0.8005311  -0.0852240  -0.0140710  -0.0438488   0.0000000   0.0000000   0.0000000   0.0000000
4.8717802     0.7999068  -0.0862400  -0.0144056  -0.0443755   0.0000000   0.0000000   0.0000000   0.0000000
4.9396217     0.7993697  -0.0872809  -0.0147400  -0.0448874   0.0000000   0.0000000   0.0000000   0.0000000
5.0084080     0.7987453  -0.0883471  -0.0150898  -0.0454144   0.0000000   0.0000000   0.0000000   0.0000000
5.0781521     0.7980664  -0.0893939  -0.0154233  -0.0459436   0.0000000   0.0000000   0.0000000   0.0000000
5.1488675     0.7974090  -0.0903690  -0.0157903  -0.0465132   0.0000000   0.0000000   0.0000000   0.0000000
5.2205675     0.7967851  -0.0915710  -0.0161754  -0.0470693   0.0000000   0.0000000   0.0000000   0.0000000
5.2932661     0.7959978  -0.0927339  -0.0165527  -0.0476443   0.0000000   0.0000000   0.0000000   0.0000000
5.3669769     0.7952687  -0.0938230  -0.0169511  -0.0482138   0.0000000   0.0000000   0.0000000   0.0000000
5.4417143     0.7946583  -0.0948805  -0.0173544  -0.0487553   0.0000000   0.0000000   0.0000000   0.0000000
5.5174924     0.7939118  -0.0960070  -0.0177595  -0.0493272   0.0000000   0.0000000   0.0000000   0.0000000
5.5943257     0.7930871  -0.0971854  -0.0181793  -0.0498975   0.0000000   0.0000000   0.0000000   0.0000000
5.6722290     0.7924065  -0.0983437  -0.0186266  -0.0504692   0.0000000   0.0000000   0.0000000   0.0000000
5.7512171     0.7916326  -0.0994754  -0.0190408  -0.0510534   0.0000000   0.0000000   0.0000000   0.0000000
5.8313051     0.7908197  -0.1005832  -0.0194963  -0.0516169   0.0000000   0.0000000   0.0000000   0.0000000
5.9125084     0.7899992  -0.1017311  -0.0199543  -0.0522141   0.0000000   0.0000000   0.0000000   0.0000000
5.9948425     0.7891026  -0.1029578  -0.0204252  -0.0527957   0.0000000   0.0000000   0.0000000   0.0000000
6.0783231     0.7882977  -0.1041210  -0.0209134  -0.0533976   0.0000000   0.0000000   0.0000000   0.0000000
6.1629663     0.7874577  -0.1051961  -0.0213878  -0.0539731   0.0000000   0.0000000   0.0000000   0.0000000
6.2487881     0.7865119  -0.1064883  -0.0218870  -0.0545642   0.0000000   0.0000000   0.0000000   0.0000000
6.3358050     0.7856174  -0.1076936  -0.0223964  -0.0551614   0.0000000   0.0000000   0.0000000   0.0000000
6.4240337     0.7846906  -0.1088755  -0.0229287  -0.0557647   0.0000000   0.0000000   0.0000000   0.0000000
6.5134909     0.7837331  -0.1100163  -0.0234675  -0.0563629   0.0000000   0.0000000   0.0000000   0.0000000
6.6041940     0.7827682  -0.1112958  -0.0240011  -0.0569535   0.0000000   0.0000000   0.0000000   0.0000000
6.6961601     0.7818570  -0.1125177  -0.0245670  -0.0575554   0.0000000   0.0000000   0.0000000   0.0000000
6.7894068     0.7808961  -0.1136051  -0.0251060  -0.0581296   0.0000000   0.0000000   0.0000000   0.0000000
6.8839521     0.7797913  -0.1148899  -0.0256818  -0.0587626   0.0000000   0.0000000   0.0000000   0.0000000
6.9798139     0.7786612  -0.1161809  -0.0262708  -0.0593851   0.0000000   0.0000000   0.0000000   0.0000000
7.0770107     0.7776286  -0.1173462  -0.0268746  -0.0599930   0.0000000   0.0000000   0.0000000   0.0000000
7.1755609     0.7765941  -0.1186631  -0.0274789  -0.0605980   0.0000000   0.0000000   0.0000000   0.0000000
7.2754835     0.7753918  -0.1198539  -0.0281158  -0.0612102   0.0000000   0.0000000   0.0000000   0.0000000
7.3767976     0.7742592  -0.1209855  -0.0287307  -0.0618265   0.0000000   0.0000000   0.0000000   0.0000000
7.4795225     0.7731470  -0.1223400  -0.0293975  -0.0624424   0.0000000   0.0000000   0.0000000   0.0000000
7.5836779     0.7719054  -0.1236071  -0.0300568  -0.0630524   0.0000000   0.0000000   0.0000000   0.0000000
7.6892837     0.7707748  -0.1248792  -0.0307241  -0.0636703   0.0000000   0.0000000   0.0000000   0.0000000
7.7963601     0.7695275  -0.1260942  -0.0314017  -0.0642838   0.0000000   0.0000000   0.0000000   0.0000000
7.9049276     0.7683094  -0.1273126  -0.0321150  -0.0648948   0.0000000   0.0000000   0.0000000   0.0000000
8.0150070     0.7670318  -0.1285741  -0.0328208  -0.0655030   0.0000000   0.0000000   0.0000000   0.0000000
8.1266192     0.7657072  -0.1299173  -0.0335639  -0.0661222   0.0000000   0.0000000   0.0000000   0.0000000
8.2397857     0.7643876  -0.1311366  -0.0342972  -0.0667391   0.0000000   0.0000000   0.0000000   0.0000000
8.3545281     0.7630815  -0.1323372  -0.0350576  -0.0673603   0.0000000   0.0000000   0.0000000   0.0000000
8.4708683     0.7616711  -0.1336699  -0.0358355  -0.0679563   0.0000000   0.0000000   0.0000000   0.0000000
8.5888286     0.7602848  -0.1349827  -0.0366239  -0.0685642   0.0000000   0.0000000   0.0000000   0.0000000
8.7084315     0.7588108  -0.1362389  -0.0374681  -0.0691844   0.0000000   0.0000000   0.0000000   0.0000000
8.8297000     0.7573333  -0.1374212  -0.0382820  -0.0697381   0.0000000   0.0000000   0.0000000   0.0000000
8.9526571     0.7558656  -0.1385546  -0.0390752  -0.0703276   0.0000000   0.0000000   0.0000000   0.0000000
9.0773265     0.7544029  -0.1397961  -0.0399010  -0.0709080   0.0000000   0.0000000   0.0000000   0.0000000
9.2037320     0.7530429  -0.1410767  -0.0406959  -0.0714853   0.0000000   0.0000000   0.0000000   0.0000000
9.3318977     0.7514679  -0.1423379  -0.0415580  -0.0721118   0.0000000   0.0000000   0.0000000   0.0000000
9.4618482     0.7499065  -0.1437249  -0.0424353  -0.0727321   0.0000000   0.0000000   0.0000000   0.0000000
9.5936083     0.7483279  -0.1448898  -0.0433319  -0.0733103   0.0000000   0.0000000   0.0000000   0.0000000
9.7272032     0.7467694  -0.1460674  -0.0442227  -0.0738823   0.0000000   0.0000000   0.0000000   0.0000000
9.8626585     0.7450123  -0.1474311  -0.0451669  -0.0744672   0.0000000   0.0000000   0.0000000   0.0000000
10.0000000    0.7433427  -0.1487484  -0.0461254  -0.0750725   0.0000000   0.0000000   0.0000000   0.0000000
10.1392541    0.7415894  -0.1499333  -0.0470710  -0.0756329   0.0000000   0.0000000   0.0000000   0.0000000
10.2804473    0.7398698  -0.1510868  -0.0480671  -0.0762075   0.0000000   0.0000000   0.0000000   0.0000000
10.4236067    0.7381257  -0.1523436  -0.0490400  -0.0767193   0.0000000   0.0000000   0.0000000   0.0000000
10.5687597    0.7364191  -0.1535798  -0.0500304  -0.0772846   0.0000000   0.0000000   0.0000000   0.0000000
10.7159340    0.7345377  -0.1547553  -0.0510515  -0.0778341   0.0000000   0.0000000   0.0000000   0.0000000
10.8651577    0.7326188  -0.1558862  -0.0520891  -0.0783625   0.0000000   0.0000000   0.0000000   0.0000000
11.0164595    0.7307378  -0.1571469  -0.0531392  -0.0789051   0.0000000   0.0000000   0.0000000   0.0000000
11.1698682    0.7288444  -0.1582426  -0.0541960  -0.0793966   0.0000000   0.0000000   0.0000000   0.0000000
11.3254132    0.7269898  -0.1594454  -0.0552753  -0.0799179   0.0000000   0.0000000   0.0000000   0.0000000
11.4831241    0.7250323  -0.1606518  -0.0563722  -0.0804358   0.0000000   0.0000000   0.0000000   0.0000000
11.6430313    0.7230869  -0.1616892  -0.0574592  -0.0808969   0.0000000   0.0000000   0.0000000   0.0000000
11.8051653    0.7211103  -0.1627965  -0.0586061  -0.0813934   0.0000000   0.0000000   0.0000000   0.0000000
11.9695570    0.7189710  -0.1639266  -0.0597476  -0.0818869   0.0000000   0.0000000   0.0000000   0.0000000
12.1362380    0.7169022  -0.1649937  -0.0608940  -0.0823248   0.0000000   0.0000000   0.0000000   0.0000000
12.3052400    0.7149041  -0.1660558  -0.0620700  -0.0827668   0.0000000   0.0000000   0.0000000   0.0000000
12.4765955    0.7128220  -0.1671072  -0.0632261  -0.0832218   0.0000000   0.0000000   0.0000000   0.0000000
12.6503372    0.7106050  -0.1682009  -0.0644237  -0.0836296   0.0000000   0.0000000   0.0000000   0.0000000
12.8264983    0.7084924  -0.1690379  -0.0656347  -0.0840137   0.0000000   0.0000000   0.0000000   0.0000000
13.0051125    0.7063923  -0.1701277  -0.0668350  -0.0844237   0.0000000   0.0000000   0.0000000   0.0000000
13.1862140    0.7041097  -0.1711971  -0.0680776  -0.0848616   0.0000000   0.0000000   0.0000000   0.0000000
13.3698374    0.7018678  -0.1721216  -0.0693724  -0.0852610   0.0000000   0.0000000   0.0000000   0.0000000
13.5560179    0.6995396  -0.1728874  -0.0706722  -0.0855210   0.0000000   0.0000000   0.0000000   0.0000000
13.7447909    0.6974915  -0.1738642  -0.0718163  -0.0858796   0.0000000   0.0000000   0.0000000   0.0000000
13.9361927    0.6952307  -0.1748920  -0.0730793  -0.0862510   0.0000000   0.0000000   0.0000000   0.0000000
14.1302599    0.6929666  -0.1758339  -0.0744108  -0.0866225   0.0000000   0.0000000   0.0000000   0.0000000
14.3270295    0.6904643  -0.1766952  -0.0757688  -0.0869287   0.0000000   0.0000000   0.0000000   0.0000000
14.5265393    0.6880920  -0.1774756  -0.0770709  -0.0871722   0.0000000   0.0000000   0.0000000   0.0000000
14.7288272    0.6857338  -0.1783374  -0.0784234  -0.0874623   0.0000000   0.0000000   0.0000000   0.0000000
14.9339322    0.6833291  -0.1791084  -0.0797563  -0.0877137   0.0000000   0.0000000   0.0000000   0.0000000
15.1418933    0.6809417  -0.1797266  -0.0811443  -0.0879172   0.0000000   0.0000000   0.0000000   0.0000000
15.3527503    0.6785160  -0.1804541  -0.0824126  -0.0881362   0.0000000   0.0000000   0.0000000   0.0000000
15.5665436    0.6760380  -0.1813622  -0.0838214  -0.0883827   0.0000000   0.0000000   0.0000000   0.0000000
15.7833141    0.6736059  -0.1819717  -0.0852189  -0.0885771   0.0000000   0.0000000   0.0000000   0.0000000
16.0031031    0.6709594  -0.1826594  -0.0866730  -0.0887317   0.0000000   0.0000000   0.0000000   0.0000000
16.2259529    0.6686398  -0.1833684  -0.0880248  -0.0889316   0.0000000   0.0000000   0.0000000   0.0000000
16.4519059    0.6660650  -0.1838840  -0.0894635  -0.0890296   0.0000000   0.0000000   0.0000000   0.0000000
16.6810054    0.6635120  -0.1844900  -0.0908937  -0.0891513   0.0000000   0.0000000   0.0000000   0.0000000
16.9132952    0.6607881  -0.1851076  -0.0923516  -0.0892704   0.0000000   0.0000000   0.0000000   0.0000000
17.1488197    0.6583979  -0.1855700  -0.0937475  -0.0892928   0.0000000   0.0000000   0.0000000   0.0000000
17.3876240    0.6557695  -0.1861011  -0.0952138  -0.0893646   0.0000000   0.0000000   0.0000000   0.0000000
17.6297538    0.6532499  -0.1865543  -0.0966526  -0.0893968   0.0000000   0.0000000   0.0000000   0.0000000
17.8752553    0.6505225  -0.1869798  -0.0981160  -0.0894412   0.0000000   0.0000000   0.0000000   0.0000000
18.1241755    0.6479296  -0.1873108  -0.0995809  -0.0894118   0.0000000   0.0000000   0.0000000   0.0000000
18.3765620    0.6453527  -0.1878062  -0.1010507  -0.0894016   0.0000000   0.0000000   0.0000000   0.0000000
18.6324631    0.6426241  -0.1880952  -0.1025830  -0.0893430   0.0000000   0.0000000   0.0000000   0.0000000
18.8919278    0.6399547  -0.1883505  -0.1040303  -0.0892896   0.0000000   0.0000000   0.0000000   0.0000000
19.1550056    0.6373166  -0.1887278  -0.1054897  -0.0891876   0.0000000   0.0000000   0.0000000   0.0000000
19.4217468    0.6346595  -0.1888724  -0.1070014  -0.0890507   0.0000000   0.0000000   0.0000000   0.0000000
19.6922026    0.6318976  -0.1891131  -0.1085275  -0.0889115   0.0000000   0.0000000   0.0000000   0.0000000
19.9664245    0.6293767  -0.1891945  -0.1099439  -0.0887541   0.0000000   0.0000000   0.0000000   0.0000000
20.2444651    0.6266573  -0.1893554  -0.1114965  -0.0885968   0.0000000   0.0000000   0.0000000   0.0000000
20.5263775    0.6239721  -0.1895699  -0.1129698  -0.0883903   0.0000000   0.0000000   0.0000000   0.0000000
20.8122157    0.6213569  -0.1895938  -0.1144848  -0.0881882   0.0000000   0.0000000   0.0000000   0.0000000
21.1020343    0.6186025  -0.1896105  -0.1159801  -0.0879065   0.0000000   0.0000000   0.0000000   0.0000000
21.3958887    0.6158998  -0.1896827  -0.1175115  -0.0876297   0.0000000   0.0000000   0.0000000   0.0000000
21.6938352    0.6132803  -0.1895744  -0.1189600  -0.0873420   0.0000000   0.0000000   0.0000000   0.0000000
21.9959307    0.6105629  -0.1896127  -0.1204518  -0.0870372   0.0000000   0.0000000   0.0000000   0.0000000
22.3022330    0.6078814  -0.1895525  -0.1219575  -0.0867071   0.0000000   0.0000000   0.0000000   0.0000000
22.6128007    0.6052080  -0.1894159  -0.1234273  -0.0863338   0.0000000   0.0000000   0.0000000   0.0000000
22.9276931    0.6027143  -0.1891310  -0.1248868  -0.0859325   0.0000000   0.0000000   0.0000000   0.0000000
23.2469706    0.5998804  -0.1890714  -0.1264071  -0.0855531   0.0000000   0.0000000   0.0000000   0.0000000
23.5706941    0.5972757  -0.1889722  -0.1278916  -0.0851336   0.0000000   0.0000000   0.0000000   0.0000000
23.8989257    0.5946002  -0.1886091  -0.1293846  -0.0846796   0.0000000   0.0000000   0.0000000   0.0000000
24.2317279    0.5919405  -0.1882990  -0.1308057  -0.0841728   0.0000000   0.0000000   0.0000000   0.0000000
24.5691646    0.5893366  -0.1880145  -0.1322860  -0.0836917   0.0000000   0.0000000   0.0000000   0.0000000
24.9113003    0.5868140  -0.1876089  -0.1337084  -0.0831677   0.0000000   0.0000000   0.0000000   0.0000000
25.2582003    0.5842254  -0.1872756  -0.1351960  -0.0826390   0.0000000   0.0000000   0.0000000   0.0000000
25.6099310    0.5816304  -0.1868674  -0.1366187  -0.0820557   0.0000000   0.0000000   0.0000000   0.0000000
25.9665597    0.5789946  -0.1864150  -0.1380699  -0.0814966   0.0000000   0.0000000   0.0000000   0.0000000
26.3281547    0.5765497  -0.1859072  -0.1394616  -0.0808478   0.0000000   0.0000000   0.0000000   0.0000000
26.6947849    0.5738423  -0.1854949  -0.1408872  -0.0802330   0.0000000   0.0000000   0.0000000   0.0000000
27.0665207    0.5714277  -0.1849573  -0.1422791  -0.0795863   0.0000000   0.0000000   0.0000000   0.0000000
27.4434330    0.5688662  -0.1843810  -0.1436658  -0.0788908   0.0000000   0.0000000   0.0000000   0.0000000
27.8255940    0.5663977  -0.1837700  -0.1450238  -0.0782317   0.0000000   0.0000000   0.0000000   0.0000000
28.2130768    0.5638783  -0.1831390  -0.1463997  -0.0774968   0.0000000   0.0000000   0.0000000   0.0000000
28.6059554    0.5614886  -0.1825764  -0.1477787  -0.0767839   0.0000000   0.0000000   0.0000000   0.0000000
29.0043049    0.5591191  -0.1818842  -0.1490907  -0.0760137   0.0000000   0.0000000   0.0000000   0.0000000
29.4082017    0.5566502  -0.1811738  -0.1504225  -0.0752345   0.0000000   0.0000000   0.0000000   0.0000000
29.8177229    0.5542037  -0.1805041  -0.1517893  -0.0744751   0.0000000   0.0000000   0.0000000   0.0000000
30.2329468    0.5518974  -0.1797634  -0.1530685  -0.0736601   0.0000000   0.0000000   0.0000000   0.0000000
30.6539530    0.5496447  -0.1790084  -0.1543604  -0.0728177   0.0000000   0.0000000   0.0000000   0.0000000
31.0808217    0.5472182  -0.1783483  -0.1556763  -0.0719779   0.0000000   0.0000000   0.0000000   0.0000000
31.5136348    0.5449090  -0.1774272  -0.1569351  -0.0711031   0.0000000   0.0000000   0.0000000   0.0000000
31.9524751    0.5425976  -0.1766163  -0.1581789  -0.0702424   0.0000000   0.0000000   0.0000000   0.0000000
32.3974263    0.5404217  -0.1758270  -0.1594375  -0.0693316   0.0000000   0.0000000   0.0000000   0.0000000
32.8485737    0.5382411  -0.1749772  -0.1606095  -0.0684066   0.0000000   0.0000000   0.0000000   0.0000000
33.3060034    0.5360337  -0.1740404  -0.1618411  -0.0674938   0.0000000   0.0000000   0.0000000   0.0000000
33.7698031    0.5337937  -0.1732396  -0.1630235  -0.0665357   0.0000000   0.0000000   0.0000000   0.0000000
34.2400614    0.5317333  -0.1722101  -0.1641898  -0.0655407   0.0000000   0.0000000   0.0000000   0.0000000
34.7168682    0.5296423  -0.1712190  -0.1653887  -0.0645679   0.0000000   0.0000000   0.0000000   0.0000000
35.2003147    0.5275023  -0.1702532  -0.1665543  -0.0635765   0.0000000   0.0000000   0.0000000   0.0000000
35.6904935    0.5254309  -0.1694329  -0.1676741  -0.0625603   0.0000000   0.0000000   0.0000000   0.0000000
36.1874981    0.5233945  -0.1683957  -0.1687884  -0.0615350   0.0000000   0.0000000   0.0000000   0.0000000
36.6914238    0.5213714  -0.1674392  -0.1698912  -0.0604928   0.0000000   0.0000000   0.0000000   0.0000000
37.2023668    0.5193717  -0.1664455  -0.1709710  -0.0594565   0.0000000   0.0000000   0.0000000   0.0000000
37.7204249    0.5174616  -0.1654204  -0.1719524  -0.0583814   0.0000000   0.0000000   0.0000000   0.0000000
38.2456972    0.5155839  -0.1643845  -0.1730189  -0.0572767   0.0000000   0.0000000   0.0000000   0.0000000
38.7782841    0.5136957  -0.1633905  -0.1740703  -0.0561796   0.0000000   0.0000000   0.0000000   0.0000000
39.3182876    0.5118569  -0.1623757  -0.1751024  -0.0550826   0.0000000   0.0000000   0.0000000   0.0000000
39.8658107    0.5100317  -0.1612609  -0.1760863  -0.0539434   0.0000000   0.0000000   0.0000000   0.0000000
40.4209584    0.5082294  -0.1602574  -0.1770616  -0.0528371   0.0000000   0.0000000   0.0000000   0.0000000
40.9838367    0.5063533  -0.1591680  -0.1780330  -0.0516908   0.0000000   0.0000000   0.0000000   0.0000000
41.5545533    0.5046407  -0.1581335  -0.1789595  -0.0505231   0.0000000   0.0000000   0.0000000   0.0000000
42.1332174    0.5029966  -0.1569912  -0.1798767  -0.0493424   0.0000000   0.0000000   0.0000000   0.0000000
42.7199397    0.5012703  -0.1559201  -0.1807941  -0.0481590   0.0000000   0.0000000   0.0000000   0.0000000
43.3148322    0.4996786  -0.1548237  -0.1816843  -0.0469540   0.0000000   0.0000000   0.0000000   0.0000000
43.9180089    0.4979861  -0.1537597  -0.1825845  -0.0457423   0.0000000   0.0000000   0.0000000   0.0000000
44.5295851    0.4964545  -0.1526714  -0.1834260  -0.0445191   0.0000000   0.0000000   0.0000000   0.0000000
45.1496777    0.4948133  -0.1516104  -0.1842631  -0.0433127   0.0000000   0.0000000   0.0000000   0.0000000
45.7784054    0.4932861  -0.1504885  -0.1850876  -0.0420659   0.0000000   0.0000000   0.0000000   0.0000000
46.4158883    0.4918002  -0.1493169  -0.1858903  -0.0408209   0.0000000   0.0000000   0.0000000   0.0000000
47.0622485    0.4903583  -0.1482259  -0.1866481  -0.0395496   0.0000000   0.0000000   0.0000000   0.0000000
47.7176095    0.4889374  -0.1470569  -0.1873995  -0.0382788   0.0000000   0.0000000   0.0000000   0.0000000
48.3820966    0.4874026  -0.1460206  -0.1881718  -0.0369989   0.0000000   0.0000000   0.0000000   0.0000000
49.0558371    0.4860841  -0.1448891  -0.1888960  -0.0357152   0.0000000   0.0000000   0.0000000   0.0000000
49.7389596    0.4846284  -0.1438090  -0.1896330  -0.0344278   0.0000000   0.0000000   0.0000000   0.0000000
50.4315949    0.4833339  -0.1427445  -0.1903246  -0.0331152   0.0000000   0.0000000   0.0000000   0.0000000
51.1338754    0.4820571  -0.1416356  -0.1910045  -0.0317848   0.0000000   0.0000000   0.0000000   0.0000000
51.8459354    0.4806493  -0.1405541  -0.1916627  -0.0304466   0.0000000   0.0000000   0.0000000   0.0000000
52.5679112    0.4794298  -0.1394652  -0.1923190  -0.0291102   0.0000000   0.0000000   0.0000000   0.0000000
53.2999408    0.4782584  -0.1383325  -0.1929589  -0.0277551   0.0000000   0.0000000   0.0000000   0.0000000
54.0421642    0.4769654  -0.1372876  -0.1936041  -0.0264122   0.0000000   0.0000000   0.0000000   0.0000000
54.7947234    0.4757307  -0.1362186  -0.1942265  -0.0250477   0.0000000   0.0000000   0.0000000   0.0000000
55.5577622    0.4747131  -0.1351205  -0.1947479  -0.0236661   0.0000000   0.0000000   0.0000000   0.0000000
56.3314267    0.4735171  -0.1340878  -0.1953188  -0.0222972   0.0000000   0.0000000   0.0000000   0.0000000
57.1158648    0.4724099  -0.1331288  -0.1958666  -0.0209075   0.0000000   0.0000000   0.0000000   0.0000000
57.9112265    0.4714387  -0.1319774  -0.1963984  -0.0194888   0.0000000   0.0000000   0.0000000   0.0000000
58.7176639    0.4701924  -0.1310366  -0.1969295  -0.0180767   0.0000000   0.0000000   0.0000000   0.0000000
59.5353313    0.4691829  -0.1299640  -0.1973848  -0.0166470   0.0000000   0.0000000   0.0000000   0.0000000
60.3643851    0.4682830  -0.1290613  -0.1978575  -0.0152026   0.0000000   0.0000000   0.0000000   0.0000000
61.2049837    0.4673134  -0.1279660  -0.1983082  -0.0137941   0.0000000   0.0000000   0.0000000   0.0000000
62.0572881    0.4662969  -0.1269986  -0.1987610  -0.0123118   0.0000000   0.0000000   0.0000000   0.0000000
62.9214611    0.4654879  -0.1259767  -0.1991299  -0.0108730   0.0000000   0.0000000   0.0000000   0.0000000
63.7976681    0.4645218  -0.1249816  -0.1995680  -0.0093933   0.0000000   0.0000000   0.0000000   0.0000000
64.6860766    0.4635420  -0.1241350  -0.1999463  -0.0079315   0.0000000   0.0000000   0.0000000   0.0000000
65.5868566    0.4627598  -0.1231625  -0.2003283  -0.0064235   0.0000000   0.0000000   0.0000000   0.0000000
66.5001803    0.4619443  -0.1222293  -0.2006487  -0.0049038   0.0000000   0.0000000   0.0000000   0.0000000
67.4262224    0.4610874  -0.1212832  -0.2009482  -0.0033525   0.0000000   0.0000000   0.0000000   0.0000000
68.3651600    0.4602987  -0.1204093  -0.2012601  -0.0018255   0.0000000   0.0000000   0.0000000   0.0000000
69.3171728    0.4594289  -0.1195192  -0.2015705  -0.0002763   0.0000000   0.0000000   0.0000000   0.0000000
70.2824426    0.4586389  -0.1187661  -0.2016865   0.0012434   0.0000000   0.0000000   0.0000000   0.0000000
71.2611543    0.4580778  -0.1178612  -0.2019931   0.0027732   0.0000000   0.0000000   0.0000000   0.0000000
72.2534949    0.4573329  -0.1170606  -0.2022122   0.0043512   0.0000000   0.0000000   0.0000000   0.0000000
73.2596543    0.4566198  -0.1161697  -0.2025071   0.0059094   0.0000000   0.0000000   0.0000000   0.0000000
74.2798248    0.4559240  -0.1153259  -0.2025784   0.0075435   0.0000000   0.0000000   0.0000000   0.0000000
75.3142017    0.4553062  -0.1145314  -0.2026890   0.0091174   0.0000000   0.0000000   0.0000000   0.0000000
76.3629826    0.4547227  -0.1138554  -0.2027974   0.0107106   0.0000000   0.0000000   0.0000000   0.0000000
77.4263683    0.4540546  -0.1131991  -0.2029271   0.0123258   0.0000000   0.0000000   0.0000000   0.0000000
78.5045620    0.4536213  -0.1124416  -0.2029472   0.0139261   0.0000000   0.0000000   0.0000000   0.0000000
79.5977700    0.4529370  -0.1117183  -0.2029964   0.0155549   0.0000000   0.0000000   0.0000000   0.0000000
80.7062014    0.4524867  -0.1110756  -0.2029606   0.0171859   0.0000000   0.0000000   0.0000000   0.0000000
81.8300682    0.4518617  -0.1104359  -0.2029816   0.0188094   0.0000000   0.0000000   0.0000000   0.0000000
82.9695852    0.4514849  -0.1097895  -0.2029223   0.0204359   0.0000000   0.0000000   0.0000000   0.0000000
84.1249705    0.4509569  -0.1092410  -0.2027994   0.0221144   0.0000000   0.0000000   0.0000000   0.0000000
85.2964450    0.4503618  -0.1086862  -0.2027608   0.0237188   0.0000000   0.0000000   0.0000000   0.0000000
86.4842328    0.4499700  -0.1081259  -0.2025590   0.0253982   0.0000000   0.0000000   0.0000000   0.0000000
87.6885609    0.4495617  -0.1076404  -0.2024060   0.0270502   0.0000000   0.0000000   0.0000000   0.0000000
88.9096599    0.4491889  -0.1072052  -0.2022001   0.0287011   0.0000000   0.0000000   0.0000000   0.0000000
90.1477631    0.4486394  -0.1068519  -0.2019739   0.0303534   0.0000000   0.0000000   0.0000000   0.0000000
91.4031075    0.4483862  -0.1064559  -0.2017221   0.0320064   0.0000000   0.0000000   0.0000000   0.0000000
92.6759330    0.4479001  -0.1060308  -0.2014044   0.0336528   0.0000000   0.0000000   0.0000000   0.0000000
93.9664831    0.4475582  -0.1056709  -0.2010722   0.0353048   0.0000000   0.0000000   0.0000000   0.0000000
95.2750047    0.4470740  -0.1054742  -0.2007467   0.0369471   0.0000000   0.0000000   0.0000000   0.0000000
96.6017480    0.4466512  -0.1051362  -0.2003612   0.0386133   0.0000000   0.0000000   0.0000000   0.0000000
97.9469667    0.4462581  -0.1049758  -0.1999792   0.0402508   0.0000000   0.0000000   0.0000000   0.0000000
99.3109181    0.4457628  -0.1046366  -0.1995050   0.0418979   0.0000000   0.0000000   0.0000000   0.0000000
100.6938631   0.4451598  -0.1045856  -0.1990994   0.0435268   0.0000000   0.0000000   0.0000000   0.0000000
102.0960662   0.4448340  -0.1044374  -0.1985781   0.0451682   0.0000000   0.0000000   0.0000000   0.0000000
103.5177956   0.4444005  -0.1043624  -0.1980801   0.0467735   0.0000000   0.0000000   0.0000000   0.0000000
104.9593231   0.4436995  -0.1043147  -0.1975513   0.0484006   0.0000000   0.0000000   0.0000000   0.0000000
106.4209244   0.4437205  -0.1042358  -0.1971325   0.0504411   0.0000000   0.0000000   0.0000000   0.0000000
107.9028792   0.4428816  -0.1041128  -0.1964488   0.0516945   0.0000000   0.0000000   0.0000000   0.0000000
109.4054707   0.4422561  -0.1041067  -0.1958220   0.0531652   0.0000000   0.0000000   0.0000000   0.0000000
110.9289865   0.4414810  -0.1043313  -0.1951376   0.0548218   0.0000000   0.0000000   0.0000000   0.0000000
112.4737178   0.4408176  -0.1043955  -0.1944825   0.0564346   0.0000000   0.0000000   0.0000000   0.0000000
114.0399602   0.4400796  -0.1043262  -0.1938282   0.0580615   0.0000000   0.0000000   0.0000000   0.0000000
115.6280131   0.4393514  -0.1044431  -0.1930898   0.0595863   0.0000000   0.0000000   0.0000000   0.0000000
117.2381803   0.4385773  -0.1046645  -0.1923954   0.0611712   0.0000000   0.0000000   0.0000000   0.0000000
118.8707698   0.4378312  -0.1047239  -0.1916182   0.0627521   0.0000000   0.0000000   0.0000000   0.0000000
120.5260937   0.4369404  -0.1048190  -0.1907958   0.0642731   0.0000000   0.0000000   0.0000000   0.0000000
122.2044687   0.4361292  -0.1049117  -0.1900523   0.0658352   0.0000000   0.0000000   0.0000000   0.0000000
123.9062157   0.4350558  -0.1050398  -0.1892458   0.0673381   0.0000000   0.0000000   0.0000000   0.0000000
125.6316602   0.4342343  -0.1051868  -0.1883728   0.0688596   0.0000000   0.0000000   0.0000000   0.0000000
127.3811323   0.4332448  -0.1053898  -0.1874416   0.0703884   0.0000000   0.0000000   0.0000000   0.0000000
129.1549665   0.4320174  -0.1053992  -0.1865840   0.0718485   0.0000000   0.0000000   0.0000000   0.0000000
130.9535020   0.4309059  -0.1053955  -0.1856514   0.0733254   0.0000000   0.0000000   0.0000000   0.0000000
132.7770829   0.4296587  -0.1055690  -0.1847400   0.0747842   0.0000000   0.0000000   0.0000000   0.0000000
134.6260579   0.4283559  -0.1057167  -0.1837911   0.0762473   0.0000000   0.0000000   0.0000000   0.0000000
136.5007807   0.4271901  -0.1057423  -0.1828431   0.0776559   0.0000000   0.0000000   0.0000000   0.0000000
138.4016097   0.4256435  -0.1057647  -0.1818902   0.0790835   0.0000000   0.0000000   0.0000000   0.0000000
140.3289085   0.4242357  -0.1055592  -0.1808682   0.0804681   0.0000000   0.0000000   0.0000000   0.0000000
142.2830457   0.4226965  -0.1055827  -0.1797365   0.0816728   0.0000000   0.0000000   0.0000000   0.0000000
144.2643951   0.4212003  -0.1054606  -0.1786972   0.0832989   0.0000000   0.0000000   0.0000000   0.0000000
146.2733356   0.4198696  -0.1053252  -0.1778094   0.0844970   0.0000000   0.0000000   0.0000000   0.0000000
148.3102514   0.4181259  -0.1052360  -0.1766770   0.0858258   0.0000000   0.0000000   0.0000000   0.0000000
150.3755321   0.4162110  -0.1048263  -0.1756424   0.0871261   0.0000000   0.0000000   0.0000000   0.0000000
152.4695727   0.4143890  -0.1043710  -0.1746049   0.0883991   0.0000000   0.0000000   0.0000000   0.0000000
154.5927736   0.4126122  -0.1039943  -0.1735643   0.0896358   0.0000000   0.0000000   0.0000000   0.0000000
156.7455410   0.4109330  -0.1034070  -0.1724685   0.0908517   0.0000000   0.0000000   0.0000000   0.0000000
158.9282866   0.4088904  -0.1027662  -0.1714513   0.0920212   0.0000000   0.0000000   0.0000000   0.0000000
161.1414277   0.4071420  -0.1011782  -0.1704624   0.0924665   0.0000000   0.0000000   0.0000000   0.0000000
163.3853878   0.4048142  -0.1013304  -0.1693943   0.0943237   0.0000000   0.0000000   0.0000000   0.0000000
165.6605959   0.4026767  -0.1001735  -0.1685654   0.0954536   0.0000000   0.0000000   0.0000000   0.0000000
167.9674872   0.4008895  -0.0989289  -0.1676689   0.0966581   0.0000000   0.0000000   0.0000000   0.0000000
170.3065029   0.3983426  -0.0974177  -0.1669603   0.0979080   0.0000000   0.0000000   0.0000000   0.0000000
172.6780904   0.3960004  -0.0959085  -0.1662340   0.0993157   0.0000000   0.0000000   0.0000000   0.0000000
175.0827032   0.3932649  -0.0932841  -0.1654913   0.1009458   0.0000000   0.0000000   0.0000000   0.0000000
177.5208012   0.3910306  -0.0901893  -0.1646572   0.1030155   0.0000000   0.0000000   0.0000000   0.0000000
179.9928507   0.3932244  -0.0644666  -0.1564258   0.1149395   0.0000000   0.0000000   0.0000000   0.0000000
182.4993245   0.3896124  -0.0821603  -0.1611283   0.1072652   0.0000000   0.0000000   0.0000000   0.0000000
185.0407020   0.3901827  -0.0787429  -0.1589067   0.1085094   0.0000000   0.0000000   0.0000000   0.0000000
187.6174691   0.3908604  -0.0761993  -0.1569897   0.1094245   0.0000000   0.0000000   0.0000000   0.0000000
190.2301189   0.3916010  -0.0739386  -0.1553411   0.1101786   0.0000000   0.0000000   0.0000000   0.0000000
192.8791508   0.3923579  -0.0718812  -0.1539128   0.1108497   0.0000000   0.0000000   0.0000000   0.0000000
195.5650716   0.3926305  -0.0698829  -0.1526658   0.1115877   0.0000000   0.0000000   0.0000000   0.0000000
198.2883949   0.3937735  -0.0680255  -0.1515297   0.1125649   0.0000000   0.0000000   0.0000000   0.0000000
201.0496416   0.3943508  -0.0657091  -0.1503495   0.1132878   0.0000000   0.0000000   0.0000000   0.0000000
203.8493398   0.3952812  -0.0637983  -0.1491805   0.1142422   0.0000000   0.0000000   0.0000000   0.0000000
206.6880250   0.3967532  -0.0621411  -0.1481230   0.1152177   0.0000000   0.0000000   0.0000000   0.0000000
209.5662399   0.3981258  -0.0601583  -0.1469794   0.1162579   0.0000000   0.0000000   0.0000000   0.0000000
212.4845352   0.3997894  -0.0582505  -0.1458981   0.1173069   0.0000000   0.0000000   0.0000000   0.0000000
215.4434690   0.4011208  -0.0567642  -0.1447153   0.1188530   0.0000000   0.0000000   0.0000000   0.0000000
218.4436071   0.4031515  -0.0556268  -0.1437707   0.1193540   0.0000000   0.0000000   0.0000000   0.0000000
221.4855234   0.4047770  -0.0542624  -0.1426384   0.1210776   0.0000000   0.0000000   0.0000000   0.0000000
224.5697996   0.4066158  -0.0533994  -0.1415776   0.1222691   0.0000000   0.0000000   0.0000000   0.0000000
227.6970255   0.4085229  -0.0523607  -0.1403313   0.1236221   0.0000000   0.0000000   0.0000000   0.0000000
230.8677994   0.4110164  -0.0516546  -0.1392208   0.1249990   0.0000000   0.0000000   0.0000000   0.0000000
234.0827276   0.4128078  -0.0511739  -0.1377137   0.1263528   0.0000000   0.0000000   0.0000000   0.0000000
237.3424250   0.4152437  -0.0502941  -0.1365625   0.1279229   0.0000000   0.0000000   0.0000000   0.0000000
240.6475150   0.4170261  -0.0503775  -0.1354324   0.1295613   0.0000000   0.0000000   0.0000000   0.0000000
243.9986297   0.4188573  -0.0505891  -0.1339110   0.1312650   0.0000000   0.0000000   0.0000000   0.0000000
247.3964101   0.4211109  -0.0504473  -0.1325184   0.1328354   0.0000000   0.0000000   0.0000000   0.0000000
250.8415059   0.4221529  -0.0508354  -0.1306005   0.1346773   0.0000000   0.0000000   0.0000000   0.0000000
254.3345761   0.4252074  -0.0503348  -0.1295593   0.1359449   0.0000000   0.0000000   0.0000000   0.0000000
257.8762888   0.4267827  -0.0508890  -0.1275433   0.1379966   0.0000000   0.0000000   0.0000000   0.0000000
261.4673212   0.4285881  -0.0509623  -0.1261447   0.1397588   0.0000000   0.0000000   0.0000000   0.0000000
265.1083602   0.4301466  -0.0515343  -0.1241649   0.1416301   0.0000000   0.0000000   0.0000000   0.0000000
268.8001022   0.4327599  -0.0532359  -0.1219807   0.1432322   0.0000000   0.0000000   0.0000000   0.0000000
272.5432531   0.4335061  -0.0526842  -0.1198067   0.1450143   0.0000000   0.0000000   0.0000000   0.0000000
276.3385290   0.4360077  -0.0518215  -0.1176601   0.1468078   0.0000000   0.0000000   0.0000000   0.0000000
280.1866556   0.4379593  -0.0544996  -0.1154348   0.1483824   0.0000000   0.0000000   0.0000000   0.0000000
284.0883690   0.4388281  -0.0554776  -0.1128695   0.1502509   0.0000000   0.0000000   0.0000000   0.0000000
288.0444153   0.4424940  -0.0568679  -0.1097528   0.1521679   0.0000000   0.0000000   0.0000000   0.0000000
292.0555512   0.4435957  -0.0568240  -0.1073442   0.1528415   0.0000000   0.0000000   0.0000000   0.0000000
296.1225438   0.4457022  -0.0559972  -0.1045888   0.1553641   0.0000000   0.0000000   0.0000000   0.0000000
300.2461709   0.4465621  -0.0578092  -0.1021284   0.1570365   0.0000000   0.0000000   0.0000000   0.0000000
304.4272212   0.4504026  -0.0662941  -0.0995219   0.1570496   0.0000000   0.0000000   0.0000000   0.0000000
308.6664943   0.4508348  -0.0633563  -0.0950619   0.1587005   0.0000000   0.0000000   0.0000000   0.0000000
312.9648011   0.4560090  -0.0630172  -0.0924142   0.1621510   0.0000000   0.0000000   0.0000000   0.0000000
317.3229635   0.4398164  -0.0583281  -0.0873910   0.1635242   0.0000000   0.0000000   0.0000000   0.0000000
321.7418151   0.4161412  -0.0477170  -0.0717075   0.1688112   0.0000000   0.0000000   0.0000000   0.0000000
326.2222010   0.4821350   0.0363824  -0.0947991   0.1788312   0.0000000   0.0000000   0.0000000   0.0000000
330.7649781   0.4829797  -0.1078012  -0.0724869   0.1630166   0.0000000   0.0000000   0.0000000   0.0000000
335.3710152   0.4657334  -0.0639485  -0.0631926   0.1597384   0.0000000   0.0000000   0.0000000   0.0000000
340.0411933   0.4985974  -0.0688947  -0.0584601   0.1596343   0.0000000   0.0000000   0.0000000   0.0000000
344.7764055   0.5214210  -0.0450044  -0.0436487   0.1530044   0.0000000   0.0000000   0.0000000   0.0000000
349.5775574   0.5553014  -0.0402932  -0.0308574   0.1426111   0.0000000   0.0000000   0.0000000   0.0000000
354.4455674   0.6219563  -0.0432264  -0.0065277   0.1382572   0.0000000   0.0000000   0.0000000   0.0000000
359.3813664   0.8306942  -0.1867847   0.0263983   0.0194513   0.0000000   0.0000000   0.0000000   0.0000000
364.3858984   0.5145415  -0.3601297  -0.1869538   0.0619461   0.0000000   0.0000000   0.0000000   0.0000000
369.4601205   0.4233499  -0.2385670  -0.1452654   0.1548102   0.0000000   0.0000000   0.0000000   0.0000000
374.6050033   0.4051314  -0.1809011  -0.1183987   0.1678689   0.0000000   0.0000000   0.0000000   0.0000000
379.8215306   0.3895650  -0.1620663  -0.0957222   0.1784551   0.0000000   0.0000000   0.0000000   0.0000000
385.1107002   0.4045519  -0.1437504  -0.0831823   0.1817857   0.0000000   0.0000000   0.0000000   0.0000000
390.4735237   0.4095066  -0.1386561  -0.0774411   0.1829369   0.0000000   0.0000000   0.0000000   0.0000000
395.9110266   0.4176120  -0.1543372  -0.0652743   0.1783405   0.0000000   0.0000000   0.0000000   0.0000000
401.4242490   0.4185070  -0.1311762  -0.0645869   0.1864921   0.0000000   0.0000000   0.0000000   0.0000000
407.0142453   0.4225061  -0.1340193  -0.0576818   0.1861614   0.0000000   0.0000000   0.0000000   0.0000000
412.6820846   0.4216026  -0.1336275  -0.0514908   0.1871452   0.0000000   0.0000000   0.0000000   0.0000000
418.4288508   0.4250481  -0.1348442  -0.0474116   0.1874513   0.0000000   0.0000000   0.0000000   0.0000000
424.2556431   0.4245400  -0.1346315  -0.0420627   0.1880294   0.0000000   0.0000000   0.0000000   0.0000000
430.1635758   0.4115347  -0.1285136  -0.0433305   0.1778876   0.0000000   0.0000000   0.0000000   0.0000000
436.1537789   0.4253646  -0.1383619  -0.0333248   0.1882592   0.0000000   0.0000000   0.0000000   0.0000000
442.2273981   0.4268155  -0.1400737  -0.0285353   0.1888151   0.0000000   0.0000000   0.0000000   0.0000000
448.3855948   0.4241644  -0.1433003  -0.0234547   0.1887335   0.0000000   0.0000000   0.0000000   0.0000000
454.6295470   0.4223602  -0.1454552  -0.0189555   0.1894486   0.0000000   0.0000000   0.0000000   0.0000000
460.9604487   0.4234372  -0.1485889  -0.0143374   0.1894590   0.0000000   0.0000000   0.0000000   0.0000000
467.3795108   0.4217495  -0.1513640  -0.0085027   0.1875791   0.0000000   0.0000000   0.0000000   0.0000000
473.8879610   0.4226366  -0.1512415  -0.0045693   0.1884202   0.0000000   0.0000000   0.0000000   0.0000000
480.4870440   0.4217936  -0.1543513   0.0005783   0.1874319   0.0000000   0.0000000   0.0000000   0.0000000
487.1780219   0.4229933  -0.1534100   0.0066102   0.1865201   0.0000000   0.0000000   0.0000000   0.0000000
493.9621744   0.4228298  -0.1572697   0.0109236   0.1861167   0.0000000   0.0000000   0.0000000   0.0000000
500.8407990   0.4215864  -0.1602566   0.0153478   0.1849694   0.0000000   0.0000000   0.0000000   0.0000000
507.8152112   0.4206415  -0.1645542   0.0204855   0.1834939   0.0000000   0.0000000   0.0000000   0.0000000
514.8867450   0.4202723  -0.1640939   0.0250370   0.1820613   0.0000000   0.0000000   0.0000000   0.0000000
522.0567528   0.4173516  -0.1700838   0.0323140   0.1814522   0.0000000   0.0000000   0.0000000   0.0000000
529.3266058   0.4163538  -0.1722375   0.0345279   0.1791610   0.0000000   0.0000000   0.0000000   0.0000000
536.6976946   0.4143625  -0.1689680   0.0397757   0.1795992   0.0000000   0.0000000   0.0000000   0.0000000
544.1714287   0.4177754  -0.1685897   0.0478129   0.1764756   0.0000000   0.0000000   0.0000000   0.0000000
551.7492376   0.4199595  -0.1725375   0.0527669   0.1717735   0.0000000   0.0000000   0.0000000   0.0000000
559.4325706   0.4200154  -0.1789529   0.0567616   0.1695787   0.0000000   0.0000000   0.0000000   0.0000000
567.2228972   0.4157553  -0.1789585   0.0616805   0.1660696   0.0000000   0.0000000   0.0000000   0.0000000
575.1217072   0.4206732  -0.1820132   0.0691379   0.1649081   0.0000000   0.0000000   0.0000000   0.0000000
583.1305114   0.4215520  -0.1888625   0.0693903   0.1609978   0.0000000   0.0000000   0.0000000   0.0000000
591.2508414   0.4225257  -0.1896553   0.0743405   0.1587269   0.0000000   0.0000000   0.0000000   0.0000000
599.4842503   0.4151617  -0.1963673   0.0777498   0.1542153   0.0000000   0.0000000   0.0000000   0.0000000
607.8323128   0.4122822  -0.1891507   0.0835327   0.1522219   0.0000000   0.0000000   0.0000000   0.0000000
616.2966255   0.4224730  -0.1956163   0.0885764   0.1469960   0.0000000   0.0000000   0.0000000   0.0000000
624.8788072   0.4152038  -0.2052844   0.0944706   0.1424086   0.0000000   0.0000000   0.0000000   0.0000000
633.5804993   0.4317638  -0.1834051   0.0968481   0.1441782   0.0000000   0.0000000   0.0000000   0.0000000
642.4033659   0.4702957  -0.0398117   0.1114268   0.1252016   0.0000000   0.0000000   0.0000000   0.0000000
651.3490946   0.2204177  -0.0833484   0.0926641   0.2507925   0.0000000   0.0000000   0.0000000   0.0000000
660.4193962   0.3450245  -0.1446315   0.0873228   0.1401259   0.0000000   0.0000000   0.0000000   0.0000000
669.6160055   0.4215707  -0.1924982   0.1001799   0.1303187   0.0000000   0.0000000   0.0000000   0.0000000
678.9406813   0.3849828  -0.1606750   0.0975473   0.1194915   0.0000000   0.0000000   0.0000000   0.0000000
688.3952070   0.4106222  -0.1517001   0.1140931   0.1173197   0.0000000   0.0000000   0.0000000   0.0000000
697.9813908   0.4227463  -0.1110530   0.1125847   0.0962705   0.0000000   0.0000000   0.0000000   0.0000000
707.7010661   0.4393049  -0.0848880   0.0955332   0.0891161   0.0000000   0.0000000   0.0000000   0.0000000
717.5560919   0.5114454  -0.0059373  -0.1088338   0.2987350   0.0000000   0.0000000   0.0000000   0.0000000
727.5483529   0.5043971  -0.3319445   0.1332513   0.1752556   0.0000000   0.0000000   0.0000000   0.0000000
737.6797603   0.4502205  -0.2990303   0.1514301   0.1407331   0.0000000   0.0000000   0.0000000   0.0000000
747.9522516   0.3272521  -0.2888790   0.1579881   0.1281527   0.0000000   0.0000000   0.0000000   0.0000000
758.3677915   0.3441555  -0.2777687   0.1517535   0.1307676   0.0000000   0.0000000   0.0000000   0.0000000
768.9283721   0.3163677  -0.3112173   0.1606199   0.1156209   0.0000000   0.0000000   0.0000000   0.0000000
779.6360130   0.3090158  -0.2950147   0.1599723   0.1085669   0.0000000   0.0000000   0.0000000   0.0000000
790.4927623   0.4363635  -0.2647576   0.1685683   0.1447844   0.0000000   0.0000000   0.0000000   0.0000000
801.5006962   0.2972283  -0.2929636   0.1623931   0.0965827   0.0000000   0.0000000   0.0000000   0.0000000
812.6619200   0.2893705  -0.2865133   0.1642340   0.0909785   0.0000000   0.0000000   0.0000000   0.0000000
823.9785685   0.2804478  -0.2990151   0.1661392   0.0824894   0.0000000   0.0000000   0.0000000   0.0000000
835.4528058   0.2902087  -0.2846650   0.1641432   0.0757406   0.0000000   0.0000000   0.0000000   0.0000000
847.0868267   0.2679157  -0.2449669   0.2087290   0.0614602   0.0000000   0.0000000   0.0000000   0.0000000
858.8828560   0.2672478  -0.2846512   0.1606355   0.0634021   0.0000000   0.0000000   0.0000000   0.0000000
870.8431498   0.2594139  -0.2874351   0.1566681   0.0566556   0.0000000   0.0000000   0.0000000   0.0000000
882.9699955   0.2670292  -0.2834900   0.1656086   0.0516812   0.0000000   0.0000000   0.0000000   0.0000000
895.2657126   0.2290215  -0.3054159   0.1553087   0.0449372   0.0000000   0.0000000   0.0000000   0.0000000
907.7326525   0.2236537  -0.3125211   0.1515993   0.0333123   0.0000000   0.0000000   0.0000000   0.0000000
920.3731997   0.2110410  -0.3515058   0.1500788   0.0280671   0.0000000   0.0000000   0.0000000   0.0000000
933.1897716   0.2001551  -0.3447208   0.1407006   0.0204057   0.0000000   0.0000000   0.0000000   0.0000000
946.1848195   0.1944866  -0.4024477   0.1446756   0.0078923   0.0000000   0.0000000   0.0000000   0.0000000
959.3608287   0.2269136  -0.4047308   0.1393955  -0.0030186   0.0000000   0.0000000   0.0000000   0.0000000
972.7203192   0.3355278  -0.3970797   0.1464892   0.0059534   0.0000000   0.0000000   0.0000000   0.0000000
986.2658461  -0.0018020  -0.4705591   0.1128489   0.0035797   0.0000000   0.0000000   0.0000000   0.0000000
1000.0000000  -0.1381810  -0.5643282   0.0973317  -0.0204680   0.0000000   0.0000000   0.0000000   0.0000000
