! ListType=Log
# MHZ S RI R 50
0.0010000     0.4928012  -0.1107035  -0.0005881   0.0000966   0.0000000   0.0000000   0.0000000   0.0000000
0.0010139     0.4924454  -0.1120749   0.0000539   0.0006058   0.0000000   0.0000000   0.0000000   0.0000000
0.0010280     0.4924617  -0.1139946   0.0000289  -0.0001652   0.0000000   0.0000000   0.0000000   0.0000000
0.0010424     0.4916862  -0.1149939  -0.0000588  -0.0000552   0.0000000   0.0000000   0.0000000   0.0000000
0.0010569     0.4916174  -0.1169075   0.0000163  -0.0000726   0.0000000   0.0000000   0.0000000   0.0000000
0.0010716     0.4912828  -0.1182966   0.0001867  -0.0001344   0.0000000   0.0000000   0.0000000   0.0000000
0.0010865     0.4905198  -0.1200285  -0.0001222   0.0000054   0.0000000   0.0000000   0.0000000   0.0000000
0.0011016     0.4901265  -0.1213706   0.0000444   0.0000638   0.0000000   0.0000000   0.0000000   0.0000000
0.0011170     0.4895467  -0.1230325  -0.0000109   0.0001011   0.0000000   0.0000000   0.0000000   0.0000000
0.0011325     0.4890726  -0.1247764  -0.0001176   0.0001090   0.0000000   0.0000000   0.0000000   0.0000000
0.0011483     0.4888057  -0.1265923  -0.0001606  -0.0000390   0.0000000   0.0000000   0.0000000   0.0000000
0.0011643     0.4883489  -0.1283629   0.0000080   0.0002064   0.0000000   0.0000000   0.0000000   0.0000000
0.0011805     0.4879162  -0.1299683  -0.0000035   0.0000248   0.0000000   0.0000000   0.0000000   0.0000000
0.0011970     0.4870744  -0.1316171  -0.0001140   0.0002293   0.0000000   0.0000000   0.0000000   0.0000000
0.0012136     0.4867098  -0.1333239  -0.0000156   0.0000113   0.0000000   0.0000000   0.0000000   0.0000000
0.0012305     0.4862201  -0.1350116   0.0000854   0.0000298   0.0000000   0.0000000   0.0000000   0.0000000
0.0012477     0.4857327  -0.1370729   0.0000254   0.0000133   0.0000000   0.0000000   0.0000000   0.0000000
0.0012650     0.4850014  -0.1390293   0.0000471   0.0000499   0.0000000   0.0000000   0.0000000   0.0000000
0.0012826     0.4845928  -0.1406250  -0.0001394   0.0001452   0.0000000   0.0000000   0.0000000   0.0000000
0.0013005     0.4840913  -0.1428237  -0.0000217  -0.0001164   0.0000000   0.0000000   0.0000000   0.0000000
0.0013186     0.4834339  -0.1445093  -0.0000031  -0.0000142   0.0000000   0.0000000   0.0000000   0.0000000
0.0013370     0.4827249  -0.1462906  -0.0000124   0.0000112   0.0000000   0.0000000   0.0000000   0.0000000
0.0013556     0.4819854  -0.1484327   0.0000670  -0.0000853   0.0000000   0.0000000   0.0000000   0.0000000
0.0013745     0.4814494  -0.1503282   0.0000195  -0.0000604   0.0000000   0.0000000   0.0000000   0.0000000
0.0013936     0.4811947  -0.1522657   0.0001420   0.0001136   0.0000000   0.0000000   0.0000000   0.0000000
0.0014130     0.4800999  -0.1538649   0.0000738   0.0001205   0.0000000   0.0000000   0.0000000   0.0000000
0.0014327     0.4793451  -0.1563317  -0.0000253  -0.0002161   0.0000000   0.0000000   0.0000000   0.0000000
0.0014527     0.4788491  -0.1582432   0.0001179   0.0000244   0.0000000   0.0000000   0.0000000   0.0000000
0.0014729     0.4775574  -0.1603044   0.0001736   0.0001491   0.0000000   0.0000000   0.0000000   0.0000000
0.0014934     0.4775169  -0.1624755   0.0001201  -0.0000473   0.0000000   0.0000000   0.0000000   0.0000000
0.0015142     0.4762151  -0.1645162   0.0001560  -0.0001182   0.0000000   0.0000000   0.0000000   0.0000000
0.0015353     0.4753470  -0.1665446  -0.0001578   0.0003205   0.0000000   0.0000000   0.0000000   0.0000000
0.0015567     0.4748566  -0.1688920   0.0002308   0.0001830   0.0000000   0.0000000   0.0000000   0.0000000
0.0015783     0.4741570  -0.1708241   0.0001740   0.0000188   0.0000000   0.0000000   0.0000000   0.0000000
0.0016003     0.4731679  -0.1732124   0.0003521  -0.0001048   0.0000000   0.0000000   0.0000000   0.0000000
0.0016226     0.4720088  -0.1757775  -0.0003178  -0.0003983   0.0000000   0.0000000   0.0000000   0.0000000
0.0016452     0.4712444  -0.1779933  -0.0002186  -0.0003729   0.0000000   0.0000000   0.0000000   0.0000000
0.0016681     0.4703194  -0.1801340  -0.0000431   0.0002272   0.0000000   0.0000000   0.0000000   0.0000000
0.0016913     0.4688173  -0.1828828  -0.0006273  -0.0004865   0.0000000   0.0000000   0.0000000   0.0000000
0.0017149     0.4684101  -0.1841496   0.0009673   0.0008004   0.0000000   0.0000000   0.0000000   0.0000000
0.0017388     0.4673144  -0.1863542   0.0009541   0.0012478   0.0000000   0.0000000   0.0000000   0.0000000
0.0017630     0.4658506  -0.1891758   0.0002441   0.0006499   0.0000000   0.0000000   0.0000000   0.0000000
0.0017875     0.4651372  -0.1916326   0.0005242   0.0002012   0.0000000   0.0000000   0.0000000   0.0000000
0.0018124     0.4638441  -0.1944533   0.0001061  -0.0001281   0.0000000   0.0000000   0.0000000   0.0000000
0.0018377     0.4624500  -0.1966219  -0.0002424   0.0007222   0.0000000   0.0000000   0.0000000   0.0000000
0.0018632     0.4614203  -0.1994429  -0.0000238   0.0000897   0.0000000   0.0000000   0.0000000   0.0000000
0.0018892     0.4602788  -0.2016866  -0.0000261   0.0002747   0.0000000   0.0000000   0.0000000   0.0000000
0.0019155     0.4591976  -0.2042220  -0.0000222   0.0001014   0.0000000   0.0000000   0.0000000   0.0000000
0.0019422     0.4579692  -0.2069054   0.0001166  -0.0000778   0.0000000   0.0000000   0.0000000   0.0000000
0.0019692     0.4568719  -0.2096349  -0.0000497  -0.0003472   0.0000000   0.0000000   0.0000000   0.0000000
0.0019966     0.4553612  -0.2123855  -0.0002261  -0.0000166   0.0000000   0.0000000   0.0000000   0.0000000
0.0020244     0.4544104  -0.2145084   0.0003360   0.0001609   0.0000000   0.0000000   0.0000000   0.0000000
0.0020526     0.4526889  -0.2172977   0.0001182   0.0001879   0.0000000   0.0000000   0.0000000   0.0000000
0.0020812     0.4513572  -0.2199398  -0.0000631   0.0001162   0.0000000   0.0000000   0.0000000   0.0000000
0.0021102     0.4496985  -0.2226329   0.0000150   0.0000720   0.0000000   0.0000000   0.0000000   0.0000000
0.0021396     0.4484184  -0.2255513   0.0000829   0.0000186   0.0000000   0.0000000   0.0000000   0.0000000
0.0021694     0.4469850  -0.2281890   0.0000693   0.0000633   0.0000000   0.0000000   0.0000000   0.0000000
0.0021996     0.4456135  -0.2308366   0.0000433  -0.0000285   0.0000000   0.0000000   0.0000000   0.0000000
0.0022302     0.4438051  -0.2337804   0.0000724   0.0000477   0.0000000   0.0000000   0.0000000   0.0000000
0.0022613     0.4421582  -0.2368810  -0.0000474  -0.0000893   0.0000000   0.0000000   0.0000000   0.0000000
0.0022928     0.4407766  -0.2393330   0.0000296   0.0000704   0.0000000   0.0000000   0.0000000   0.0000000
0.0023247     0.4388665  -0.2424059   0.0000946  -0.0000050   0.0000000   0.0000000   0.0000000   0.0000000
0.0023571     0.4370917  -0.2453149   0.0000979   0.0000233   0.0000000   0.0000000   0.0000000   0.0000000
0.0023899     0.4353256  -0.2482270   0.0000475  -0.0000112   0.0000000   0.0000000   0.0000000   0.0000000
0.0024232     0.4337393  -0.2510620   0.0000740   0.0001032   0.0000000   0.0000000   0.0000000   0.0000000
0.0024569     0.4316783  -0.2540647  -0.0000343   0.0000432   0.0000000   0.0000000   0.0000000   0.0000000
0.0024911     0.4296991  -0.2571006   0.0001129   0.0000569   0.0000000   0.0000000   0.0000000   0.0000000
0.0025258     0.4279973  -0.2601132   0.0000542   0.0000145   0.0000000   0.0000000   0.0000000   0.0000000
0.0025610     0.4260337  -0.2629582   0.0000267  -0.0000307   0.0000000   0.0000000   0.0000000   0.0000000
0.0025967     0.4236265  -0.2661800   0.0000212  -0.0000230   0.0000000   0.0000000   0.0000000   0.0000000
0.0026328     0.4216144  -0.2693416   0.0000255   0.0000127   0.0000000   0.0000000   0.0000000   0.0000000
0.0026695     0.4195518  -0.2723137   0.0000718   0.0000147   0.0000000   0.0000000   0.0000000   0.0000000
0.0027067     0.4173886  -0.2752483   0.0000395   0.0000163   0.0000000   0.0000000   0.0000000   0.0000000
0.0027443     0.4151699  -0.2782805   0.0000345   0.0000259   0.0000000   0.0000000   0.0000000   0.0000000
0.0027826     0.4129601  -0.2815989   0.0000933   0.0000265   0.0000000   0.0000000   0.0000000   0.0000000
0.0028213     0.4106746  -0.2846262   0.0001042   0.0000466   0.0000000   0.0000000   0.0000000   0.0000000
0.0028606     0.4082963  -0.2879455   0.0000688   0.0000708   0.0000000   0.0000000   0.0000000   0.0000000
0.0029004     0.4059355  -0.2911965   0.0001045   0.0000372   0.0000000   0.0000000   0.0000000   0.0000000
0.0029408     0.4033645  -0.2942050   0.0000479  -0.0000831   0.0000000   0.0000000   0.0000000   0.0000000
0.0029818     0.4006809  -0.2973997  -0.0000599   0.0000590   0.0000000   0.0000000   0.0000000   0.0000000
0.0030233     0.3983502  -0.3004820   0.0001051  -0.0000014   0.0000000   0.0000000   0.0000000   0.0000000
0.0030654     0.3958035  -0.3037828   0.0000628  -0.0000069   0.0000000   0.0000000   0.0000000   0.0000000
0.0031081     0.3928765  -0.3070373   0.0000243  -0.0000051   0.0000000   0.0000000   0.0000000   0.0000000
0.0031514     0.3899839  -0.3102069   0.0000530   0.0000090   0.0000000   0.0000000   0.0000000   0.0000000
0.0031952     0.3872322  -0.3137027  -0.0000569   0.0000503   0.0000000   0.0000000   0.0000000   0.0000000
0.0032397     0.3844183  -0.3169768  -0.0000380  -0.0000153   0.0000000   0.0000000   0.0000000   0.0000000
0.0032849     0.3815559  -0.3200770   0.0000088  -0.0000499   0.0000000   0.0000000   0.0000000   0.0000000
0.0033306     0.3785527  -0.3229583   0.0002167   0.0002990   0.0000000   0.0000000   0.0000000   0.0000000
0.0033770     0.3757035  -0.3265184   0.0005624   0.0002628   0.0000000   0.0000000   0.0000000   0.0000000
0.0034240     0.3732018  -0.3299013   0.0010693  -0.0003076   0.0000000   0.0000000   0.0000000   0.0000000
0.0034717     0.3688337  -0.3330694  -0.0000681   0.0004247   0.0000000   0.0000000   0.0000000   0.0000000
0.0035200     0.3661733  -0.3363657   0.0002734   0.0001079   0.0000000   0.0000000   0.0000000   0.0000000
0.0035690     0.3628308  -0.3398338   0.0001863  -0.0000059   0.0000000   0.0000000   0.0000000   0.0000000
0.0036187     0.3590065  -0.3432342  -0.0001989   0.0001561   0.0000000   0.0000000   0.0000000   0.0000000
0.0036691     0.3558759  -0.3466046   0.0000979  -0.0000161   0.0000000   0.0000000   0.0000000   0.0000000
0.0037202     0.3522373  -0.3496435   0.0000231   0.0000410   0.0000000   0.0000000   0.0000000   0.0000000
0.0037720     0.3488512  -0.3529068   0.0000329   0.0000546   0.0000000   0.0000000   0.0000000   0.0000000
0.0038246     0.3452462  -0.3564212  -0.0000093   0.0000113   0.0000000   0.0000000   0.0000000   0.0000000
0.0038778     0.3414550  -0.3596296   0.0000400  -0.0000277   0.0000000   0.0000000   0.0000000   0.0000000
0.0039318     0.3377202  -0.3630726   0.0000079   0.0000407   0.0000000   0.0000000   0.0000000   0.0000000
0.0039866     0.3340433  -0.3662312   0.0000479  -0.0000439   0.0000000   0.0000000   0.0000000   0.0000000
0.0040421     0.3299028  -0.3693343   0.0000702   0.0000140   0.0000000   0.0000000   0.0000000   0.0000000
0.0040984     0.3260584  -0.3725189   0.0000177  -0.0000205   0.0000000   0.0000000   0.0000000   0.0000000
0.0041555     0.3219444  -0.3758034   0.0000652   0.0000389   0.0000000   0.0000000   0.0000000   0.0000000
0.0042133     0.3180781  -0.3789588   0.0000844   0.0000175   0.0000000   0.0000000   0.0000000   0.0000000
0.0042720     0.3138108  -0.3824549   0.0000705   0.0000011   0.0000000   0.0000000   0.0000000   0.0000000
0.0043315     0.3096908  -0.3855978   0.0000691   0.0000033   0.0000000   0.0000000   0.0000000   0.0000000
0.0043918     0.3052243  -0.3885528   0.0000436  -0.0000039   0.0000000   0.0000000   0.0000000   0.0000000
0.0044530     0.3006580  -0.3914968   0.0000739   0.0000468   0.0000000   0.0000000   0.0000000   0.0000000
0.0045150     0.2963983  -0.3947880   0.0000371   0.0000208   0.0000000   0.0000000   0.0000000   0.0000000
0.0045778     0.2918682  -0.3979382   0.0000373  -0.0000152   0.0000000   0.0000000   0.0000000   0.0000000
0.0046416     0.2871181  -0.4009748  -0.0000102   0.0000023   0.0000000   0.0000000   0.0000000   0.0000000
0.0047062     0.2825535  -0.4037504  -0.0000023   0.0000593   0.0000000   0.0000000   0.0000000   0.0000000
0.0047718     0.2778635  -0.4067823   0.0000777  -0.0000283   0.0000000   0.0000000   0.0000000   0.0000000
0.0048382     0.2731546  -0.4096988   0.0000272   0.0000223   0.0000000   0.0000000   0.0000000   0.0000000
0.0049056     0.2683296  -0.4128886   0.0000297   0.0000570   0.0000000   0.0000000   0.0000000   0.0000000
0.0049739     0.2633219  -0.4156722   0.0000038   0.0000169   0.0000000   0.0000000   0.0000000   0.0000000
0.0050432     0.2582222  -0.4182449   0.0001926   0.0001692   0.0000000   0.0000000   0.0000000   0.0000000
0.0051134     0.2532779  -0.4211716   0.0001830   0.0002346   0.0000000   0.0000000   0.0000000   0.0000000
0.0051846     0.2483702  -0.4241552   0.0003101  -0.0000093   0.0000000   0.0000000   0.0000000   0.0000000
0.0052568     0.2428470  -0.4268000   0.0001797   0.0000136   0.0000000   0.0000000   0.0000000   0.0000000
0.0053300     0.2377954  -0.4296593   0.0000643  -0.0000313   0.0000000   0.0000000   0.0000000   0.0000000
0.0054042     0.2323216  -0.4322615   0.0000650  -0.0000153   0.0000000   0.0000000   0.0000000   0.0000000
0.0054795     0.2268629  -0.4346775   0.0000657   0.0000304   0.0000000   0.0000000   0.0000000   0.0000000
0.0055558     0.2213203  -0.4374630   0.0000386  -0.0000549   0.0000000   0.0000000   0.0000000   0.0000000
0.0056331     0.2157571  -0.4397300   0.0000854  -0.0000157   0.0000000   0.0000000   0.0000000   0.0000000
0.0057116     0.2102071  -0.4423022   0.0000726   0.0000136   0.0000000   0.0000000   0.0000000   0.0000000
0.0057911     0.2045693  -0.4445760   0.0000852   0.0000264   0.0000000   0.0000000   0.0000000   0.0000000
0.0058718     0.1989607  -0.4468875   0.0001074  -0.0000131   0.0000000   0.0000000   0.0000000   0.0000000
0.0059535     0.1932700  -0.4491224   0.0000622  -0.0000178   0.0000000   0.0000000   0.0000000   0.0000000
0.0060364     0.1872988  -0.4513362   0.0000464   0.0000084   0.0000000   0.0000000   0.0000000   0.0000000
0.0061205     0.1814503  -0.4533264   0.0000397   0.0000209   0.0000000   0.0000000   0.0000000   0.0000000
0.0062057     0.1756174  -0.4554931   0.0000625   0.0000117   0.0000000   0.0000000   0.0000000   0.0000000
0.0062921     0.1697169  -0.4573153   0.0000635  -0.0000141   0.0000000   0.0000000   0.0000000   0.0000000
0.0063798     0.1635525  -0.4593645   0.0000649  -0.0000119   0.0000000   0.0000000   0.0000000   0.0000000
0.0064686     0.1574039  -0.4611466   0.0000502  -0.0000124   0.0000000   0.0000000   0.0000000   0.0000000
0.0065587     0.1512939  -0.4630047   0.0000511   0.0000188   0.0000000   0.0000000   0.0000000   0.0000000
0.0066500     0.1449255  -0.4646019   0.0000424   0.0000194   0.0000000   0.0000000   0.0000000   0.0000000
0.0067426     0.1389478  -0.4663109   0.0000809   0.0000838   0.0000000   0.0000000   0.0000000   0.0000000
0.0068365     0.1327380  -0.4675216  -0.0000648  -0.0000295   0.0000000   0.0000000   0.0000000   0.0000000
0.0069317     0.1261844  -0.4692130  -0.0000126   0.0001552   0.0000000   0.0000000   0.0000000   0.0000000
0.0070282     0.1199015  -0.4705756   0.0000103  -0.0000142   0.0000000   0.0000000   0.0000000   0.0000000
0.0071261     0.1134922  -0.4719829   0.0000747  -0.0000146   0.0000000   0.0000000   0.0000000   0.0000000
0.0072253     0.1069069  -0.4733398   0.0001048  -0.0000373   0.0000000   0.0000000   0.0000000   0.0000000
0.0073260     0.1003364  -0.4742807   0.0000667  -0.0000182   0.0000000   0.0000000   0.0000000   0.0000000
0.0074280     0.0940756  -0.4751953   0.0000970   0.0000088   0.0000000   0.0000000   0.0000000   0.0000000
0.0075314     0.0873602  -0.4762549   0.0000897  -0.0000220   0.0000000   0.0000000   0.0000000   0.0000000
0.0076363     0.0809775  -0.4770023   0.0000408  -0.0000251   0.0000000   0.0000000   0.0000000   0.0000000
0.0077426     0.0742930  -0.4781031   0.0000410  -0.0000107   0.0000000   0.0000000   0.0000000   0.0000000
0.0078505     0.0675513  -0.4786936   0.0000410  -0.0000064   0.0000000   0.0000000   0.0000000   0.0000000
0.0079598     0.0608998  -0.4792645   0.0000466   0.0000069   0.0000000   0.0000000   0.0000000   0.0000000
0.0080706     0.0542869  -0.4798952   0.0000560  -0.0000271   0.0000000   0.0000000   0.0000000   0.0000000
0.0081830     0.0475933  -0.4802777   0.0000253   0.0000064   0.0000000   0.0000000   0.0000000   0.0000000
0.0082970     0.0408904  -0.4805435   0.0000978  -0.0000044   0.0000000   0.0000000   0.0000000   0.0000000
0.0084125     0.0343149  -0.4810174   0.0000568   0.0000023   0.0000000   0.0000000   0.0000000   0.0000000
0.0085296     0.0276939  -0.4811149   0.0000208   0.0000183   0.0000000   0.0000000   0.0000000   0.0000000
0.0086484     0.0207870  -0.4812694   0.0001290  -0.0000842   0.0000000   0.0000000   0.0000000   0.0000000
0.0087689     0.0141200  -0.4809596   0.0000176  -0.0000310   0.0000000   0.0000000   0.0000000   0.0000000
0.0088910     0.0075037  -0.4810131   0.0000565  -0.0000163   0.0000000   0.0000000   0.0000000   0.0000000
0.0090148     0.0006212  -0.4807389   0.0000636  -0.0000200   0.0000000   0.0000000   0.0000000   0.0000000
0.0091403    -0.0058647  -0.4805965   0.0000628  -0.0000089   0.0000000   0.0000000   0.0000000   0.0000000
0.0092676    -0.0127661  -0.4800636   0.0000636  -0.0000121   0.0000000   0.0000000   0.0000000   0.0000000
0.0093966    -0.0193910  -0.4795234   0.0000450   0.0000009   0.0000000   0.0000000   0.0000000   0.0000000
0.0095275    -0.0260493  -0.4790197   0.0000582  -0.0000222   0.0000000   0.0000000   0.0000000   0.0000000
0.0096602    -0.0328653  -0.4782932   0.0000706  -0.0000346   0.0000000   0.0000000   0.0000000   0.0000000
0.0097947    -0.0394708  -0.4776660   0.0000496  -0.0000079   0.0000000   0.0000000   0.0000000   0.0000000
0.0099311    -0.0462294  -0.4765492   0.0000784  -0.0000224   0.0000000   0.0000000   0.0000000   0.0000000
0.0100694    -0.0530351  -0.4757101   0.0000838  -0.0000056   0.0000000   0.0000000   0.0000000   0.0000000
0.0102096    -0.0595683  -0.4744420   0.0000877  -0.0000272   0.0000000   0.0000000   0.0000000   0.0000000
0.0103518    -0.0665650  -0.4732596   0.0000438   0.0000400   0.0000000   0.0000000   0.0000000   0.0000000
0.0104959    -0.0726173  -0.4726898   0.0000425  -0.0000204   0.0000000   0.0000000   0.0000000   0.0000000
0.0106421    -0.0790428  -0.4712600   0.0000617  -0.0000091   0.0000000   0.0000000   0.0000000   0.0000000
0.0107903    -0.0853564  -0.4695748   0.0000427  -0.0000206   0.0000000   0.0000000   0.0000000   0.0000000
0.0109405    -0.0920745  -0.4682738   0.0000484  -0.0000098   0.0000000   0.0000000   0.0000000   0.0000000
0.0110929    -0.0984424  -0.4666894   0.0000478  -0.0000237   0.0000000   0.0000000   0.0000000   0.0000000
0.0112474    -0.1049129  -0.4650836   0.0000437  -0.0000115   0.0000000   0.0000000   0.0000000   0.0000000
0.0114040    -0.1108957  -0.4631770   0.0000407  -0.0000283   0.0000000   0.0000000   0.0000000   0.0000000
0.0115628    -0.1176180  -0.4616227   0.0000516  -0.0000149   0.0000000   0.0000000   0.0000000   0.0000000
0.0117238    -0.1237414  -0.4600145   0.0000393  -0.0000182   0.0000000   0.0000000   0.0000000   0.0000000
0.0118871    -0.1298081  -0.4574254   0.0000883  -0.0000212   0.0000000   0.0000000   0.0000000   0.0000000
0.0120526    -0.1397321  -0.4570722   0.0000454  -0.0000305   0.0000000   0.0000000   0.0000000   0.0000000
0.0122204    -0.1426671  -0.4535690   0.0000555  -0.0000261   0.0000000   0.0000000   0.0000000   0.0000000
0.0123906    -0.1482970  -0.4514588   0.0000449  -0.0000192   0.0000000   0.0000000   0.0000000   0.0000000
0.0125632    -0.1544918  -0.4491845   0.0000548  -0.0000136   0.0000000   0.0000000   0.0000000   0.0000000
0.0127381    -0.1605307  -0.4470204   0.0000293  -0.0000182   0.0000000   0.0000000   0.0000000   0.0000000
0.0129155    -0.1663345  -0.4443578   0.0000367  -0.0000076   0.0000000   0.0000000   0.0000000   0.0000000
0.0130954    -0.1722097  -0.4417880   0.0000530  -0.0000382   0.0000000   0.0000000   0.0000000   0.0000000
0.0132777    -0.1779808  -0.4394366   0.0000422  -0.0000287   0.0000000   0.0000000   0.0000000   0.0000000
0.0134626    -0.1838106  -0.4368738   0.0000469  -0.0000159   0.0000000   0.0000000   0.0000000   0.0000000
0.0136501    -0.1893412  -0.4346874   0.0000475  -0.0000340   0.0000000   0.0000000   0.0000000   0.0000000
0.0138402    -0.1951613  -0.4310997   0.0000470  -0.0000264   0.0000000   0.0000000   0.0000000   0.0000000
0.0140329    -0.2006798  -0.4287687   0.0000464  -0.0000197   0.0000000   0.0000000   0.0000000   0.0000000
0.0142283    -0.2062286  -0.4259309   0.0000432  -0.0000326   0.0000000   0.0000000   0.0000000   0.0000000
0.0144264    -0.2115739  -0.4230569   0.0000425  -0.0000138   0.0000000   0.0000000   0.0000000   0.0000000
0.0146273    -0.2170847  -0.4199639   0.0000449  -0.0000154   0.0000000   0.0000000   0.0000000   0.0000000
0.0148310    -0.2223522  -0.4170714   0.0000566  -0.0000284   0.0000000   0.0000000   0.0000000   0.0000000
0.0150376    -0.2276530  -0.4140956   0.0000648  -0.0000171   0.0000000   0.0000000   0.0000000   0.0000000
0.0152470    -0.2327575  -0.4108975   0.0000499  -0.0000334   0.0000000   0.0000000   0.0000000   0.0000000
0.0154593    -0.2378470  -0.4079419   0.0000490  -0.0000141   0.0000000   0.0000000   0.0000000   0.0000000
0.0156746    -0.2429303  -0.4045876   0.0000388  -0.0000279   0.0000000   0.0000000   0.0000000   0.0000000
0.0158928    -0.2478719  -0.4013840   0.0000441  -0.0000087   0.0000000   0.0000000   0.0000000   0.0000000
0.0161141    -0.2528871  -0.3980576   0.0000475  -0.0000457   0.0000000   0.0000000   0.0000000   0.0000000
0.0163385    -0.2576654  -0.3948544   0.0000332  -0.0000226   0.0000000   0.0000000   0.0000000   0.0000000
0.0165661    -0.2623723  -0.3914019   0.0000396  -0.0000332   0.0000000   0.0000000   0.0000000   0.0000000
0.0167967    -0.2671678  -0.3881905   0.0000468  -0.0000208   0.0000000   0.0000000   0.0000000   0.0000000
0.0170307    -0.2718158  -0.3847363   0.0000364  -0.0000318   0.0000000   0.0000000   0.0000000   0.0000000
0.0172678    -0.2763564  -0.3811097   0.0000437  -0.0000280   0.0000000   0.0000000   0.0000000   0.0000000
0.0175083    -0.2807830  -0.3777859   0.0000507  -0.0000312   0.0000000   0.0000000   0.0000000   0.0000000
0.0177521    -0.2851173  -0.3742582   0.0000298  -0.0000017   0.0000000   0.0000000   0.0000000   0.0000000
0.0179993    -0.2895115  -0.3705927   0.0000308  -0.0000069   0.0000000   0.0000000   0.0000000   0.0000000
0.0182499    -0.2938368  -0.3672290   0.0000472  -0.0000199   0.0000000   0.0000000   0.0000000   0.0000000
0.0185041    -0.2979876  -0.3636154   0.0000292  -0.0000202   0.0000000   0.0000000   0.0000000   0.0000000
0.0187617    -0.3023077  -0.3597345   0.0000278  -0.0000293   0.0000000   0.0000000   0.0000000   0.0000000
0.0190230    -0.3062561  -0.3562479   0.0000356  -0.0000283   0.0000000   0.0000000   0.0000000   0.0000000
0.0192879    -0.3102920  -0.3525964   0.0000486  -0.0000306   0.0000000   0.0000000   0.0000000   0.0000000
0.0195565    -0.3140258  -0.3491146   0.0000647  -0.0000122   0.0000000   0.0000000   0.0000000   0.0000000
0.0198288    -0.3179211  -0.3453896   0.0000378  -0.0000373   0.0000000   0.0000000   0.0000000   0.0000000
0.0201050    -0.3218291  -0.3416097   0.0000355  -0.0000396   0.0000000   0.0000000   0.0000000   0.0000000
0.0203849    -0.3255332  -0.3378783   0.0000380  -0.0000142   0.0000000   0.0000000   0.0000000   0.0000000
0.0206688    -0.3292591  -0.3342222   0.0000421  -0.0000154   0.0000000   0.0000000   0.0000000   0.0000000
0.0209566    -0.3328029  -0.3303274   0.0000325  -0.0000297   0.0000000   0.0000000   0.0000000   0.0000000
0.0212485    -0.3363902  -0.3267273   0.0000189  -0.0000172   0.0000000   0.0000000   0.0000000   0.0000000
0.0215443    -0.3397549  -0.3230166   0.0000303  -0.0000216   0.0000000   0.0000000   0.0000000   0.0000000
0.0218444    -0.3430937  -0.3191653   0.0000302  -0.0000229   0.0000000   0.0000000   0.0000000   0.0000000
0.0221486    -0.3464801  -0.3154011   0.0000306  -0.0000314   0.0000000   0.0000000   0.0000000   0.0000000
0.0224570    -0.3497484  -0.3117929   0.0000374  -0.0000364   0.0000000   0.0000000   0.0000000   0.0000000
0.0227697    -0.3528891  -0.3079480   0.0000243  -0.0000213   0.0000000   0.0000000   0.0000000   0.0000000
0.0230868    -0.3559721  -0.3041654   0.0000256  -0.0000198   0.0000000   0.0000000   0.0000000   0.0000000
0.0234083    -0.3592240  -0.3003170   0.0000436  -0.0000354   0.0000000   0.0000000   0.0000000   0.0000000
0.0237342    -0.3621065  -0.2965552   0.0000282  -0.0000310   0.0000000   0.0000000   0.0000000   0.0000000
0.0240648    -0.3650522  -0.2928740   0.0000209  -0.0000428   0.0000000   0.0000000   0.0000000   0.0000000
0.0243999    -0.3679863  -0.2891097   0.0000313  -0.0000261   0.0000000   0.0000000   0.0000000   0.0000000
0.0247396    -0.3708355  -0.2852960   0.0000310  -0.0000365   0.0000000   0.0000000   0.0000000   0.0000000
0.0250842    -0.3735168  -0.2815092   0.0000151  -0.0000187   0.0000000   0.0000000   0.0000000   0.0000000
0.0254335    -0.3761774  -0.2777609   0.0000443  -0.0000045   0.0000000   0.0000000   0.0000000   0.0000000
0.0257876    -0.3788157  -0.2740279   0.0000330  -0.0000425   0.0000000   0.0000000   0.0000000   0.0000000
0.0261467    -0.3814613  -0.2701724   0.0000333  -0.0000152   0.0000000   0.0000000   0.0000000   0.0000000
0.0265108    -0.3840065  -0.2664102   0.0000296  -0.0000197   0.0000000   0.0000000   0.0000000   0.0000000
0.0268800    -0.3864156  -0.2627455   0.0000197  -0.0000426   0.0000000   0.0000000   0.0000000   0.0000000
0.0272543    -0.3889353  -0.2588979   0.0000443  -0.0000082   0.0000000   0.0000000   0.0000000   0.0000000
0.0276339    -0.3912387  -0.2552793   0.0000179  -0.0000221   0.0000000   0.0000000   0.0000000   0.0000000
0.0280187    -0.3935408  -0.2515538   0.0000314  -0.0000236   0.0000000   0.0000000   0.0000000   0.0000000
0.0284088    -0.3958309  -0.2477803   0.0000247  -0.0000143   0.0000000   0.0000000   0.0000000   0.0000000
0.0288044    -0.3980705  -0.2440331   0.0000061  -0.0000168   0.0000000   0.0000000   0.0000000   0.0000000
0.0292056    -0.4002464  -0.2403796   0.0000332  -0.0000306   0.0000000   0.0000000   0.0000000   0.0000000
0.0296123    -0.4023196  -0.2366966   0.0000128  -0.0000246   0.0000000   0.0000000   0.0000000   0.0000000
0.0300246    -0.4043565  -0.2330729   0.0000405  -0.0000263   0.0000000   0.0000000   0.0000000   0.0000000
0.0304427    -0.4062888  -0.2294015   0.0000201  -0.0000177   0.0000000   0.0000000   0.0000000   0.0000000
0.0308666    -0.4083067  -0.2258102   0.0000204  -0.0000360   0.0000000   0.0000000   0.0000000   0.0000000
0.0312965    -0.4102472  -0.2220889   0.0000112  -0.0000432   0.0000000   0.0000000   0.0000000   0.0000000
0.0317323    -0.4120530  -0.2185368   0.0000163  -0.0000181   0.0000000   0.0000000   0.0000000   0.0000000
0.0321742    -0.4138141  -0.2148397   0.0000309  -0.0000286   0.0000000   0.0000000   0.0000000   0.0000000
0.0326222    -0.4156276  -0.2112334   0.0000058  -0.0000115   0.0000000   0.0000000   0.0000000   0.0000000
0.0330765    -0.4173698  -0.2076678   0.0000199  -0.0000318   0.0000000   0.0000000   0.0000000   0.0000000
0.0335371    -0.4189782  -0.2041211   0.0000229  -0.0000285   0.0000000   0.0000000   0.0000000   0.0000000
0.0340041    -0.4207210  -0.2004864   0.0000154  -0.0000121   0.0000000   0.0000000   0.0000000   0.0000000
0.0344776    -0.4222589  -0.1970830   0.0000081  -0.0000344   0.0000000   0.0000000   0.0000000   0.0000000
0.0349578    -0.4239394  -0.1935640   0.0000156  -0.0000173   0.0000000   0.0000000   0.0000000   0.0000000
0.0354446    -0.4253964  -0.1899268   0.0000250  -0.0000220   0.0000000   0.0000000   0.0000000   0.0000000
0.0359381    -0.4267561  -0.1863993   0.0000081  -0.0000207   0.0000000   0.0000000   0.0000000   0.0000000
0.0364386    -0.4283255  -0.1830777   0.0000327  -0.0000184   0.0000000   0.0000000   0.0000000   0.0000000
0.0369460    -0.4297094  -0.1795166   0.0000131  -0.0000035   0.0000000   0.0000000   0.0000000   0.0000000
0.0374605    -0.4310385  -0.1761294   0.0000049  -0.0000139   0.0000000   0.0000000   0.0000000   0.0000000
0.0379822    -0.4323346  -0.1725930   0.0000174  -0.0000249   0.0000000   0.0000000   0.0000000   0.0000000
0.0385111    -0.4337259  -0.1691002   0.0000128  -0.0000167   0.0000000   0.0000000   0.0000000   0.0000000
0.0390474    -0.4348366  -0.1657345   0.0000197  -0.0000336   0.0000000   0.0000000   0.0000000   0.0000000
0.0395911    -0.4360510  -0.1624083   0.0000190  -0.0000207   0.0000000   0.0000000   0.0000000   0.0000000
0.0401424    -0.4372312  -0.1590337   0.0000030  -0.0000144   0.0000000   0.0000000   0.0000000   0.0000000
0.0407014    -0.4383220  -0.1557591   0.0000194  -0.0000258   0.0000000   0.0000000   0.0000000   0.0000000
0.0412682    -0.4395193  -0.1523298  -0.0000003  -0.0000321   0.0000000   0.0000000   0.0000000   0.0000000
0.0418429    -0.4406106  -0.1490533   0.0000104  -0.0000050   0.0000000   0.0000000   0.0000000   0.0000000
0.0424256    -0.4416079  -0.1457442   0.0000050  -0.0000267   0.0000000   0.0000000   0.0000000   0.0000000
0.0430164    -0.4425165  -0.1423636   0.0000289  -0.0000361   0.0000000   0.0000000   0.0000000   0.0000000
0.0436154    -0.4436052  -0.1390158   0.0000273  -0.0000315   0.0000000   0.0000000   0.0000000   0.0000000
0.0442227    -0.4444990  -0.1357758   0.0000235  -0.0000205   0.0000000   0.0000000   0.0000000   0.0000000
0.0448386    -0.4454220  -0.1324966   0.0000078  -0.0000139   0.0000000   0.0000000   0.0000000   0.0000000
0.0454630    -0.4462818  -0.1292297   0.0000261  -0.0000119   0.0000000   0.0000000   0.0000000   0.0000000
0.0460960    -0.4470648  -0.1260150   0.0000078  -0.0000205   0.0000000   0.0000000   0.0000000   0.0000000
0.0467380    -0.4479932  -0.1227578   0.0000087  -0.0000094   0.0000000   0.0000000   0.0000000   0.0000000
0.0473888    -0.4488289  -0.1195376  -0.0000002  -0.0000132   0.0000000   0.0000000   0.0000000   0.0000000
0.0480487    -0.4494196  -0.1163934   0.0000165  -0.0000229   0.0000000   0.0000000   0.0000000   0.0000000
0.0487178    -0.4502357  -0.1132379   0.0000054  -0.0000178   0.0000000   0.0000000   0.0000000   0.0000000
0.0493962    -0.4509609  -0.1100728   0.0000034  -0.0000130   0.0000000   0.0000000   0.0000000   0.0000000
0.0500841    -0.4516852  -0.1069055   0.0000182  -0.0000198   0.0000000   0.0000000   0.0000000   0.0000000
0.0507815    -0.4521660  -0.1037078   0.0000114  -0.0000199   0.0000000   0.0000000   0.0000000   0.0000000
0.0514887    -0.4528706  -0.1005384   0.0000224  -0.0000153   0.0000000   0.0000000   0.0000000   0.0000000
0.0522057    -0.4535221  -0.0974952  -0.0000019  -0.0000366   0.0000000   0.0000000   0.0000000   0.0000000
0.0529327    -0.4540501  -0.0943254   0.0000187  -0.0000170   0.0000000   0.0000000   0.0000000   0.0000000
0.0536698    -0.4546136  -0.0913023   0.0000043  -0.0000252   0.0000000   0.0000000   0.0000000   0.0000000
0.0544171    -0.4551347  -0.0881222   0.0000178  -0.0000200   0.0000000   0.0000000   0.0000000   0.0000000
0.0551749    -0.4556714  -0.0850911   0.0000087  -0.0000108   0.0000000   0.0000000   0.0000000   0.0000000
0.0559433    -0.4560743  -0.0820471   0.0000082  -0.0000247   0.0000000   0.0000000   0.0000000   0.0000000
0.0567223    -0.4565086  -0.0791074   0.0000041  -0.0000146   0.0000000   0.0000000   0.0000000   0.0000000
0.0575122    -0.4569553  -0.0760486  -0.0000031  -0.0000161   0.0000000   0.0000000   0.0000000   0.0000000
0.0583131    -0.4571961  -0.0729812  -0.0000010  -0.0000215   0.0000000   0.0000000   0.0000000   0.0000000
0.0591251    -0.4577235  -0.0698964   0.0000076  -0.0000088   0.0000000   0.0000000   0.0000000   0.0000000
0.0599484    -0.4579613  -0.0669818   0.0000006  -0.0000137   0.0000000   0.0000000   0.0000000   0.0000000
0.0607832    -0.4583622  -0.0639883   0.0000133  -0.0000174   0.0000000   0.0000000   0.0000000   0.0000000
0.0616297    -0.4586945  -0.0609363   0.0000036  -0.0000147   0.0000000   0.0000000   0.0000000   0.0000000
0.0624879    -0.4587127  -0.0580089   0.0000123  -0.0000222   0.0000000   0.0000000   0.0000000   0.0000000
0.0633580    -0.4590834  -0.0550565   0.0000180  -0.0000182   0.0000000   0.0000000   0.0000000   0.0000000
0.0642403    -0.4594415  -0.0520043   0.0000044  -0.0000031   0.0000000   0.0000000   0.0000000   0.0000000
0.0651349    -0.4596477  -0.0491162   0.0000056  -0.0000193   0.0000000   0.0000000   0.0000000   0.0000000
0.0660419    -0.4597976  -0.0462227   0.0000032  -0.0000089   0.0000000   0.0000000   0.0000000   0.0000000
0.0669616    -0.4599837  -0.0430955   0.0000093  -0.0000137   0.0000000   0.0000000   0.0000000   0.0000000
0.0678941    -0.4601611  -0.0402461   0.0000152  -0.0000167   0.0000000   0.0000000   0.0000000   0.0000000
0.0688395    -0.4602675  -0.0373424   0.0000097  -0.0000256   0.0000000   0.0000000   0.0000000   0.0000000
0.0697981    -0.4603807  -0.0343577   0.0000021  -0.0000181   0.0000000   0.0000000   0.0000000   0.0000000
0.0707701    -0.4603760  -0.0315099   0.0000140  -0.0000201   0.0000000   0.0000000   0.0000000   0.0000000
0.0717556    -0.4605402  -0.0285705   0.0000201  -0.0000126   0.0000000   0.0000000   0.0000000   0.0000000
0.0727548    -0.4605994  -0.0257426   0.0000046  -0.0000162   0.0000000   0.0000000   0.0000000   0.0000000
0.0737680    -0.4606223  -0.0228320  -0.0000148  -0.0000203   0.0000000   0.0000000   0.0000000   0.0000000
0.0747952    -0.4604769  -0.0199633   0.0000010  -0.0000129   0.0000000   0.0000000   0.0000000   0.0000000
0.0758368    -0.4603993  -0.0170583   0.0000044  -0.0000159   0.0000000   0.0000000   0.0000000   0.0000000
0.0768928    -0.4603664  -0.0141535  -0.0000167  -0.0000142   0.0000000   0.0000000   0.0000000   0.0000000
0.0779636    -0.4603916  -0.0112996   0.0000094  -0.0000115   0.0000000   0.0000000   0.0000000   0.0000000
0.0790493    -0.4602815  -0.0084128   0.0000056  -0.0000202   0.0000000   0.0000000   0.0000000   0.0000000
0.0801501    -0.4600984  -0.0055803   0.0000108  -0.0000102   0.0000000   0.0000000   0.0000000   0.0000000
0.0812662    -0.4599486  -0.0027179  -0.0000029   0.0000074   0.0000000   0.0000000   0.0000000   0.0000000
0.0823979    -0.4597763   0.0000881  -0.0000006  -0.0000114   0.0000000   0.0000000   0.0000000   0.0000000
0.0835453    -0.4596497   0.0029857   0.0000005  -0.0000034   0.0000000   0.0000000   0.0000000   0.0000000
0.0847087    -0.4593552   0.0058089   0.0000057  -0.0000075   0.0000000   0.0000000   0.0000000   0.0000000
0.0858883    -0.4591343   0.0086408   0.0000041  -0.0000129   0.0000000   0.0000000   0.0000000   0.0000000
0.0870843    -0.4588762   0.0114766   0.0000131   0.0000043   0.0000000   0.0000000   0.0000000   0.0000000
0.0882970    -0.4586262   0.0143888   0.0000096  -0.0000250   0.0000000   0.0000000   0.0000000   0.0000000
0.0895266    -0.4583214   0.0172482   0.0000112  -0.0000145   0.0000000   0.0000000   0.0000000   0.0000000
0.0907733    -0.4580988   0.0200189  -0.0000027  -0.0000046   0.0000000   0.0000000   0.0000000   0.0000000
0.0920373    -0.4578467   0.0228547   0.0000136  -0.0000085   0.0000000   0.0000000   0.0000000   0.0000000
0.0933190    -0.4574353   0.0256858  -0.0000010  -0.0000152   0.0000000   0.0000000   0.0000000   0.0000000
0.0946185    -0.4569435   0.0285683   0.0000057  -0.0000151   0.0000000   0.0000000   0.0000000   0.0000000
0.0959361    -0.4566657   0.0313615   0.0000045   0.0000009   0.0000000   0.0000000   0.0000000   0.0000000
0.0972720    -0.4562503   0.0342055   0.0000011  -0.0000146   0.0000000   0.0000000   0.0000000   0.0000000
0.0986266    -0.4557271   0.0370530   0.0000064  -0.0000116   0.0000000   0.0000000   0.0000000   0.0000000
0.1000000    -0.4552853   0.0399004  -0.0000005  -0.0000088   0.0000000   0.0000000   0.0000000   0.0000000
0.1013925    -0.4547726   0.0426424  -0.0000021  -0.0000182   0.0000000   0.0000000   0.0000000   0.0000000
0.1028045    -0.4542341   0.0454799  -0.0000019  -0.0000244   0.0000000   0.0000000   0.0000000   0.0000000
0.1042361    -0.4537459   0.0483489   0.0000059   0.0000055   0.0000000   0.0000000   0.0000000   0.0000000
0.1056876    -0.4530930   0.0511259  -0.0000034  -0.0000167   0.0000000   0.0000000   0.0000000   0.0000000
0.1071593    -0.4525689   0.0539934   0.0000049  -0.0000142   0.0000000   0.0000000   0.0000000   0.0000000
0.1086516    -0.4518821   0.0568313   0.0000155  -0.0000106   0.0000000   0.0000000   0.0000000   0.0000000
0.1101646    -0.4514298   0.0595957   0.0000087  -0.0000049   0.0000000   0.0000000   0.0000000   0.0000000
0.1116987    -0.4506391   0.0624674  -0.0000029  -0.0000100   0.0000000   0.0000000   0.0000000   0.0000000
0.1132541    -0.4499455   0.0653593  -0.0000123   0.0000027   0.0000000   0.0000000   0.0000000   0.0000000
0.1148312    -0.4492374   0.0680527   0.0000099  -0.0000161   0.0000000   0.0000000   0.0000000   0.0000000
0.1164303    -0.4484614   0.0709274   0.0000052  -0.0000020   0.0000000   0.0000000   0.0000000   0.0000000
0.1180517    -0.4478045   0.0737356   0.0000044  -0.0000179   0.0000000   0.0000000   0.0000000   0.0000000
0.1196956    -0.4470068   0.0766064   0.0000120  -0.0000020   0.0000000   0.0000000   0.0000000   0.0000000
0.1213624    -0.4461397   0.0794882  -0.0000016  -0.0000096   0.0000000   0.0000000   0.0000000   0.0000000
0.1230524    -0.4452144   0.0822074   0.0000078   0.0000061   0.0000000   0.0000000   0.0000000   0.0000000
0.1247660    -0.4444203   0.0851297   0.0000102  -0.0000041   0.0000000   0.0000000   0.0000000   0.0000000
0.1265034    -0.4434982   0.0879265   0.0000256  -0.0000101   0.0000000   0.0000000   0.0000000   0.0000000
0.1282650    -0.4425388   0.0908048  -0.0000044   0.0000031   0.0000000   0.0000000   0.0000000   0.0000000
0.1300511    -0.4416922   0.0936552   0.0000075  -0.0000070   0.0000000   0.0000000   0.0000000   0.0000000
0.1318621    -0.4407588   0.0965396   0.0000053   0.0000056   0.0000000   0.0000000   0.0000000   0.0000000
0.1336984    -0.4397899   0.0993836   0.0000003  -0.0000017   0.0000000   0.0000000   0.0000000   0.0000000
0.1355602    -0.4386385   0.1022272  -0.0000075   0.0000030   0.0000000   0.0000000   0.0000000   0.0000000
0.1374479    -0.4375973   0.1050395  -0.0000050  -0.0000174   0.0000000   0.0000000   0.0000000   0.0000000
0.1393619    -0.4366100   0.1078797   0.0000060  -0.0000110   0.0000000   0.0000000   0.0000000   0.0000000
0.1413026    -0.4353628   0.1107958   0.0000131  -0.0000036   0.0000000   0.0000000   0.0000000   0.0000000
0.1432703    -0.4343450   0.1136759   0.0000089  -0.0000005   0.0000000   0.0000000   0.0000000   0.0000000
0.1452654    -0.4331972   0.1164773   0.0000098   0.0000016   0.0000000   0.0000000   0.0000000   0.0000000
0.1472883    -0.4318768   0.1193278  -0.0000002  -0.0000057   0.0000000   0.0000000   0.0000000   0.0000000
0.1493393    -0.4307173   0.1222112  -0.0000027  -0.0000007   0.0000000   0.0000000   0.0000000   0.0000000
0.1514189    -0.4294492   0.1251219  -0.0000004  -0.0000110   0.0000000   0.0000000   0.0000000   0.0000000
0.1535275    -0.4281245   0.1279264   0.0000024   0.0000173   0.0000000   0.0000000   0.0000000   0.0000000
0.1556654    -0.4268565   0.1307763   0.0000090  -0.0000061   0.0000000   0.0000000   0.0000000   0.0000000
0.1578331    -0.4255164   0.1336577   0.0000007  -0.0000107   0.0000000   0.0000000   0.0000000   0.0000000
0.1600310    -0.4240860   0.1364830   0.0000158  -0.0000059   0.0000000   0.0000000   0.0000000   0.0000000
0.1622595    -0.4226378   0.1393715  -0.0000060   0.0000005   0.0000000   0.0000000   0.0000000   0.0000000
0.1645191    -0.4211491   0.1422448  -0.0000138  -0.0000069   0.0000000   0.0000000   0.0000000   0.0000000
0.1668101    -0.4198490   0.1451074   0.0000010  -0.0000065   0.0000000   0.0000000   0.0000000   0.0000000
0.1691330    -0.4181782   0.1480306  -0.0000151   0.0000008   0.0000000   0.0000000   0.0000000   0.0000000
0.1714882    -0.4166274   0.1508206   0.0000018  -0.0000039   0.0000000   0.0000000   0.0000000   0.0000000
0.1738762    -0.4151860   0.1537562   0.0000033   0.0000020   0.0000000   0.0000000   0.0000000   0.0000000
0.1762975    -0.4135436   0.1566430  -0.0000140   0.0000056   0.0000000   0.0000000   0.0000000   0.0000000
0.1787526    -0.4118541   0.1594750  -0.0000010  -0.0000059   0.0000000   0.0000000   0.0000000   0.0000000
0.1812418    -0.4101879   0.1624088   0.0000064  -0.0000074   0.0000000   0.0000000   0.0000000   0.0000000
0.1837656    -0.4084256   0.1651962  -0.0000067  -0.0000112   0.0000000   0.0000000   0.0000000   0.0000000
0.1863246    -0.4067298   0.1681332  -0.0000027  -0.0000076   0.0000000   0.0000000   0.0000000   0.0000000
0.1889193    -0.4048875   0.1710240  -0.0000101   0.0000010   0.0000000   0.0000000   0.0000000   0.0000000
0.1915501    -0.4030281   0.1738490  -0.0000002   0.0000091   0.0000000   0.0000000   0.0000000   0.0000000
0.1942175    -0.4012536   0.1766628  -0.0000072  -0.0000009   0.0000000   0.0000000   0.0000000   0.0000000
0.1969220    -0.3992697   0.1795275  -0.0000090  -0.0000004   0.0000000   0.0000000   0.0000000   0.0000000
0.1996642    -0.3973534   0.1824418   0.0000095   0.0000116   0.0000000   0.0000000   0.0000000   0.0000000
0.2024447    -0.3954594   0.1852728   0.0000092   0.0000065   0.0000000   0.0000000   0.0000000   0.0000000
0.2052638    -0.3934032   0.1880234  -0.0000017   0.0000078   0.0000000   0.0000000   0.0000000   0.0000000
0.2081222    -0.3913487   0.1909180  -0.0000001   0.0000068   0.0000000   0.0000000   0.0000000   0.0000000
0.2110203    -0.3892700   0.1938973   0.0000044  -0.0000037   0.0000000   0.0000000   0.0000000   0.0000000
0.2139589    -0.3871002   0.1966338  -0.0000092   0.0000070   0.0000000   0.0000000   0.0000000   0.0000000
0.2169384    -0.3849477   0.1995783   0.0000013   0.0000075   0.0000000   0.0000000   0.0000000   0.0000000
0.2199593    -0.3827840   0.2023256  -0.0000190   0.0000153   0.0000000   0.0000000   0.0000000   0.0000000
0.2230223    -0.3804363   0.2051182   0.0000071  -0.0000073   0.0000000   0.0000000   0.0000000   0.0000000
0.2261280    -0.3782185   0.2080211  -0.0000048   0.0000058   0.0000000   0.0000000   0.0000000   0.0000000
0.2292769    -0.3759793   0.2107903   0.0000047   0.0000145   0.0000000   0.0000000   0.0000000   0.0000000
0.2324697    -0.3736263   0.2136073  -0.0000097   0.0000133   0.0000000   0.0000000   0.0000000   0.0000000
0.2357069    -0.3711877   0.2164808  -0.0000080  -0.0000013   0.0000000   0.0000000   0.0000000   0.0000000
0.2389893    -0.3687425   0.2192656  -0.0000060   0.0000130   0.0000000   0.0000000   0.0000000   0.0000000
0.2423173    -0.3662310   0.2219439  -0.0000196   0.0000056   0.0000000   0.0000000   0.0000000   0.0000000
0.2456916    -0.3636482   0.2248117  -0.0000225   0.0000041   0.0000000   0.0000000   0.0000000   0.0000000
0.2491130    -0.3612306   0.2275895   0.0000009   0.0000007   0.0000000   0.0000000   0.0000000   0.0000000
0.2525820    -0.3585312   0.2304301  -0.0000063   0.0000092   0.0000000   0.0000000   0.0000000   0.0000000
0.2560993    -0.3558298   0.2331162  -0.0000022  -0.0000003   0.0000000   0.0000000   0.0000000   0.0000000
0.2596656    -0.3531483   0.2358643  -0.0000086   0.0000008   0.0000000   0.0000000   0.0000000   0.0000000
0.2632815    -0.3504790   0.2386860  -0.0000144   0.0000176   0.0000000   0.0000000   0.0000000   0.0000000
0.2669478    -0.3475606   0.2412999  -0.0000057  -0.0000033   0.0000000   0.0000000   0.0000000   0.0000000
0.2706652    -0.3447323   0.2441686   0.0000011  -0.0000017   0.0000000   0.0000000   0.0000000   0.0000000
0.2744343    -0.3419193   0.2468235  -0.0000028   0.0000160   0.0000000   0.0000000   0.0000000   0.0000000
0.2782559    -0.3389430   0.2495181  -0.0000078   0.0000121   0.0000000   0.0000000   0.0000000   0.0000000
0.2821308    -0.3360005   0.2522217  -0.0000014   0.0000125   0.0000000   0.0000000   0.0000000   0.0000000
0.2860596    -0.3330367   0.2549079   0.0000008   0.0000244   0.0000000   0.0000000   0.0000000   0.0000000
0.2900430    -0.3299863   0.2574300  -0.0000134   0.0000229   0.0000000   0.0000000   0.0000000   0.0000000
0.2940820    -0.3268433   0.2600688  -0.0000054   0.0000069   0.0000000   0.0000000   0.0000000   0.0000000
0.2981772    -0.3237006   0.2626865  -0.0000056   0.0000138   0.0000000   0.0000000   0.0000000   0.0000000
0.3023295    -0.3205051   0.2653223  -0.0000130   0.0000178   0.0000000   0.0000000   0.0000000   0.0000000
0.3065395    -0.3172969   0.2679958  -0.0000053   0.0000030   0.0000000   0.0000000   0.0000000   0.0000000
0.3108082    -0.3139649   0.2704794  -0.0000073   0.0000127   0.0000000   0.0000000   0.0000000   0.0000000
0.3151363    -0.3106090   0.2729887   0.0000010   0.0000082   0.0000000   0.0000000   0.0000000   0.0000000
0.3195248    -0.3071433   0.2754730  -0.0000084   0.0000157   0.0000000   0.0000000   0.0000000   0.0000000
0.3239743    -0.3037404   0.2780527  -0.0000164   0.0000153   0.0000000   0.0000000   0.0000000   0.0000000
0.3284857    -0.3002942   0.2804785  -0.0000036   0.0000254   0.0000000   0.0000000   0.0000000   0.0000000
0.3330600    -0.2967123   0.2829749  -0.0000151   0.0000138   0.0000000   0.0000000   0.0000000   0.0000000
0.3376980    -0.2931463   0.2854078  -0.0000101   0.0000035   0.0000000   0.0000000   0.0000000   0.0000000
0.3424006    -0.2895400   0.2877822  -0.0000061   0.0000135   0.0000000   0.0000000   0.0000000   0.0000000
0.3471687    -0.2858654   0.2901533  -0.0000087   0.0000278   0.0000000   0.0000000   0.0000000   0.0000000
0.3520031    -0.2820582   0.2924535  -0.0000042   0.0000108   0.0000000   0.0000000   0.0000000   0.0000000
0.3569049    -0.2783157   0.2948121  -0.0000186   0.0000116   0.0000000   0.0000000   0.0000000   0.0000000
0.3618750    -0.2745493   0.2971677  -0.0000205   0.0000145   0.0000000   0.0000000   0.0000000   0.0000000
0.3669142    -0.2705952   0.2993214  -0.0000126   0.0000177   0.0000000   0.0000000   0.0000000   0.0000000
0.3720237    -0.2667926   0.3015324  -0.0000101   0.0000273   0.0000000   0.0000000   0.0000000   0.0000000
0.3772042    -0.2627160   0.3037979  -0.0000154   0.0000193   0.0000000   0.0000000   0.0000000   0.0000000
0.3824570    -0.2587313   0.3058656  -0.0000192   0.0000191   0.0000000   0.0000000   0.0000000   0.0000000
0.3877828    -0.2546239   0.3080370  -0.0000248   0.0000321   0.0000000   0.0000000   0.0000000   0.0000000
0.3931829    -0.2504587   0.3100738  -0.0000280   0.0000231   0.0000000   0.0000000   0.0000000   0.0000000
0.3986581    -0.2463330   0.3121322  -0.0000138   0.0000208   0.0000000   0.0000000   0.0000000   0.0000000
0.4042096    -0.2420575   0.3140976  -0.0000175   0.0000223   0.0000000   0.0000000   0.0000000   0.0000000
0.4098384    -0.2378856   0.3160244  -0.0000162   0.0000130   0.0000000   0.0000000   0.0000000   0.0000000
0.4155455    -0.2334815   0.3179974  -0.0000135   0.0000111   0.0000000   0.0000000   0.0000000   0.0000000
0.4213322    -0.2291437   0.3198155  -0.0000035   0.0000174   0.0000000   0.0000000   0.0000000   0.0000000
0.4271994    -0.2247960   0.3215679  -0.0000173   0.0000158   0.0000000   0.0000000   0.0000000   0.0000000
0.4331483    -0.2203837   0.3232248  -0.0000051   0.0000262   0.0000000   0.0000000   0.0000000   0.0000000
0.4391801    -0.2157892   0.3251224  -0.0000189   0.0000197   0.0000000   0.0000000   0.0000000   0.0000000
0.4452959    -0.2113801   0.3266906  -0.0000190   0.0000159   0.0000000   0.0000000   0.0000000   0.0000000
0.4514968    -0.2069084   0.3283170  -0.0000256   0.0000138   0.0000000   0.0000000   0.0000000   0.0000000
0.4577841    -0.2021833   0.3296784  -0.0000140   0.0000133   0.0000000   0.0000000   0.0000000   0.0000000
0.4641589    -0.1975846   0.3313450  -0.0000089   0.0000369   0.0000000   0.0000000   0.0000000   0.0000000
0.4706225    -0.1928792   0.3327769  -0.0000104   0.0000268   0.0000000   0.0000000   0.0000000   0.0000000
0.4771761    -0.1880581   0.3340564  -0.0000165   0.0000236   0.0000000   0.0000000   0.0000000   0.0000000
0.4838210    -0.1833459   0.3354102   0.0000001   0.0000195   0.0000000   0.0000000   0.0000000   0.0000000
0.4905584    -0.1786017   0.3367115  -0.0000206   0.0000307   0.0000000   0.0000000   0.0000000   0.0000000
0.4973896    -0.1737867   0.3378648  -0.0000212   0.0000292   0.0000000   0.0000000   0.0000000   0.0000000
0.5043159    -0.1688891   0.3390358  -0.0000103   0.0000246   0.0000000   0.0000000   0.0000000   0.0000000
0.5113388    -0.1640010   0.3400676  -0.0000128   0.0000309   0.0000000   0.0000000   0.0000000   0.0000000
0.5184594    -0.1590443   0.3410753  -0.0000254   0.0000360   0.0000000   0.0000000   0.0000000   0.0000000
0.5256791    -0.1541662   0.3420508  -0.0000098   0.0000204   0.0000000   0.0000000   0.0000000   0.0000000
0.5329994    -0.1491517   0.3429579  -0.0000153   0.0000396   0.0000000   0.0000000   0.0000000   0.0000000
0.5404216    -0.1441916   0.3437038  -0.0000094   0.0000332   0.0000000   0.0000000   0.0000000   0.0000000
0.5479472    -0.1392114   0.3444341  -0.0000241   0.0000341   0.0000000   0.0000000   0.0000000   0.0000000
0.5555776    -0.1341427   0.3451096  -0.0000211   0.0000313   0.0000000   0.0000000   0.0000000   0.0000000
0.5633143    -0.1290231   0.3457471  -0.0000123   0.0000467   0.0000000   0.0000000   0.0000000   0.0000000
0.5711586    -0.1239082   0.3461981  -0.0000211   0.0000519   0.0000000   0.0000000   0.0000000   0.0000000
0.5791123    -0.1188170   0.3466878  -0.0000082   0.0000281   0.0000000   0.0000000   0.0000000   0.0000000
0.5871766    -0.1137398   0.3471100  -0.0000226   0.0000372   0.0000000   0.0000000   0.0000000   0.0000000
0.5953533    -0.1086550   0.3475248  -0.0000069   0.0000395   0.0000000   0.0000000   0.0000000   0.0000000
0.6036439    -0.1035388   0.3477419  -0.0000289   0.0000302   0.0000000   0.0000000   0.0000000   0.0000000
0.6120498    -0.0983689   0.3479471  -0.0000070   0.0000459   0.0000000   0.0000000   0.0000000   0.0000000
0.6205729    -0.0930884   0.3479818  -0.0000147   0.0000309   0.0000000   0.0000000   0.0000000   0.0000000
0.6292146    -0.0880504   0.3479502  -0.0000150   0.0000373   0.0000000   0.0000000   0.0000000   0.0000000
0.6379767    -0.0828564   0.3479668  -0.0000183   0.0000474   0.0000000   0.0000000   0.0000000   0.0000000
0.6468608    -0.0776786   0.3478309  -0.0000117   0.0000515   0.0000000   0.0000000   0.0000000   0.0000000
0.6558686    -0.0724874   0.3476194  -0.0000105   0.0000468   0.0000000   0.0000000   0.0000000   0.0000000
0.6650018    -0.0672248   0.3473730  -0.0000126   0.0000556   0.0000000   0.0000000   0.0000000   0.0000000
0.6742622    -0.0621074   0.3469796  -0.0000166   0.0000556   0.0000000   0.0000000   0.0000000   0.0000000
0.6836516    -0.0568378   0.3465232  -0.0000253   0.0000633   0.0000000   0.0000000   0.0000000   0.0000000
0.6931717    -0.0516739   0.3460143  -0.0000249   0.0000518   0.0000000   0.0000000   0.0000000   0.0000000
0.7028244    -0.0464866   0.3456004  -0.0000185   0.0000600   0.0000000   0.0000000   0.0000000   0.0000000
0.7126115    -0.0412576   0.3450038  -0.0000276   0.0000524   0.0000000   0.0000000   0.0000000   0.0000000
0.7225349    -0.0361806   0.3442236  -0.0000307   0.0000476   0.0000000   0.0000000   0.0000000   0.0000000
0.7325965    -0.0310530   0.3433523  -0.0000263   0.0000567   0.0000000   0.0000000   0.0000000   0.0000000
0.7427982    -0.0258768   0.3425046  -0.0000242   0.0000546   0.0000000   0.0000000   0.0000000   0.0000000
0.7531420    -0.0206821   0.3415470  -0.0000218   0.0000591   0.0000000   0.0000000   0.0000000   0.0000000
0.7636298    -0.0156982   0.3405212  -0.0000310   0.0000602   0.0000000   0.0000000   0.0000000   0.0000000
0.7742637    -0.0105815   0.3394459  -0.0000245   0.0000537   0.0000000   0.0000000   0.0000000   0.0000000
0.7850456    -0.0054757   0.3382470  -0.0000270   0.0000454   0.0000000   0.0000000   0.0000000   0.0000000
0.7959777    -0.0003757   0.3370099  -0.0000142   0.0000613   0.0000000   0.0000000   0.0000000   0.0000000
0.8070620     0.0046713   0.3356004  -0.0000337   0.0000650   0.0000000   0.0000000   0.0000000   0.0000000
0.8183007     0.0095794   0.3342692  -0.0000248   0.0000639   0.0000000   0.0000000   0.0000000   0.0000000
0.8296959     0.0146123   0.3327979  -0.0000271   0.0000707   0.0000000   0.0000000   0.0000000   0.0000000
0.8412497     0.0195092   0.3312089  -0.0000288   0.0000724   0.0000000   0.0000000   0.0000000   0.0000000
0.8529644     0.0243930   0.3295548  -0.0000315   0.0000621   0.0000000   0.0000000   0.0000000   0.0000000
0.8648423     0.0292324   0.3278207  -0.0000177   0.0000742   0.0000000   0.0000000   0.0000000   0.0000000
0.8768856     0.0340910   0.3262570  -0.0000161   0.0000922   0.0000000   0.0000000   0.0000000   0.0000000
0.8890966     0.0389394   0.3243255  -0.0000291   0.0000686   0.0000000   0.0000000   0.0000000   0.0000000
0.9014776     0.0437962   0.3224280  -0.0000310   0.0000754   0.0000000   0.0000000   0.0000000   0.0000000
0.9140311     0.0485964   0.3204240  -0.0000309   0.0000670   0.0000000   0.0000000   0.0000000   0.0000000
0.9267593     0.0531447   0.3184281  -0.0000235   0.0000791   0.0000000   0.0000000   0.0000000   0.0000000
0.9396648     0.0577387   0.3162837  -0.0000220   0.0000855   0.0000000   0.0000000   0.0000000   0.0000000
0.9527500     0.0623901   0.3141678  -0.0000278   0.0000925   0.0000000   0.0000000   0.0000000   0.0000000
0.9660175     0.0669218   0.3119010  -0.0000185   0.0000767   0.0000000   0.0000000   0.0000000   0.0000000
0.9794697     0.0714998   0.3095402  -0.0000258   0.0000943   0.0000000   0.0000000   0.0000000   0.0000000
0.9931092     0.0760087   0.3071664  -0.0000327   0.0000919   0.0000000   0.0000000   0.0000000   0.0000000
1.0069386     0.0803954   0.3049098  -0.0000086   0.0000920   0.0000000   0.0000000   0.0000000   0.0000000
1.0209607     0.0846933   0.3022165  -0.0000323   0.0000890   0.0000000   0.0000000   0.0000000   0.0000000
1.0351780     0.0890248   0.2998205  -0.0000193   0.0000813   0.0000000   0.0000000   0.0000000   0.0000000
1.0495932     0.0933256   0.2972344  -0.0000191   0.0000903   0.0000000   0.0000000   0.0000000   0.0000000
1.0642092     0.0974628   0.2944709  -0.0000115   0.0001045   0.0000000   0.0000000   0.0000000   0.0000000
1.0790288     0.1016240   0.2918009  -0.0000071   0.0001008   0.0000000   0.0000000   0.0000000   0.0000000
1.0940547     0.1057848   0.2889887  -0.0000262   0.0000956   0.0000000   0.0000000   0.0000000   0.0000000
1.1092899     0.1098140   0.2862384  -0.0000067   0.0001072   0.0000000   0.0000000   0.0000000   0.0000000
1.1247372     0.1137714   0.2833353  -0.0000230   0.0001083   0.0000000   0.0000000   0.0000000   0.0000000
1.1403996     0.1176938   0.2804785  -0.0000222   0.0000917   0.0000000   0.0000000   0.0000000   0.0000000
1.1562801     0.1214335   0.2774699  -0.0000234   0.0001190   0.0000000   0.0000000   0.0000000   0.0000000
1.1723818     0.1253209   0.2744818  -0.0000145   0.0001147   0.0000000   0.0000000   0.0000000   0.0000000
1.1887077     0.1290186   0.2714257  -0.0000265   0.0001246   0.0000000   0.0000000   0.0000000   0.0000000
1.2052609     0.1326898   0.2683262  -0.0000156   0.0001246   0.0000000   0.0000000   0.0000000   0.0000000
1.2220447     0.1362484   0.2651464  -0.0000210   0.0001239   0.0000000   0.0000000   0.0000000   0.0000000
1.2390622     0.1398894   0.2620073  -0.0000319   0.0001178   0.0000000   0.0000000   0.0000000   0.0000000
1.2563166     0.1432952   0.2586871  -0.0000137   0.0001226   0.0000000   0.0000000   0.0000000   0.0000000
1.2738113     0.1466339   0.2554818  -0.0000225   0.0001243   0.0000000   0.0000000   0.0000000   0.0000000
1.2915497     0.1499635   0.2522262  -0.0000154   0.0001287   0.0000000   0.0000000   0.0000000   0.0000000
1.3095350     0.1532616   0.2488569  -0.0000136   0.0001344   0.0000000   0.0000000   0.0000000   0.0000000
1.3277708     0.1564256   0.2454978   0.0000023   0.0001334   0.0000000   0.0000000   0.0000000   0.0000000
1.3462606     0.1595433   0.2420423  -0.0000072   0.0001380   0.0000000   0.0000000   0.0000000   0.0000000
1.3650078     0.1626377   0.2386595  -0.0000036   0.0001345   0.0000000   0.0000000   0.0000000   0.0000000
1.3840161     0.1655825   0.2352228  -0.0000043   0.0001368   0.0000000   0.0000000   0.0000000   0.0000000
1.4032891     0.1685770   0.2317598  -0.0000102   0.0001426   0.0000000   0.0000000   0.0000000   0.0000000
1.4228305     0.1713504   0.2282765  -0.0000026   0.0001344   0.0000000   0.0000000   0.0000000   0.0000000
1.4426440     0.1740565   0.2247388   0.0000050   0.0001495   0.0000000   0.0000000   0.0000000   0.0000000
1.4627334     0.1768652   0.2211449   0.0000048   0.0001467   0.0000000   0.0000000   0.0000000   0.0000000
1.4831025     0.1793863   0.2174779  -0.0000002   0.0001547   0.0000000   0.0000000   0.0000000   0.0000000
1.5037553     0.1819044   0.2139502   0.0000065   0.0001503   0.0000000   0.0000000   0.0000000   0.0000000
1.5246957     0.1843678   0.2103050   0.0000104   0.0001436   0.0000000   0.0000000   0.0000000   0.0000000
1.5459277     0.1867630   0.2066737   0.0000172   0.0001519   0.0000000   0.0000000   0.0000000   0.0000000
1.5674554     0.1890993   0.2031523  -0.0000129   0.0001520   0.0000000   0.0000000   0.0000000   0.0000000
1.5892829     0.1913168   0.1994097   0.0000087   0.0001619   0.0000000   0.0000000   0.0000000   0.0000000
1.6114143     0.1934151   0.1958230   0.0000136   0.0001548   0.0000000   0.0000000   0.0000000   0.0000000
1.6338539     0.1956293   0.1921819  -0.0000056   0.0001664   0.0000000   0.0000000   0.0000000   0.0000000
1.6566060     0.1975591   0.1885396   0.0000128   0.0001682   0.0000000   0.0000000   0.0000000   0.0000000
1.6796749     0.1995277   0.1847535   0.0000101   0.0001560   0.0000000   0.0000000   0.0000000   0.0000000
1.7030650     0.2014210   0.1811770   0.0000199   0.0001800   0.0000000   0.0000000   0.0000000   0.0000000
1.7267809     0.2031668   0.1774875   0.0000149   0.0001800   0.0000000   0.0000000   0.0000000   0.0000000
1.7508270     0.2047857   0.1738458   0.0000191   0.0002031   0.0000000   0.0000000   0.0000000   0.0000000
1.7752080     0.2066188   0.1702631   0.0000075   0.0001710   0.0000000   0.0000000   0.0000000   0.0000000
1.7999285     0.2081507   0.1665721   0.0000062   0.0001755   0.0000000   0.0000000   0.0000000   0.0000000
1.8249932     0.2096942   0.1629256   0.0000021   0.0001890   0.0000000   0.0000000   0.0000000   0.0000000
1.8504070     0.2111857   0.1592563   0.0000286   0.0001774   0.0000000   0.0000000   0.0000000   0.0000000
1.8761747     0.2127293   0.1557259   0.0000230   0.0001840   0.0000000   0.0000000   0.0000000   0.0000000
1.9023012     0.2140607   0.1520429   0.0000270   0.0001934   0.0000000   0.0000000   0.0000000   0.0000000
1.9287915     0.2152913   0.1485295   0.0000220   0.0002019   0.0000000   0.0000000   0.0000000   0.0000000
1.9556507     0.2166092   0.1448213   0.0000196   0.0001815   0.0000000   0.0000000   0.0000000   0.0000000
1.9828839     0.2177543   0.1412304   0.0000298   0.0001894   0.0000000   0.0000000   0.0000000   0.0000000
2.0104964     0.2188998   0.1376213   0.0000345   0.0001976   0.0000000   0.0000000   0.0000000   0.0000000
2.0384934     0.2199243   0.1340199   0.0000309   0.0002038   0.0000000   0.0000000   0.0000000   0.0000000
2.0668802     0.2209886   0.1304272   0.0000328   0.0002011   0.0000000   0.0000000   0.0000000   0.0000000
2.0956624     0.2218560   0.1268712   0.0000489   0.0002118   0.0000000   0.0000000   0.0000000   0.0000000
2.1248454     0.2227363   0.1232365   0.0000348   0.0002209   0.0000000   0.0000000   0.0000000   0.0000000
2.1544347     0.2235865   0.1197174   0.0000272   0.0002106   0.0000000   0.0000000   0.0000000   0.0000000
2.1844361     0.2243415   0.1160730   0.0000366   0.0002179   0.0000000   0.0000000   0.0000000   0.0000000
2.2148552     0.2250204   0.1125645   0.0000376   0.0002127   0.0000000   0.0000000   0.0000000   0.0000000
2.2456980     0.2256507   0.1089534   0.0000454   0.0002132   0.0000000   0.0000000   0.0000000   0.0000000
2.2769703     0.2262055   0.1053723   0.0000560   0.0002213   0.0000000   0.0000000   0.0000000   0.0000000
2.3086780     0.2266506   0.1018240   0.0000635   0.0002229   0.0000000   0.0000000   0.0000000   0.0000000
2.3408273     0.2270491   0.0983981   0.0000662   0.0002203   0.0000000   0.0000000   0.0000000   0.0000000
2.3734243     0.2273109   0.0949055   0.0000509   0.0002319   0.0000000   0.0000000   0.0000000   0.0000000
2.4064752     0.2276198   0.0913604   0.0000636   0.0002244   0.0000000   0.0000000   0.0000000   0.0000000
2.4399863     0.2278287   0.0879168   0.0000840   0.0002288   0.0000000   0.0000000   0.0000000   0.0000000
2.4739641     0.2279533   0.0845482   0.0000731   0.0002347   0.0000000   0.0000000   0.0000000   0.0000000
2.5084151     0.2280493   0.0811779   0.0000620   0.0002264   0.0000000   0.0000000   0.0000000   0.0000000
2.5433458     0.2281224   0.0778119   0.0000872   0.0002471   0.0000000   0.0000000   0.0000000   0.0000000
2.5787629     0.2280846   0.0744886   0.0000717   0.0002360   0.0000000   0.0000000   0.0000000   0.0000000
2.6146732     0.2279906   0.0711501   0.0000660   0.0002435   0.0000000   0.0000000   0.0000000   0.0000000
2.6510836     0.2278011   0.0678899   0.0000878   0.0002373   0.0000000   0.0000000   0.0000000   0.0000000
2.6880010     0.2277155   0.0646929   0.0000837   0.0002409   0.0000000   0.0000000   0.0000000   0.0000000
2.7254325     0.2273366   0.0614522   0.0000863   0.0002466   0.0000000   0.0000000   0.0000000   0.0000000
2.7633853     0.2270856   0.0582888   0.0001002   0.0002474   0.0000000   0.0000000   0.0000000   0.0000000
2.8018666     0.2267469   0.0551297   0.0001061   0.0002572   0.0000000   0.0000000   0.0000000   0.0000000
2.8408837     0.2262959   0.0520717   0.0000898   0.0002488   0.0000000   0.0000000   0.0000000   0.0000000
2.8804442     0.2256840   0.0489608   0.0001058   0.0002488   0.0000000   0.0000000   0.0000000   0.0000000
2.9205555     0.2253151   0.0460032   0.0001059   0.0002596   0.0000000   0.0000000   0.0000000   0.0000000
2.9612254     0.2246726   0.0428656   0.0001061   0.0002581   0.0000000   0.0000000   0.0000000   0.0000000
3.0024617     0.2240450   0.0399853   0.0001110   0.0002594   0.0000000   0.0000000   0.0000000   0.0000000
3.0442722     0.2233852   0.0370754   0.0001209   0.0002556   0.0000000   0.0000000   0.0000000   0.0000000
3.0866649     0.2226808   0.0343105   0.0001156   0.0002534   0.0000000   0.0000000   0.0000000   0.0000000
3.1296480     0.2218762   0.0313646   0.0001261   0.0002592   0.0000000   0.0000000   0.0000000   0.0000000
3.1732296     0.2209617   0.0286041   0.0001157   0.0002613   0.0000000   0.0000000   0.0000000   0.0000000
3.2174182     0.2200985   0.0258379   0.0001370   0.0002699   0.0000000   0.0000000   0.0000000   0.0000000
3.2622220     0.2192641   0.0231584   0.0001370   0.0002546   0.0000000   0.0000000   0.0000000   0.0000000
3.3076498     0.2182304   0.0204001   0.0001443   0.0002619   0.0000000   0.0000000   0.0000000   0.0000000
3.3537102     0.2173283   0.0178497   0.0001504   0.0002765   0.0000000   0.0000000   0.0000000   0.0000000
3.4004119     0.2162921   0.0153713   0.0001346   0.0002781   0.0000000   0.0000000   0.0000000   0.0000000
3.4477641     0.2151429   0.0127566   0.0001410   0.0002665   0.0000000   0.0000000   0.0000000   0.0000000
3.4957756     0.2141183   0.0102641   0.0001582   0.0002759   0.0000000   0.0000000   0.0000000   0.0000000
3.5444557     0.2129934   0.0079812   0.0001591   0.0002827   0.0000000   0.0000000   0.0000000   0.0000000
3.5938137     0.2118265   0.0055381   0.0001687   0.0002843   0.0000000   0.0000000   0.0000000   0.0000000
3.6438590     0.2106122   0.0031652   0.0001779   0.0002703   0.0000000   0.0000000   0.0000000   0.0000000
3.6946012     0.2094572   0.0009324   0.0001704   0.0002778   0.0000000   0.0000000   0.0000000   0.0000000
3.7460500     0.2081359  -0.0014106   0.0001717   0.0002917   0.0000000   0.0000000   0.0000000   0.0000000
3.7982153     0.2068802  -0.0036057   0.0001767   0.0002753   0.0000000   0.0000000   0.0000000   0.0000000
3.8511070     0.2055508  -0.0056256   0.0001748   0.0002802   0.0000000   0.0000000   0.0000000   0.0000000
3.9047352     0.2040878  -0.0078706   0.0001921   0.0002742   0.0000000   0.0000000   0.0000000   0.0000000
3.9591103     0.2028424  -0.0098413   0.0001911   0.0002693   0.0000000   0.0000000   0.0000000   0.0000000
4.0142425     0.2013794  -0.0118308   0.0001912   0.0002872   0.0000000   0.0000000   0.0000000   0.0000000
4.0701425     0.1999672  -0.0138101   0.0002079   0.0002758   0.0000000   0.0000000   0.0000000   0.0000000
4.1268208     0.1985805  -0.0156802   0.0001932   0.0002855   0.0000000   0.0000000   0.0000000   0.0000000
4.1842885     0.1970969  -0.0174751   0.0001920   0.0002894   0.0000000   0.0000000   0.0000000   0.0000000
4.2425564     0.1955979  -0.0193205   0.0002122   0.0002813   0.0000000   0.0000000   0.0000000   0.0000000
4.3016358     0.1941161  -0.0210513   0.0002268   0.0002792   0.0000000   0.0000000   0.0000000   0.0000000
4.3615378     0.1925961  -0.0228404   0.0002308   0.0002693   0.0000000   0.0000000   0.0000000   0.0000000
4.4222740     0.1910993  -0.0243775   0.0002163   0.0002797   0.0000000   0.0000000   0.0000000   0.0000000
4.4838559     0.1895385  -0.0260596   0.0002348   0.0002913   0.0000000   0.0000000   0.0000000   0.0000000
4.5462955     0.1879718  -0.0275632   0.0002338   0.0002793   0.0000000   0.0000000   0.0000000   0.0000000
4.6096045     0.1864357  -0.0291053   0.0002339   0.0002683   0.0000000   0.0000000   0.0000000   0.0000000
4.6737951     0.1848313  -0.0305451   0.0002375   0.0002861   0.0000000   0.0000000   0.0000000   0.0000000
4.7388796     0.1832189  -0.0320149   0.0002474   0.0002839   0.0000000   0.0000000   0.0000000   0.0000000
4.8048704     0.1816049  -0.0333713   0.0002495   0.0002819   0.0000000   0.0000000   0.0000000   0.0000000
4.8717802     0.1800150  -0.0346129   0.0002472   0.0002791   0.0000000   0.0000000   0.0000000   0.0000000
4.9396217     0.1784316  -0.0358816   0.0002668   0.0002826   0.0000000   0.0000000   0.0000000   0.0000000
5.0084080     0.1768624  -0.0370842   0.0002461   0.0002889   0.0000000   0.0000000   0.0000000   0.0000000
5.0781521     0.1751617  -0.0382532   0.0002633   0.0002870   0.0000000   0.0000000   0.0000000   0.0000000
5.1488675     0.1734641  -0.0393572   0.0002703   0.0002881   0.0000000   0.0000000   0.0000000   0.0000000
5.2205675     0.1719156  -0.0404822   0.0002643   0.0002743   0.0000000   0.0000000   0.0000000   0.0000000
5.2932661     0.1702453  -0.0415067   0.0002697   0.0002831   0.0000000   0.0000000   0.0000000   0.0000000
5.3669769     0.1686693  -0.0425063   0.0002824   0.0002785   0.0000000   0.0000000   0.0000000   0.0000000
5.4417143     0.1670731  -0.0433864   0.0002749   0.0002809   0.0000000   0.0000000   0.0000000   0.0000000
5.5174924     0.1654614  -0.0443651   0.0002842   0.0002810   0.0000000   0.0000000   0.0000000   0.0000000
5.5943257     0.1639099  -0.0452541   0.0002891   0.0002745   0.0000000   0.0000000   0.0000000   0.0000000
5.6722290     0.1622112  -0.0460325   0.0002865   0.0002815   0.0000000   0.0000000   0.0000000   0.0000000
5.7512171     0.1605031  -0.0468176   0.0003010   0.0002816   0.0000000   0.0000000   0.0000000   0.0000000
5.8313051     0.1589233  -0.0475761   0.0002981   0.0002822   0.0000000   0.0000000   0.0000000   0.0000000
5.9125084     0.1573881  -0.0481806   0.0003073   0.0002704   0.0000000   0.0000000   0.0000000   0.0000000
5.9948425     0.1557925  -0.0489366   0.0003154   0.0002687   0.0000000   0.0000000   0.0000000   0.0000000
6.0783231     0.1541661  -0.0494698   0.0003048   0.0002648   0.0000000   0.0000000   0.0000000   0.0000000
6.1629663     0.1527056  -0.0500979   0.0003248   0.0002770   0.0000000   0.0000000   0.0000000   0.0000000
6.2487881     0.1510618  -0.0506420   0.0003303   0.0002665   0.0000000   0.0000000   0.0000000   0.0000000
6.3358050     0.1495124  -0.0511090   0.0003381   0.0002772   0.0000000   0.0000000   0.0000000   0.0000000
6.4240337     0.1480068  -0.0516054   0.0003231   0.0002613   0.0000000   0.0000000   0.0000000   0.0000000
6.5134909     0.1463507  -0.0520325   0.0003314   0.0002562   0.0000000   0.0000000   0.0000000   0.0000000
6.6041940     0.1448433  -0.0523076   0.0003448   0.0002602   0.0000000   0.0000000   0.0000000   0.0000000
6.6961601     0.1433944  -0.0528195   0.0003287   0.0002630   0.0000000   0.0000000   0.0000000   0.0000000
6.7894068     0.1419462  -0.0530654   0.0003325   0.0002703   0.0000000   0.0000000   0.0000000   0.0000000
6.8839521     0.1403795  -0.0533873   0.0003402   0.0002595   0.0000000   0.0000000   0.0000000   0.0000000
6.9798139     0.1389987  -0.0536458   0.0003440   0.0002492   0.0000000   0.0000000   0.0000000   0.0000000
7.0770107     0.1374023  -0.0538726   0.0003424   0.0002507   0.0000000   0.0000000   0.0000000   0.0000000
7.1755609     0.1360952  -0.0541403   0.0003538   0.0002536   0.0000000   0.0000000   0.0000000   0.0000000
7.2754835     0.1346831  -0.0542098   0.0003605   0.0002458   0.0000000   0.0000000   0.0000000   0.0000000
7.3767976     0.1332922  -0.0544119   0.0003609   0.0002346   0.0000000   0.0000000   0.0000000   0.0000000
7.4795225     0.1319104  -0.0545056   0.0003615   0.0002547   0.0000000   0.0000000   0.0000000   0.0000000
7.5836779     0.1305212  -0.0545725   0.0003548   0.0002506   0.0000000   0.0000000   0.0000000   0.0000000
7.6892837     0.1291620  -0.0546742   0.0003701   0.0002311   0.0000000   0.0000000   0.0000000   0.0000000
7.7963601     0.1277284  -0.0547017   0.0003804   0.0002437   0.0000000   0.0000000   0.0000000   0.0000000
7.9049276     0.1265056  -0.0546193   0.0003663   0.0002313   0.0000000   0.0000000   0.0000000   0.0000000
8.0150070     0.1252498  -0.0547328   0.0003812   0.0002414   0.0000000   0.0000000   0.0000000   0.0000000
8.1266192     0.1239566  -0.0546281   0.0003613   0.0002387   0.0000000   0.0000000   0.0000000   0.0000000
8.2397857     0.1227218  -0.0545305   0.0003854   0.0002381   0.0000000   0.0000000   0.0000000   0.0000000
8.3545281     0.1215131  -0.0544224   0.0003941   0.0002311   0.0000000   0.0000000   0.0000000   0.0000000
8.4708683     0.1202075  -0.0543970   0.0003790   0.0002216   0.0000000   0.0000000   0.0000000   0.0000000
8.5888286     0.1189570  -0.0542514   0.0004031   0.0002443   0.0000000   0.0000000   0.0000000   0.0000000
8.7084315     0.1178371  -0.0541149   0.0003923   0.0002273   0.0000000   0.0000000   0.0000000   0.0000000
8.8297000     0.1167225  -0.0539903   0.0004043   0.0002343   0.0000000   0.0000000   0.0000000   0.0000000
8.9526571     0.1155744  -0.0538091   0.0003989   0.0002220   0.0000000   0.0000000   0.0000000   0.0000000
9.0773265     0.1145335  -0.0535703   0.0004072   0.0002206   0.0000000   0.0000000   0.0000000   0.0000000
9.2037320     0.1133244  -0.0533060   0.0004038   0.0002186   0.0000000   0.0000000   0.0000000   0.0000000
9.3318977     0.1123687  -0.0532077   0.0004054   0.0002203   0.0000000   0.0000000   0.0000000   0.0000000
9.4618482     0.1111319  -0.0529168   0.0004003   0.0002167   0.0000000   0.0000000   0.0000000   0.0000000
9.5936083     0.1101153  -0.0526306   0.0004082   0.0002118   0.0000000   0.0000000   0.0000000   0.0000000
9.7272032     0.1090680  -0.0524018   0.0004161   0.0002116   0.0000000   0.0000000   0.0000000   0.0000000
9.8626585     0.1081579  -0.0521105   0.0004044   0.0002146   0.0000000   0.0000000   0.0000000   0.0000000
10.0000000    0.1070365  -0.0517837   0.0004204   0.0002192   0.0000000   0.0000000   0.0000000   0.0000000
10.1392541    0.1061638  -0.0514462   0.0004179   0.0002077   0.0000000   0.0000000   0.0000000   0.0000000
10.2804473    0.1051603  -0.0511274   0.0004136   0.0002071   0.0000000   0.0000000   0.0000000   0.0000000
10.4236067    0.1043006  -0.0508808   0.0004225   0.0001996   0.0000000   0.0000000   0.0000000   0.0000000
10.5687597    0.1032774  -0.0505388   0.0004192   0.0002173   0.0000000   0.0000000   0.0000000   0.0000000
10.7159340    0.1024300  -0.0501270   0.0004360   0.0001922   0.0000000   0.0000000   0.0000000   0.0000000
10.8651577    0.1015705  -0.0497964   0.0004338   0.0002032   0.0000000   0.0000000   0.0000000   0.0000000
11.0164595    0.1007429  -0.0494624   0.0004375   0.0001845   0.0000000   0.0000000   0.0000000   0.0000000
11.1698682    0.0999333  -0.0489898   0.0004441   0.0001949   0.0000000   0.0000000   0.0000000   0.0000000
11.3254132    0.0990718  -0.0487045   0.0004410   0.0001798   0.0000000   0.0000000   0.0000000   0.0000000
11.4831241    0.0982808  -0.0483832   0.0004418   0.0001923   0.0000000   0.0000000   0.0000000   0.0000000
11.6430313    0.0975722  -0.0478750   0.0004492   0.0001867   0.0000000   0.0000000   0.0000000   0.0000000
11.8051653    0.0968614  -0.0474425   0.0004417   0.0001895   0.0000000   0.0000000   0.0000000   0.0000000
11.9695570    0.0960432  -0.0470003   0.0004481   0.0001778   0.0000000   0.0000000   0.0000000   0.0000000
12.1362380    0.0953353  -0.0466471   0.0004466   0.0001662   0.0000000   0.0000000   0.0000000   0.0000000
12.3052400    0.0946114  -0.0461844   0.0004539   0.0001906   0.0000000   0.0000000   0.0000000   0.0000000
12.4765955    0.0939536  -0.0458179   0.0004447   0.0001762   0.0000000   0.0000000   0.0000000   0.0000000
12.6503372    0.0932124  -0.0454163   0.0004518   0.0001699   0.0000000   0.0000000   0.0000000   0.0000000
12.8264983    0.0925928  -0.0448622   0.0004554   0.0001773   0.0000000   0.0000000   0.0000000   0.0000000
13.0051125    0.0920247  -0.0444506   0.0004425   0.0001742   0.0000000   0.0000000   0.0000000   0.0000000
13.1862140    0.0913694  -0.0439803   0.0004657   0.0001709   0.0000000   0.0000000   0.0000000   0.0000000
13.3698374    0.0907940  -0.0436248   0.0004691   0.0001553   0.0000000   0.0000000   0.0000000   0.0000000
13.5560179    0.0901809  -0.0431214   0.0004616   0.0001585   0.0000000   0.0000000   0.0000000   0.0000000
13.7447909    0.0896877  -0.0426795   0.0004684   0.0001642   0.0000000   0.0000000   0.0000000   0.0000000
13.9361927    0.0891031  -0.0422096   0.0004504   0.0001498   0.0000000   0.0000000   0.0000000   0.0000000
14.1302599    0.0885797  -0.0417622   0.0004650   0.0001551   0.0000000   0.0000000   0.0000000   0.0000000
14.3270295    0.0880874  -0.0413660   0.0004644   0.0001461   0.0000000   0.0000000   0.0000000   0.0000000
14.5265393    0.0875373  -0.0408466   0.0004718   0.0001531   0.0000000   0.0000000   0.0000000   0.0000000
14.7288272    0.0870988  -0.0404865   0.0004681   0.0001497   0.0000000   0.0000000   0.0000000   0.0000000
14.9339322    0.0865193  -0.0399566   0.0004561   0.0001438   0.0000000   0.0000000   0.0000000   0.0000000
15.1418933    0.0862190  -0.0394540   0.0004738   0.0001405   0.0000000   0.0000000   0.0000000   0.0000000
15.3527503    0.0857146  -0.0390656   0.0004628   0.0001515   0.0000000   0.0000000   0.0000000   0.0000000
15.5665436    0.0852831  -0.0386023   0.0004672   0.0001500   0.0000000   0.0000000   0.0000000   0.0000000
15.7833141    0.0848909  -0.0382156   0.0004770   0.0001436   0.0000000   0.0000000   0.0000000   0.0000000
16.0031031    0.0844597  -0.0376513   0.0004822   0.0001440   0.0000000   0.0000000   0.0000000   0.0000000
16.2259529    0.0840429  -0.0373834   0.0004770   0.0001189   0.0000000   0.0000000   0.0000000   0.0000000
16.4519059    0.0836351  -0.0367822   0.0004776   0.0001340   0.0000000   0.0000000   0.0000000   0.0000000
16.6810054    0.0833657  -0.0364344   0.0004721   0.0001413   0.0000000   0.0000000   0.0000000   0.0000000
16.9132952    0.0829051  -0.0359558   0.0004867   0.0001370   0.0000000   0.0000000   0.0000000   0.0000000
17.1488197    0.0826868  -0.0354943   0.0004788   0.0001398   0.0000000   0.0000000   0.0000000   0.0000000
17.3876240    0.0822514  -0.0351053   0.0004795   0.0001373   0.0000000   0.0000000   0.0000000   0.0000000
17.6297538    0.0819882  -0.0346930   0.0004753   0.0001287   0.0000000   0.0000000   0.0000000   0.0000000
17.8752553    0.0817694  -0.0342402   0.0004778   0.0001247   0.0000000   0.0000000   0.0000000   0.0000000
18.1241755    0.0814910  -0.0337915   0.0004825   0.0001266   0.0000000   0.0000000   0.0000000   0.0000000
18.3765620    0.0812372  -0.0334388   0.0004944   0.0001228   0.0000000   0.0000000   0.0000000   0.0000000
18.6324631    0.0808812  -0.0329745   0.0004844   0.0001129   0.0000000   0.0000000   0.0000000   0.0000000
18.8919278    0.0805472  -0.0326211   0.0005037   0.0001257   0.0000000   0.0000000   0.0000000   0.0000000
19.1550056    0.0804542  -0.0321226   0.0004999   0.0001259   0.0000000   0.0000000   0.0000000   0.0000000
19.4217468    0.0801520  -0.0317592   0.0005123   0.0001081   0.0000000   0.0000000   0.0000000   0.0000000
19.6922026    0.0800538  -0.0313123   0.0004891   0.0001053   0.0000000   0.0000000   0.0000000   0.0000000
19.9664245    0.0797642  -0.0309068   0.0004981   0.0001083   0.0000000   0.0000000   0.0000000   0.0000000
20.2444651    0.0796290  -0.0305645   0.0005011   0.0001024   0.0000000   0.0000000   0.0000000   0.0000000
20.5263775    0.0795321  -0.0301511   0.0004996   0.0001019   0.0000000   0.0000000   0.0000000   0.0000000
20.8122157    0.0792305  -0.0297598   0.0004961   0.0001020   0.0000000   0.0000000   0.0000000   0.0000000
21.1020343    0.0791339  -0.0294564   0.0004870   0.0001050   0.0000000   0.0000000   0.0000000   0.0000000
21.3958887    0.0789839  -0.0290579   0.0004969   0.0001155   0.0000000   0.0000000   0.0000000   0.0000000
21.6938352    0.0789205  -0.0286573   0.0004982   0.0000992   0.0000000   0.0000000   0.0000000   0.0000000
21.9959307    0.0786636  -0.0282839   0.0004883   0.0001016   0.0000000   0.0000000   0.0000000   0.0000000
22.3022330    0.0785385  -0.0280331   0.0004992   0.0001073   0.0000000   0.0000000   0.0000000   0.0000000
22.6128007    0.0785153  -0.0276791   0.0005148   0.0000842   0.0000000   0.0000000   0.0000000   0.0000000
22.9276931    0.0783791  -0.0272681   0.0004985   0.0000929   0.0000000   0.0000000   0.0000000   0.0000000
23.2469706    0.0783030  -0.0269636   0.0004890   0.0000962   0.0000000   0.0000000   0.0000000   0.0000000
23.5706941    0.0781785  -0.0267429   0.0004967   0.0000917   0.0000000   0.0000000   0.0000000   0.0000000
23.8989257    0.0780926  -0.0263226   0.0005132   0.0000772   0.0000000   0.0000000   0.0000000   0.0000000
24.2317279    0.0780954  -0.0260067   0.0005137   0.0000758   0.0000000   0.0000000   0.0000000   0.0000000
24.5691646    0.0780648  -0.0256981   0.0005077   0.0000901   0.0000000   0.0000000   0.0000000   0.0000000
24.9113003    0.0778916  -0.0254202   0.0005058   0.0000821   0.0000000   0.0000000   0.0000000   0.0000000
25.2582003    0.0779594  -0.0250981   0.0005194   0.0000696   0.0000000   0.0000000   0.0000000   0.0000000
25.6099310    0.0779132  -0.0248532   0.0005031   0.0000822   0.0000000   0.0000000   0.0000000   0.0000000
25.9665597    0.0779511  -0.0245943   0.0005032   0.0000725   0.0000000   0.0000000   0.0000000   0.0000000
26.3281547    0.0778771  -0.0243308   0.0004971   0.0000824   0.0000000   0.0000000   0.0000000   0.0000000
26.6947849    0.0778581  -0.0240105   0.0005101   0.0000780   0.0000000   0.0000000   0.0000000   0.0000000
27.0665207    0.0778141  -0.0237614   0.0005111   0.0000891   0.0000000   0.0000000   0.0000000   0.0000000
27.4434330    0.0778848  -0.0235185   0.0005133   0.0000709   0.0000000   0.0000000   0.0000000   0.0000000
27.8255940    0.0778526  -0.0231940   0.0005072   0.0000684   0.0000000   0.0000000   0.0000000   0.0000000
28.2130768    0.0778355  -0.0230441   0.0005055   0.0000736   0.0000000   0.0000000   0.0000000   0.0000000
28.6059554    0.0780016  -0.0228765   0.0005131   0.0000645   0.0000000   0.0000000   0.0000000   0.0000000
29.0043049    0.0780178  -0.0226408   0.0005123   0.0000740   0.0000000   0.0000000   0.0000000   0.0000000
29.4082017    0.0780302  -0.0223179   0.0005192   0.0000608   0.0000000   0.0000000   0.0000000   0.0000000
29.8177229    0.0779889  -0.0222778   0.0005124   0.0000661   0.0000000   0.0000000   0.0000000   0.0000000
30.2329468    0.0781150  -0.0221014   0.0005271   0.0000661   0.0000000   0.0000000   0.0000000   0.0000000
30.6539530    0.0782272  -0.0218411   0.0005107   0.0000535   0.0000000   0.0000000   0.0000000   0.0000000
31.0808217    0.0782973  -0.0216583   0.0005050   0.0000528   0.0000000   0.0000000   0.0000000   0.0000000
31.5136348    0.0783344  -0.0215058   0.0005194   0.0000671   0.0000000   0.0000000   0.0000000   0.0000000
31.9524751    0.0783985  -0.0213822   0.0005026   0.0000455   0.0000000   0.0000000   0.0000000   0.0000000
32.3974263    0.0784690  -0.0212351   0.0005182   0.0000471   0.0000000   0.0000000   0.0000000   0.0000000
32.8485737    0.0785118  -0.0210992   0.0005262   0.0000499   0.0000000   0.0000000   0.0000000   0.0000000
33.3060034    0.0786140  -0.0209779   0.0005217   0.0000377   0.0000000   0.0000000   0.0000000   0.0000000
33.7698031    0.0787424  -0.0208701   0.0005159   0.0000473   0.0000000   0.0000000   0.0000000   0.0000000
34.2400614    0.0788053  -0.0207305   0.0005286   0.0000473   0.0000000   0.0000000   0.0000000   0.0000000
34.7168682    0.0790147  -0.0206261   0.0005247   0.0000411   0.0000000   0.0000000   0.0000000   0.0000000
35.2003147    0.0790953  -0.0204358   0.0005153   0.0000446   0.0000000   0.0000000   0.0000000   0.0000000
35.6904935    0.0792644  -0.0204177   0.0005142   0.0000497   0.0000000   0.0000000   0.0000000   0.0000000
36.1874981    0.0793211  -0.0203839   0.0005280   0.0000461   0.0000000   0.0000000   0.0000000   0.0000000
36.6914238    0.0794159  -0.0203516   0.0005199   0.0000342   0.0000000   0.0000000   0.0000000   0.0000000
37.2023668    0.0794888  -0.0202653   0.0005198   0.0000275   0.0000000   0.0000000   0.0000000   0.0000000
37.7204249    0.0797441  -0.0201688   0.0005195   0.0000282   0.0000000   0.0000000   0.0000000   0.0000000
38.2456972    0.0798794  -0.0202079   0.0005204   0.0000425   0.0000000   0.0000000   0.0000000   0.0000000
38.7782841    0.0799997  -0.0200826   0.0005243   0.0000314   0.0000000   0.0000000   0.0000000   0.0000000
39.3182876    0.0801133  -0.0201337   0.0005203   0.0000338   0.0000000   0.0000000   0.0000000   0.0000000
39.8658107    0.0802973  -0.0201064   0.0005191   0.0000262   0.0000000   0.0000000   0.0000000   0.0000000
40.4209584    0.0804456  -0.0201922   0.0005290   0.0000176   0.0000000   0.0000000   0.0000000   0.0000000
40.9838367    0.0805234  -0.0201439   0.0005137   0.0000193   0.0000000   0.0000000   0.0000000   0.0000000
41.5545533    0.0806905  -0.0202447   0.0005297   0.0000188   0.0000000   0.0000000   0.0000000   0.0000000
42.1332174    0.0809067  -0.0202208   0.0005277   0.0000113   0.0000000   0.0000000   0.0000000   0.0000000
42.7199397    0.0809731  -0.0202551   0.0005367   0.0000093   0.0000000   0.0000000   0.0000000   0.0000000
43.3148322    0.0811858  -0.0202861   0.0005359   0.0000130   0.0000000   0.0000000   0.0000000   0.0000000
43.9180089    0.0813172  -0.0203630   0.0005235   0.0000113   0.0000000   0.0000000   0.0000000   0.0000000
44.5295851    0.0815525  -0.0204103   0.0005347   0.0000124   0.0000000   0.0000000   0.0000000   0.0000000
45.1496777    0.0817454  -0.0205279   0.0005356   0.0000002   0.0000000   0.0000000   0.0000000   0.0000000
45.7784054    0.0817631  -0.0206426   0.0005176   0.0000104   0.0000000   0.0000000   0.0000000   0.0000000
46.4158883    0.0820250  -0.0207657   0.0005222   0.0000150   0.0000000   0.0000000   0.0000000   0.0000000
47.0622485    0.0822163  -0.0208904   0.0005230   0.0000035   0.0000000   0.0000000   0.0000000   0.0000000
47.7176095    0.0823925  -0.0209369   0.0005391   0.0000056   0.0000000   0.0000000   0.0000000   0.0000000
48.3820966    0.0825893  -0.0210746   0.0005378   0.0000094   0.0000000   0.0000000   0.0000000   0.0000000
49.0558371    0.0828251  -0.0212502   0.0005229  -0.0000008   0.0000000   0.0000000   0.0000000   0.0000000
49.7389596    0.0828577  -0.0214238   0.0005330   0.0000009   0.0000000   0.0000000   0.0000000   0.0000000
50.4315949    0.0831476  -0.0215699   0.0005370  -0.0000120   0.0000000   0.0000000   0.0000000   0.0000000
51.1338754    0.0833558  -0.0217819   0.0005315  -0.0000145   0.0000000   0.0000000   0.0000000   0.0000000
51.8459354    0.0835370  -0.0219132   0.0005396  -0.0000034   0.0000000   0.0000000   0.0000000   0.0000000
52.5679112    0.0837195  -0.0221267   0.0005299  -0.0000020   0.0000000   0.0000000   0.0000000   0.0000000
53.2999408    0.0839500  -0.0223553   0.0005355   0.0000014   0.0000000   0.0000000   0.0000000   0.0000000
54.0421642    0.0840747  -0.0226752   0.0005314  -0.0000129   0.0000000   0.0000000   0.0000000   0.0000000
54.7947234    0.0842640  -0.0227343   0.0005291  -0.0000253   0.0000000   0.0000000   0.0000000   0.0000000
55.5577622    0.0844435  -0.0230778   0.0005518  -0.0000077   0.0000000   0.0000000   0.0000000   0.0000000
56.3314267    0.0847209  -0.0232710   0.0005415  -0.0000209   0.0000000   0.0000000   0.0000000   0.0000000
57.1158648    0.0848991  -0.0236808   0.0005383  -0.0000169   0.0000000   0.0000000   0.0000000   0.0000000
57.9112265    0.0850648  -0.0238793   0.0005240  -0.0000212   0.0000000   0.0000000   0.0000000   0.0000000
58.7176639    0.0851355  -0.0241792   0.0005177  -0.0000320   0.0000000   0.0000000   0.0000000   0.0000000
59.5353313    0.0853568  -0.0245400   0.0005341  -0.0000250   0.0000000   0.0000000   0.0000000   0.0000000
60.3643851    0.0855750  -0.0248893   0.0005240  -0.0000269   0.0000000   0.0000000   0.0000000   0.0000000
61.2049837    0.0857891  -0.0252206   0.0005264  -0.0000415   0.0000000   0.0000000   0.0000000   0.0000000
62.0572881    0.0859896  -0.0255687   0.0005324  -0.0000345   0.0000000   0.0000000   0.0000000   0.0000000
62.9214611    0.0861479  -0.0258930   0.0005448  -0.0000311   0.0000000   0.0000000   0.0000000   0.0000000
63.7976681    0.0864557  -0.0263301   0.0005371  -0.0000445   0.0000000   0.0000000   0.0000000   0.0000000
64.6860766    0.0865058  -0.0267266   0.0005435  -0.0000564   0.0000000   0.0000000   0.0000000   0.0000000
65.5868566    0.0867296  -0.0271645   0.0005308  -0.0000595   0.0000000   0.0000000   0.0000000   0.0000000
66.5001803    0.0869735  -0.0275299   0.0005444  -0.0000449   0.0000000   0.0000000   0.0000000   0.0000000
67.4262224    0.0870975  -0.0279898   0.0005337  -0.0000495   0.0000000   0.0000000   0.0000000   0.0000000
68.3651600    0.0873237  -0.0284336   0.0005418  -0.0000565   0.0000000   0.0000000   0.0000000   0.0000000
69.3171728    0.0875083  -0.0288675   0.0005337  -0.0000504   0.0000000   0.0000000   0.0000000   0.0000000
70.2824426    0.0875868  -0.0294534   0.0005302  -0.0000665   0.0000000   0.0000000   0.0000000   0.0000000
71.2611543    0.0877707  -0.0299188   0.0005227  -0.0000504   0.0000000   0.0000000   0.0000000   0.0000000
72.2534949    0.0879909  -0.0304806   0.0005388  -0.0000663   0.0000000   0.0000000   0.0000000   0.0000000
73.2596543    0.0881584  -0.0308857   0.0005294  -0.0000705   0.0000000   0.0000000   0.0000000   0.0000000
74.2798248    0.0883071  -0.0315456   0.0005403  -0.0000749   0.0000000   0.0000000   0.0000000   0.0000000
75.3142017    0.0884443  -0.0320431   0.0005390  -0.0000674   0.0000000   0.0000000   0.0000000   0.0000000
76.3629826    0.0885624  -0.0327257   0.0005288  -0.0000584   0.0000000   0.0000000   0.0000000   0.0000000
77.4263683    0.0886141  -0.0333021   0.0005396  -0.0000667   0.0000000   0.0000000   0.0000000   0.0000000
78.5045620    0.0888419  -0.0338892   0.0005368  -0.0000869   0.0000000   0.0000000   0.0000000   0.0000000
79.5977700    0.0888934  -0.0345576   0.0005245  -0.0000796   0.0000000   0.0000000   0.0000000   0.0000000
80.7062014    0.0889681  -0.0352621   0.0005381  -0.0000776   0.0000000   0.0000000   0.0000000   0.0000000
81.8300682    0.0891352  -0.0359137   0.0005378  -0.0000868   0.0000000   0.0000000   0.0000000   0.0000000
82.9695852    0.0891671  -0.0365328   0.0005355  -0.0000903   0.0000000   0.0000000   0.0000000   0.0000000
84.1249705    0.0892312  -0.0373473   0.0005487  -0.0000824   0.0000000   0.0000000   0.0000000   0.0000000
85.2964450    0.0892524  -0.0380158   0.0005327  -0.0001068   0.0000000   0.0000000   0.0000000   0.0000000
86.4842328    0.0892258  -0.0387436   0.0005433  -0.0001069   0.0000000   0.0000000   0.0000000   0.0000000
87.6885609    0.0894218  -0.0395889   0.0005379  -0.0000905   0.0000000   0.0000000   0.0000000   0.0000000
88.9096599    0.0894380  -0.0403417   0.0005345  -0.0000886   0.0000000   0.0000000   0.0000000   0.0000000
90.1477631    0.0893601  -0.0411650   0.0005245  -0.0001012   0.0000000   0.0000000   0.0000000   0.0000000
91.4031075    0.0894302  -0.0419745   0.0005394  -0.0001034   0.0000000   0.0000000   0.0000000   0.0000000
92.6759330    0.0893048  -0.0428599   0.0005253  -0.0001026   0.0000000   0.0000000   0.0000000   0.0000000
93.9664831    0.0893152  -0.0436146   0.0005403  -0.0001195   0.0000000   0.0000000   0.0000000   0.0000000
95.2750047    0.0891708  -0.0445351   0.0005318  -0.0001211   0.0000000   0.0000000   0.0000000   0.0000000
96.6017480    0.0890961  -0.0453591   0.0005181  -0.0001067   0.0000000   0.0000000   0.0000000   0.0000000
97.9469667    0.0891218  -0.0463658   0.0005204  -0.0001273   0.0000000   0.0000000   0.0000000   0.0000000
99.3109181    0.0888846  -0.0472978   0.0005467  -0.0001317   0.0000000   0.0000000   0.0000000   0.0000000
100.6938631   0.0885451  -0.0481522   0.0005346  -0.0001282   0.0000000   0.0000000   0.0000000   0.0000000
102.0960662   0.0884139  -0.0491221   0.0005243  -0.0001330   0.0000000   0.0000000   0.0000000   0.0000000
103.5177956   0.0882194  -0.0500407   0.0005349  -0.0001405   0.0000000   0.0000000   0.0000000   0.0000000
104.9593231   0.0880069  -0.0509617   0.0005183  -0.0001389   0.0000000   0.0000000   0.0000000   0.0000000
106.4209244   0.0877970  -0.0519757   0.0005298  -0.0001447   0.0000000   0.0000000   0.0000000   0.0000000
107.9028792   0.0873752  -0.0528026   0.0005390  -0.0001318   0.0000000   0.0000000   0.0000000   0.0000000
109.4054707   0.0868868  -0.0538623   0.0005152  -0.0001602   0.0000000   0.0000000   0.0000000   0.0000000
110.9289865   0.0866529  -0.0548691   0.0005007  -0.0001598   0.0000000   0.0000000   0.0000000   0.0000000
112.4737178   0.0862208  -0.0558400   0.0005224  -0.0001664   0.0000000   0.0000000   0.0000000   0.0000000
114.0399602   0.0858226  -0.0568761   0.0005206  -0.0001383   0.0000000   0.0000000   0.0000000   0.0000000
115.6280131   0.0853275  -0.0578843   0.0005383  -0.0001695   0.0000000   0.0000000   0.0000000   0.0000000
117.2381803   0.0850148  -0.0588270   0.0005242  -0.0001586   0.0000000   0.0000000   0.0000000   0.0000000
118.8707698   0.0845067  -0.0598031   0.0005319  -0.0001561   0.0000000   0.0000000   0.0000000   0.0000000
120.5260937   0.0839303  -0.0608240   0.0005281  -0.0001735   0.0000000   0.0000000   0.0000000   0.0000000
122.2044687   0.0833778  -0.0618776   0.0005182  -0.0001688   0.0000000   0.0000000   0.0000000   0.0000000
123.9062157   0.0827050  -0.0628037   0.0005029  -0.0001661   0.0000000   0.0000000   0.0000000   0.0000000
125.6316602   0.0822005  -0.0639789   0.0005100  -0.0001834   0.0000000   0.0000000   0.0000000   0.0000000
127.3811323   0.0816287  -0.0650023   0.0005189  -0.0001743   0.0000000   0.0000000   0.0000000   0.0000000
129.1549665   0.0807247  -0.0658768   0.0005082  -0.0001810   0.0000000   0.0000000   0.0000000   0.0000000
130.9535020   0.0800849  -0.0668832   0.0005065  -0.0001893   0.0000000   0.0000000   0.0000000   0.0000000
132.7770829   0.0792043  -0.0678809   0.0005202  -0.0002194   0.0000000   0.0000000   0.0000000   0.0000000
134.6260579   0.0783893  -0.0687778   0.0005184  -0.0001906   0.0000000   0.0000000   0.0000000   0.0000000
136.5007807   0.0777211  -0.0698677   0.0005035  -0.0002041   0.0000000   0.0000000   0.0000000   0.0000000
138.4016097   0.0767207  -0.0709139   0.0005021  -0.0002162   0.0000000   0.0000000   0.0000000   0.0000000
140.3289085   0.0756657  -0.0718452   0.0005169  -0.0002144   0.0000000   0.0000000   0.0000000   0.0000000
142.2830457   0.0746448  -0.0728991   0.0004826  -0.0002116   0.0000000   0.0000000   0.0000000   0.0000000
144.2643951   0.0733851  -0.0736922   0.0005158  -0.0002336   0.0000000   0.0000000   0.0000000   0.0000000
146.2733356   0.0726927  -0.0746402   0.0005070  -0.0002460   0.0000000   0.0000000   0.0000000   0.0000000
148.3102514   0.0714284  -0.0754765   0.0005158  -0.0002206   0.0000000   0.0000000   0.0000000   0.0000000
150.3755321   0.0701557  -0.0762185   0.0005052  -0.0002491   0.0000000   0.0000000   0.0000000   0.0000000
152.4695727   0.0687912  -0.0769304   0.0004900  -0.0002059   0.0000000   0.0000000   0.0000000   0.0000000
154.5927736   0.0675535  -0.0776555   0.0004581  -0.0002374   0.0000000   0.0000000   0.0000000   0.0000000
156.7455410   0.0663814  -0.0784103   0.0004849  -0.0002512   0.0000000   0.0000000   0.0000000   0.0000000
158.9282866   0.0651957  -0.0791474   0.0005014  -0.0002183   0.0000000   0.0000000   0.0000000   0.0000000
161.1414277   0.0637090  -0.0789518   0.0004683  -0.0002517   0.0000000   0.0000000   0.0000000   0.0000000
163.3853878   0.0621760  -0.0804104   0.0004581  -0.0002511   0.0000000   0.0000000   0.0000000   0.0000000
165.6605959   0.0607006  -0.0806257   0.0004685  -0.0002502   0.0000000   0.0000000   0.0000000   0.0000000
167.9674872   0.0595824  -0.0811925   0.0004894  -0.0002500   0.0000000   0.0000000   0.0000000   0.0000000
170.3065029   0.0579570  -0.0813223   0.0004696  -0.0002952   0.0000000   0.0000000   0.0000000   0.0000000
172.6780904   0.0563980  -0.0820125   0.0004457  -0.0002537   0.0000000   0.0000000   0.0000000   0.0000000
175.0827032   0.0548576  -0.0821572   0.0004959  -0.0002878   0.0000000   0.0000000   0.0000000   0.0000000
177.5208012   0.0533044  -0.0824235   0.0004546  -0.0002596   0.0000000   0.0000000   0.0000000   0.0000000
179.9928507   0.0518766  -0.0822031   0.0004748  -0.0002785   0.0000000   0.0000000   0.0000000   0.0000000
182.4993245   0.0503586  -0.0829432   0.0004784  -0.0002870   0.0000000   0.0000000   0.0000000   0.0000000
185.0407020   0.0488595  -0.0827659   0.0004595  -0.0003006   0.0000000   0.0000000   0.0000000   0.0000000
187.6174691   0.0472310  -0.0827306   0.0004563  -0.0003170   0.0000000   0.0000000   0.0000000   0.0000000
190.2301189   0.0460286  -0.0826270   0.0004736  -0.0002860   0.0000000   0.0000000   0.0000000   0.0000000
192.8791508   0.0447193  -0.0825648   0.0004159  -0.0003097   0.0000000   0.0000000   0.0000000   0.0000000
195.5650716   0.0429145  -0.0823843   0.0003797  -0.0002980   0.0000000   0.0000000   0.0000000   0.0000000
198.2883949   0.0419235  -0.0823248   0.0004199  -0.0003612   0.0000000   0.0000000   0.0000000   0.0000000
201.0496416   0.0403402  -0.0814107   0.0003131  -0.0002650   0.0000000   0.0000000   0.0000000   0.0000000
203.8493398   0.0391114  -0.0809868   0.0004125  -0.0002403   0.0000000   0.0000000   0.0000000   0.0000000
206.6880250   0.0382058  -0.0804138   0.0003917  -0.0002957   0.0000000   0.0000000   0.0000000   0.0000000
209.5662399   0.0373007  -0.0799221   0.0003410  -0.0002428   0.0000000   0.0000000   0.0000000   0.0000000
212.4845352   0.0367199  -0.0791245   0.0003856  -0.0002944   0.0000000   0.0000000   0.0000000   0.0000000
215.4434690   0.0357310  -0.0788805   0.0004532  -0.0002520   0.0000000   0.0000000   0.0000000   0.0000000
218.4436071   0.0358025  -0.0785096   0.0003588  -0.0003301   0.0000000   0.0000000   0.0000000   0.0000000
221.4855234   0.0356995  -0.0777935   0.0003354  -0.0002202   0.0000000   0.0000000   0.0000000   0.0000000
224.5697996   0.0354042  -0.0779059   0.0003920  -0.0002766   0.0000000   0.0000000   0.0000000   0.0000000
227.6970255   0.0349424  -0.0778424   0.0003494  -0.0003276   0.0000000   0.0000000   0.0000000   0.0000000
230.8677994   0.0355660  -0.0781806   0.0004525  -0.0003313   0.0000000   0.0000000   0.0000000   0.0000000
234.0827276   0.0350993  -0.0781086   0.0004352  -0.0003278   0.0000000   0.0000000   0.0000000   0.0000000
237.3424250   0.0353435  -0.0786989   0.0003790  -0.0004085   0.0000000   0.0000000   0.0000000   0.0000000
240.6475150   0.0349265  -0.0793746   0.0003391  -0.0003759   0.0000000   0.0000000   0.0000000   0.0000000
243.9986297   0.0355891  -0.0800022   0.0003721  -0.0002390   0.0000000   0.0000000   0.0000000   0.0000000
247.3964101   0.0345315  -0.0820033   0.0003818  -0.0002350   0.0000000   0.0000000   0.0000000   0.0000000
250.8415059   0.0342096  -0.0823918   0.0005006  -0.0002907   0.0000000   0.0000000   0.0000000   0.0000000
254.3345761   0.0343192  -0.0841919   0.0004021  -0.0004041   0.0000000   0.0000000   0.0000000   0.0000000
257.8762888   0.0319275  -0.0853826   0.0001952  -0.0003511   0.0000000   0.0000000   0.0000000   0.0000000
261.4673212   0.0312927  -0.0853829   0.0001044  -0.0001423   0.0000000   0.0000000   0.0000000   0.0000000
265.1083602   0.0300497  -0.0869180   0.0001599  -0.0001844   0.0000000   0.0000000   0.0000000   0.0000000
268.8001022   0.0305464  -0.0899296   0.0003783  -0.0004760   0.0000000   0.0000000   0.0000000   0.0000000
272.5432531   0.0279881  -0.0916299   0.0004425  -0.0006131   0.0000000   0.0000000   0.0000000   0.0000000
276.3385290   0.0279715  -0.0916702  -0.0000794  -0.0005157   0.0000000   0.0000000   0.0000000   0.0000000
280.1866556   0.0262651  -0.0933709   0.0003289  -0.0002228   0.0000000   0.0000000   0.0000000   0.0000000
284.0883690   0.0240861  -0.0947274   0.0003021  -0.0001367   0.0000000   0.0000000   0.0000000   0.0000000
288.0444153   0.0216855  -0.0973488   0.0005914  -0.0000247   0.0000000   0.0000000   0.0000000   0.0000000
292.0555512   0.0217061  -0.0978317   0.0007582  -0.0002854   0.0000000   0.0000000   0.0000000   0.0000000
296.1225438   0.0223016  -0.1022798   0.0005563  -0.0000916   0.0000000   0.0000000   0.0000000   0.0000000
300.2461709   0.0136757  -0.0994205   0.0000138  -0.0000894   0.0000000   0.0000000   0.0000000   0.0000000
304.4272212   0.0160413  -0.1076499  -0.0001027  -0.0005190   0.0000000   0.0000000   0.0000000   0.0000000
308.6664943   0.0160482  -0.0942658  -0.0011017  -0.0013727   0.0000000   0.0000000   0.0000000   0.0000000
312.9648011   0.0123350  -0.1045403  -0.0000032   0.0007332   0.0000000   0.0000000   0.0000000   0.0000000
317.3229635  -0.0027733  -0.1097588   0.0003753   0.0031689   0.0000000   0.0000000   0.0000000   0.0000000
321.7418151   0.0118090  -0.1106057   0.0059828   0.0039440   0.0000000   0.0000000   0.0000000   0.0000000
326.2222010  -0.0269926  -0.0527134  -0.0089917   0.0153476   0.0000000   0.0000000   0.0000000   0.0000000
330.7649781  -0.0094946  -0.1227670   0.0064596   0.0036754   0.0000000   0.0000000   0.0000000   0.0000000
335.3710152   0.0087585  -0.1050923  -0.0038387  -0.0002087   0.0000000   0.0000000   0.0000000   0.0000000
340.0411933  -0.0053436  -0.1108012  -0.0021762   0.0001678   0.0000000   0.0000000   0.0000000   0.0000000
344.7764055  -0.0097618  -0.1276633   0.0022899  -0.0058000   0.0000000   0.0000000   0.0000000   0.0000000
349.5775574  -0.0040852  -0.1332877  -0.0006069  -0.0016765   0.0000000   0.0000000   0.0000000   0.0000000
354.4455674  -0.0318101  -0.1066346  -0.0080020   0.0054871   0.0000000   0.0000000   0.0000000   0.0000000
359.3813664  -0.0124766  -0.0846727  -0.0079204   0.0020149   0.0000000   0.0000000   0.0000000   0.0000000
364.3858984  -0.0179482  -0.1328868   0.0031433   0.0031337   0.0000000   0.0000000   0.0000000   0.0000000
369.4601205   0.0069343  -0.1307126  -0.0035488   0.0056339   0.0000000   0.0000000   0.0000000   0.0000000
374.6050033  -0.0166924  -0.1222518  -0.0026091  -0.0021636   0.0000000   0.0000000   0.0000000   0.0000000
379.8215306  -0.0322749  -0.1196169   0.0006039   0.0018983   0.0000000   0.0000000   0.0000000   0.0000000
385.1107002  -0.0330033  -0.1103259   0.0013627   0.0020313   0.0000000   0.0000000   0.0000000   0.0000000
390.4735237  -0.0414051  -0.1228653  -0.0000606  -0.0004109   0.0000000   0.0000000   0.0000000   0.0000000
395.9110266  -0.0387154  -0.1225996   0.0003700  -0.0004512   0.0000000   0.0000000   0.0000000   0.0000000
401.4242490  -0.0415952  -0.1224332  -0.0004905  -0.0005475   0.0000000   0.0000000   0.0000000   0.0000000
407.0142453  -0.0475652  -0.1222599  -0.0003113  -0.0013961   0.0000000   0.0000000   0.0000000   0.0000000
412.6820846  -0.0490710  -0.1221030  -0.0001629  -0.0002546   0.0000000   0.0000000   0.0000000   0.0000000
418.4288508  -0.0538416  -0.1210794  -0.0004563  -0.0008463   0.0000000   0.0000000   0.0000000   0.0000000
424.2556431  -0.0607913  -0.1223927  -0.0006172  -0.0006050   0.0000000   0.0000000   0.0000000   0.0000000
430.1635758  -0.0671917  -0.1204120  -0.0001886  -0.0008784   0.0000000   0.0000000   0.0000000   0.0000000
436.1537789  -0.0687356  -0.1221873  -0.0000756  -0.0008225   0.0000000   0.0000000   0.0000000   0.0000000
442.2273981  -0.0735909  -0.1209849  -0.0002809  -0.0005667   0.0000000   0.0000000   0.0000000   0.0000000
448.3855948  -0.0791229  -0.1227350  -0.0000923  -0.0005129   0.0000000   0.0000000   0.0000000   0.0000000
454.6295470  -0.0852923  -0.1198845  -0.0000645  -0.0003285   0.0000000   0.0000000   0.0000000   0.0000000
460.9604487  -0.0887797  -0.1208395  -0.0000154  -0.0001735   0.0000000   0.0000000   0.0000000   0.0000000
467.3795108  -0.0950229  -0.1186979  -0.0000586  -0.0007202   0.0000000   0.0000000   0.0000000   0.0000000
473.8879610  -0.1005750  -0.1166998  -0.0000204  -0.0003789   0.0000000   0.0000000   0.0000000   0.0000000
480.4870440  -0.1063693  -0.1153290  -0.0000888  -0.0005936   0.0000000   0.0000000   0.0000000   0.0000000
487.1780219  -0.1135269  -0.1122216   0.0001835  -0.0007425   0.0000000   0.0000000   0.0000000   0.0000000
493.9621744  -0.1177975  -0.1121970  -0.0001246  -0.0001270   0.0000000   0.0000000   0.0000000   0.0000000
500.8407990  -0.1223071  -0.1132485   0.0000656  -0.0003690   0.0000000   0.0000000   0.0000000   0.0000000
507.8152112  -0.1320131  -0.1085510  -0.0003858  -0.0002301   0.0000000   0.0000000   0.0000000   0.0000000
514.8867450  -0.1377831  -0.1060360  -0.0000193  -0.0003627   0.0000000   0.0000000   0.0000000   0.0000000
522.0567528  -0.1459762  -0.0997348  -0.0003071  -0.0004686   0.0000000   0.0000000   0.0000000   0.0000000
529.3266058  -0.1514682  -0.1000531   0.0002664  -0.0004727   0.0000000   0.0000000   0.0000000   0.0000000
536.6976946  -0.1558558  -0.0931334   0.0001122  -0.0001307   0.0000000   0.0000000   0.0000000   0.0000000
544.1714287  -0.1620123  -0.0892002   0.0002337  -0.0008038   0.0000000   0.0000000   0.0000000   0.0000000
551.7492376  -0.1706414  -0.0865050  -0.0002007  -0.0002600   0.0000000   0.0000000   0.0000000   0.0000000
559.4325706  -0.1771813  -0.0795095   0.0001891  -0.0006278   0.0000000   0.0000000   0.0000000   0.0000000
567.2228972  -0.1815625  -0.0741798   0.0000338  -0.0006925   0.0000000   0.0000000   0.0000000   0.0000000
575.1217072  -0.1836534  -0.0707204  -0.0004588  -0.0008181   0.0000000   0.0000000   0.0000000   0.0000000
583.1305114  -0.1942505  -0.0608542  -0.0006273  -0.0004127   0.0000000   0.0000000   0.0000000   0.0000000
591.2508414  -0.1984182  -0.0558461  -0.0002383  -0.0011139   0.0000000   0.0000000   0.0000000   0.0000000
599.4842503  -0.2098596  -0.0567000  -0.0011812  -0.0011313   0.0000000   0.0000000   0.0000000   0.0000000
607.8323128  -0.2171213  -0.0357874   0.0000249  -0.0016710   0.0000000   0.0000000   0.0000000   0.0000000
616.2966255  -0.2196121  -0.0392557  -0.0001870  -0.0003556   0.0000000   0.0000000   0.0000000   0.0000000
624.8788072  -0.2183690  -0.0221936   0.0011058  -0.0021343   0.0000000   0.0000000   0.0000000   0.0000000
633.5804993  -0.2250480  -0.0095339  -0.0051091   0.0024080   0.0000000   0.0000000   0.0000000   0.0000000
642.4033659  -0.2787389   0.1004368  -0.0070906  -0.0056847   0.0000000   0.0000000   0.0000000   0.0000000
651.3490946  -0.3547562  -0.0236567   0.0123236   0.0392226   0.0000000   0.0000000   0.0000000   0.0000000
660.4193962  -0.2525813   0.0071739   0.0012595  -0.0037834   0.0000000   0.0000000   0.0000000   0.0000000
669.6160055  -0.2379201  -0.0483283   0.0005283   0.0011281   0.0000000   0.0000000   0.0000000   0.0000000
678.9406813  -0.2273213   0.0639744  -0.0094647  -0.0049797   0.0000000   0.0000000   0.0000000   0.0000000
688.3952070  -0.2245841   0.0355372   0.0015144  -0.0021447   0.0000000   0.0000000   0.0000000   0.0000000
697.9813908  -0.2070875   0.0552745  -0.0014956  -0.0071712   0.0000000   0.0000000   0.0000000   0.0000000
707.7010661  -0.2257665   0.0874377   0.0020707   0.0035455   0.0000000   0.0000000   0.0000000   0.0000000
717.5560919  -0.2164518  -0.0023668  -0.0437029   0.0164112   0.0000000   0.0000000   0.0000000   0.0000000
727.5483529  -0.3493519   0.1280583  -0.0038580   0.0095503   0.0000000   0.0000000   0.0000000   0.0000000
737.6797603  -0.2396780   0.1317003  -0.0033969   0.0034906   0.0000000   0.0000000   0.0000000   0.0000000
747.9522516  -0.2459957   0.1575491   0.0016879  -0.0016833   0.0000000   0.0000000   0.0000000   0.0000000
758.3677915  -0.1867892   0.1325202  -0.0029360   0.0007978   0.0000000   0.0000000   0.0000000   0.0000000
768.9283721  -0.1945705   0.1328082  -0.0018935   0.0005499   0.0000000   0.0000000   0.0000000   0.0000000
779.6360130  -0.1683664   0.1377921  -0.0006067   0.0010969   0.0000000   0.0000000   0.0000000   0.0000000
790.4927623  -0.1522323   0.1204422   0.0002653   0.0003543   0.0000000   0.0000000   0.0000000   0.0000000
801.5006962  -0.1327534   0.1122461  -0.0009053   0.0002988   0.0000000   0.0000000   0.0000000   0.0000000
812.6619200  -0.1408219   0.1174250  -0.0002956  -0.0005605   0.0000000   0.0000000   0.0000000   0.0000000
823.9785685  -0.1427140   0.1052846   0.0005076   0.0002922   0.0000000   0.0000000   0.0000000   0.0000000
835.4528058  -0.1355713   0.1011439  -0.0004058  -0.0004712   0.0000000   0.0000000   0.0000000   0.0000000
847.0868267  -0.1023569   0.1283415   0.0006467  -0.0026256   0.0000000   0.0000000   0.0000000   0.0000000
858.8828560  -0.1455931   0.1022266  -0.0009217  -0.0014017   0.0000000   0.0000000   0.0000000   0.0000000
870.8431498  -0.1372205   0.1098552  -0.0026470  -0.0011331   0.0000000   0.0000000   0.0000000   0.0000000
882.9699955  -0.1691246   0.0978898  -0.0008113  -0.0018836   0.0000000   0.0000000   0.0000000   0.0000000
895.2657126  -0.1460543   0.1097422  -0.0020436   0.0004350   0.0000000   0.0000000   0.0000000   0.0000000
907.7326525  -0.1526322   0.1371188   0.0001759  -0.0010492   0.0000000   0.0000000   0.0000000   0.0000000
920.3731997  -0.1561734   0.1259952  -0.0034597  -0.0005862   0.0000000   0.0000000   0.0000000   0.0000000
933.1897716  -0.1544345   0.1597829  -0.0054956   0.0012026   0.0000000   0.0000000   0.0000000   0.0000000
946.1848195  -0.2193912   0.1979787   0.0007748  -0.0001026   0.0000000   0.0000000   0.0000000   0.0000000
959.3608287  -0.2463208   0.1177767  -0.0026321  -0.0086693   0.0000000   0.0000000   0.0000000   0.0000000
972.7203192  -0.1170087   0.0762665   0.0077688  -0.0126197   0.0000000   0.0000000   0.0000000   0.0000000
986.2658461  -0.2848785   0.0872446   0.0013742   0.0037656   0.0000000   0.0000000   0.0000000   0.0000000
1000.0000000  -0.1469780   0.2979357  -0.0008768  -0.0016304   0.0000000   0.0000000   0.0000000   0.0000000
