! ListType=Log
# MHZ S RI R 50
0.0010000     0.9771661  -0.0007156  -0.0001986  -0.0031308   0.0000000   0.0000000   0.0000000   0.0000000
0.0010139     0.9769256  -0.0008387  -0.0004616  -0.0025449   0.0000000   0.0000000   0.0000000   0.0000000
0.0010280     0.9767523  -0.0008151   0.0001587  -0.0027274   0.0000000   0.0000000   0.0000000   0.0000000
0.0010424     0.9769809  -0.0005944   0.0000283  -0.0027872   0.0000000   0.0000000   0.0000000   0.0000000
0.0010569     0.9768051  -0.0009144  -0.0001537  -0.0026461   0.0000000   0.0000000   0.0000000   0.0000000
0.0010716     0.9769553  -0.0006012  -0.0000538  -0.0027583   0.0000000   0.0000000   0.0000000   0.0000000
0.0010865     0.9769417  -0.0007321  -0.0001287  -0.0027058   0.0000000   0.0000000   0.0000000   0.0000000
0.0011016     0.9769797  -0.0006803  -0.0002527  -0.0025992   0.0000000   0.0000000   0.0000000   0.0000000
0.0011170     0.9769438  -0.0008347   0.0000611  -0.0029373   0.0000000   0.0000000   0.0000000   0.0000000
0.0011325     0.9768470  -0.0004535  -0.0001555  -0.0027628   0.0000000   0.0000000   0.0000000   0.0000000
0.0011483     0.9769452  -0.0006795  -0.0001792  -0.0028724   0.0000000   0.0000000   0.0000000   0.0000000
0.0011643     0.9771706  -0.0006715  -0.0001690  -0.0029171   0.0000000   0.0000000   0.0000000   0.0000000
0.0011805     0.9769970  -0.0007883  -0.0002316  -0.0028206   0.0000000   0.0000000   0.0000000   0.0000000
0.0011970     0.9769916  -0.0009384  -0.0001140  -0.0030079   0.0000000   0.0000000   0.0000000   0.0000000
0.0012136     0.9769665  -0.0006636  -0.0001294  -0.0028770   0.0000000   0.0000000   0.0000000   0.0000000
0.0012305     0.9770077  -0.0005018  -0.0000535  -0.0030149   0.0000000   0.0000000   0.0000000   0.0000000
0.0012477     0.9770365  -0.0006753  -0.0001559  -0.0030565   0.0000000   0.0000000   0.0000000   0.0000000
0.0012650     0.9771137  -0.0005999  -0.0001783  -0.0031723   0.0000000   0.0000000   0.0000000   0.0000000
0.0012826     0.9770007  -0.0006029   0.0000415  -0.0030738   0.0000000   0.0000000   0.0000000   0.0000000
0.0013005     0.9770656  -0.0004826  -0.0002169  -0.0031111   0.0000000   0.0000000   0.0000000   0.0000000
0.0013186     0.9771410  -0.0005719  -0.0000158  -0.0034592   0.0000000   0.0000000   0.0000000   0.0000000
0.0013370     0.9769980  -0.0006228  -0.0000573  -0.0033267   0.0000000   0.0000000   0.0000000   0.0000000
0.0013556     0.9770886  -0.0005276  -0.0002169  -0.0033895   0.0000000   0.0000000   0.0000000   0.0000000
0.0013745     0.9769891  -0.0004526  -0.0002244  -0.0035670   0.0000000   0.0000000   0.0000000   0.0000000
0.0013936     0.9770719  -0.0005283  -0.0000755  -0.0033979   0.0000000   0.0000000   0.0000000   0.0000000
0.0014130     0.9771483  -0.0004158  -0.0002170  -0.0035950   0.0000000   0.0000000   0.0000000   0.0000000
0.0014327     0.9771397  -0.0006077  -0.0003922  -0.0037580   0.0000000   0.0000000   0.0000000   0.0000000
0.0014527     0.9770034  -0.0005266  -0.0003179  -0.0036241   0.0000000   0.0000000   0.0000000   0.0000000
0.0014729     0.9769443  -0.0006148  -0.0001531  -0.0036390   0.0000000   0.0000000   0.0000000   0.0000000
0.0014934     0.9770181  -0.0003544  -0.0001238  -0.0036548   0.0000000   0.0000000   0.0000000   0.0000000
0.0015142     0.9772373  -0.0006426  -0.0003799  -0.0037654   0.0000000   0.0000000   0.0000000   0.0000000
0.0015353     0.9771125  -0.0005861  -0.0004048  -0.0037187   0.0000000   0.0000000   0.0000000   0.0000000
0.0015567     0.9770241  -0.0007482  -0.0004467  -0.0039785   0.0000000   0.0000000   0.0000000   0.0000000
0.0015783     0.9772752  -0.0004088  -0.0003646  -0.0029974   0.0000000   0.0000000   0.0000000   0.0000000
0.0016003     0.9771762  -0.0007662  -0.0008450  -0.0040410   0.0000000   0.0000000   0.0000000   0.0000000
0.0016226     0.9770026  -0.0008117  -0.0006853  -0.0042737   0.0000000   0.0000000   0.0000000   0.0000000
0.0016452     0.9771597  -0.0004124   0.0001832  -0.0041663   0.0000000   0.0000000   0.0000000   0.0000000
0.0016681     0.9770343  -0.0004475  -0.0003995  -0.0033493   0.0000000   0.0000000   0.0000000   0.0000000
0.0016913     0.9770760  -0.0006817   0.0000624  -0.0040037   0.0000000   0.0000000   0.0000000   0.0000000
0.0017149     0.9769512  -0.0005385  -0.0001938  -0.0040527   0.0000000   0.0000000   0.0000000   0.0000000
0.0017388     0.9770382  -0.0004554  -0.0009135  -0.0040747   0.0000000   0.0000000   0.0000000   0.0000000
0.0017630     0.9770856  -0.0005823  -0.0004301  -0.0047042   0.0000000   0.0000000   0.0000000   0.0000000
0.0017875     0.9771306  -0.0004935   0.0009348  -0.0044492   0.0000000   0.0000000   0.0000000   0.0000000
0.0018124     0.9769244  -0.0007308  -0.0007425  -0.0038720   0.0000000   0.0000000   0.0000000   0.0000000
0.0018377     0.9771889  -0.0005996  -0.0004039  -0.0043727   0.0000000   0.0000000   0.0000000   0.0000000
0.0018632     0.9771942  -0.0006144  -0.0004483  -0.0042890   0.0000000   0.0000000   0.0000000   0.0000000
0.0018892     0.9770825  -0.0005947  -0.0003154  -0.0047442   0.0000000   0.0000000   0.0000000   0.0000000
0.0019155     0.9770206  -0.0005650  -0.0009388  -0.0044722   0.0000000   0.0000000   0.0000000   0.0000000
0.0019422     0.9769680  -0.0005300  -0.0006795  -0.0045421   0.0000000   0.0000000   0.0000000   0.0000000
0.0019692     0.9769626  -0.0004341  -0.0004318  -0.0046701   0.0000000   0.0000000   0.0000000   0.0000000
0.0019966     0.9768828  -0.0006693  -0.0004585  -0.0050743   0.0000000   0.0000000   0.0000000   0.0000000
0.0020244     0.9768521  -0.0004592  -0.0005718  -0.0048229   0.0000000   0.0000000   0.0000000   0.0000000
0.0020526     0.9769437  -0.0006363  -0.0005399  -0.0049460   0.0000000   0.0000000   0.0000000   0.0000000
0.0020812     0.9770537  -0.0004756  -0.0004769  -0.0051081   0.0000000   0.0000000   0.0000000   0.0000000
0.0021102     0.9770036  -0.0005508  -0.0006406  -0.0048619   0.0000000   0.0000000   0.0000000   0.0000000
0.0021396     0.9768941  -0.0005168  -0.0005738  -0.0051310   0.0000000   0.0000000   0.0000000   0.0000000
0.0021694     0.9771420  -0.0005472  -0.0005698  -0.0053492   0.0000000   0.0000000   0.0000000   0.0000000
0.0021996     0.9771827  -0.0003622  -0.0004742  -0.0052859   0.0000000   0.0000000   0.0000000   0.0000000
0.0022302     0.9772179  -0.0004828  -0.0006042  -0.0052971   0.0000000   0.0000000   0.0000000   0.0000000
0.0022613     0.9770408  -0.0006583  -0.0006599  -0.0054446   0.0000000   0.0000000   0.0000000   0.0000000
0.0022928     0.9769230  -0.0004883  -0.0006028  -0.0055333   0.0000000   0.0000000   0.0000000   0.0000000
0.0023247     0.9769452  -0.0004061  -0.0006769  -0.0056142   0.0000000   0.0000000   0.0000000   0.0000000
0.0023571     0.9770069  -0.0004697  -0.0006366  -0.0055701   0.0000000   0.0000000   0.0000000   0.0000000
0.0023899     0.9770209  -0.0004542  -0.0008062  -0.0058080   0.0000000   0.0000000   0.0000000   0.0000000
0.0024232     0.9771547  -0.0004134  -0.0006402  -0.0057923   0.0000000   0.0000000   0.0000000   0.0000000
0.0024569     0.9770699  -0.0003817  -0.0006601  -0.0057146   0.0000000   0.0000000   0.0000000   0.0000000
0.0024911     0.9770025  -0.0006167  -0.0007328  -0.0059447   0.0000000   0.0000000   0.0000000   0.0000000
0.0025258     0.9768887  -0.0005035  -0.0007469  -0.0059785   0.0000000   0.0000000   0.0000000   0.0000000
0.0025610     0.9770085  -0.0004919  -0.0007399  -0.0060383   0.0000000   0.0000000   0.0000000   0.0000000
0.0025967     0.9771033  -0.0004538  -0.0008360  -0.0060938   0.0000000   0.0000000   0.0000000   0.0000000
0.0026328     0.9770510  -0.0005147  -0.0008792  -0.0061957   0.0000000   0.0000000   0.0000000   0.0000000
0.0026695     0.9770651  -0.0005051  -0.0008718  -0.0063146   0.0000000   0.0000000   0.0000000   0.0000000
0.0027067     0.9769849  -0.0005240  -0.0008290  -0.0064079   0.0000000   0.0000000   0.0000000   0.0000000
0.0027443     0.9770725  -0.0003879  -0.0009414  -0.0064806   0.0000000   0.0000000   0.0000000   0.0000000
0.0027826     0.9770855  -0.0003561  -0.0009107  -0.0065324   0.0000000   0.0000000   0.0000000   0.0000000
0.0028213     0.9768546  -0.0004105  -0.0009930  -0.0065983   0.0000000   0.0000000   0.0000000   0.0000000
0.0028606     0.9769721  -0.0004158  -0.0009376  -0.0066645   0.0000000   0.0000000   0.0000000   0.0000000
0.0029004     0.9770458  -0.0002437  -0.0010399  -0.0067594   0.0000000   0.0000000   0.0000000   0.0000000
0.0029408     0.9769092  -0.0004436  -0.0010145  -0.0068662   0.0000000   0.0000000   0.0000000   0.0000000
0.0029818     0.9770366  -0.0005237  -0.0010263  -0.0069501   0.0000000   0.0000000   0.0000000   0.0000000
0.0030233     0.9769250  -0.0006009  -0.0010112  -0.0071274   0.0000000   0.0000000   0.0000000   0.0000000
0.0030654     0.9769962  -0.0004972  -0.0010551  -0.0071082   0.0000000   0.0000000   0.0000000   0.0000000
0.0031081     0.9769783  -0.0004224  -0.0010424  -0.0071627   0.0000000   0.0000000   0.0000000   0.0000000
0.0031514     0.9769594  -0.0004287  -0.0011865  -0.0073220   0.0000000   0.0000000   0.0000000   0.0000000
0.0031952     0.9768559  -0.0002495  -0.0012444  -0.0075529   0.0000000   0.0000000   0.0000000   0.0000000
0.0032397     0.9769017  -0.0004947  -0.0013757  -0.0074227   0.0000000   0.0000000   0.0000000   0.0000000
0.0032849     0.9769102  -0.0005065  -0.0010165  -0.0078666   0.0000000   0.0000000   0.0000000   0.0000000
0.0033306     0.9768904  -0.0004914  -0.0011978  -0.0075684   0.0000000   0.0000000   0.0000000   0.0000000
0.0033770     0.9769936  -0.0004080  -0.0015008  -0.0074336   0.0000000   0.0000000   0.0000000   0.0000000
0.0034240     0.9770499  -0.0003522  -0.0011041  -0.0075887   0.0000000   0.0000000   0.0000000   0.0000000
0.0034717     0.9770530  -0.0007246  -0.0011689  -0.0076491   0.0000000   0.0000000   0.0000000   0.0000000
0.0035200     0.9770406  -0.0004245  -0.0014423  -0.0080737   0.0000000   0.0000000   0.0000000   0.0000000
0.0035690     0.9769940  -0.0003478  -0.0013144  -0.0082084   0.0000000   0.0000000   0.0000000   0.0000000
0.0036187     0.9769678  -0.0003030  -0.0014134  -0.0082612   0.0000000   0.0000000   0.0000000   0.0000000
0.0036691     0.9768715  -0.0003476  -0.0013712  -0.0083801   0.0000000   0.0000000   0.0000000   0.0000000
0.0037202     0.9769740  -0.0004806  -0.0014812  -0.0084552   0.0000000   0.0000000   0.0000000   0.0000000
0.0037720     0.9770511  -0.0005145  -0.0015196  -0.0085756   0.0000000   0.0000000   0.0000000   0.0000000
0.0038246     0.9769378  -0.0004333  -0.0015894  -0.0086539   0.0000000   0.0000000   0.0000000   0.0000000
0.0038778     0.9769289  -0.0004081  -0.0015685  -0.0088162   0.0000000   0.0000000   0.0000000   0.0000000
0.0039318     0.9770110  -0.0004018  -0.0016006  -0.0088313   0.0000000   0.0000000   0.0000000   0.0000000
0.0039866     0.9770430  -0.0002981  -0.0016901  -0.0090070   0.0000000   0.0000000   0.0000000   0.0000000
0.0040421     0.9767037  -0.0004556  -0.0017270  -0.0090926   0.0000000   0.0000000   0.0000000   0.0000000
0.0040984     0.9768988  -0.0003605  -0.0017600  -0.0091917   0.0000000   0.0000000   0.0000000   0.0000000
0.0041555     0.9768391  -0.0005254  -0.0017903  -0.0092654   0.0000000   0.0000000   0.0000000   0.0000000
0.0042133     0.9770442  -0.0003940  -0.0018236  -0.0093992   0.0000000   0.0000000   0.0000000   0.0000000
0.0042720     0.9768960  -0.0005123  -0.0018620  -0.0095142   0.0000000   0.0000000   0.0000000   0.0000000
0.0043315     0.9770006  -0.0002576  -0.0019225  -0.0096162   0.0000000   0.0000000   0.0000000   0.0000000
0.0043918     0.9768480  -0.0003982  -0.0019558  -0.0097026   0.0000000   0.0000000   0.0000000   0.0000000
0.0044530     0.9767892  -0.0006101  -0.0019649  -0.0098539   0.0000000   0.0000000   0.0000000   0.0000000
0.0045150     0.9769986  -0.0004748  -0.0020516  -0.0099496   0.0000000   0.0000000   0.0000000   0.0000000
0.0045778     0.9769260  -0.0004620  -0.0020640  -0.0101157   0.0000000   0.0000000   0.0000000   0.0000000
0.0046416     0.9767578  -0.0005075  -0.0021468  -0.0101931   0.0000000   0.0000000   0.0000000   0.0000000
0.0047062     0.9768709  -0.0003825  -0.0021144  -0.0103281   0.0000000   0.0000000   0.0000000   0.0000000
0.0047718     0.9767756  -0.0004995  -0.0021701  -0.0104051   0.0000000   0.0000000   0.0000000   0.0000000
0.0048382     0.9769007  -0.0002813  -0.0022558  -0.0105151   0.0000000   0.0000000   0.0000000   0.0000000
0.0049056     0.9770516  -0.0003934  -0.0022929  -0.0106330   0.0000000   0.0000000   0.0000000   0.0000000
0.0049739     0.9769325  -0.0003733  -0.0022893  -0.0107493   0.0000000   0.0000000   0.0000000   0.0000000
0.0050432     0.9768887  -0.0004725  -0.0024373  -0.0108882   0.0000000   0.0000000   0.0000000   0.0000000
0.0051134     0.9767785  -0.0004458  -0.0021512  -0.0110957   0.0000000   0.0000000   0.0000000   0.0000000
0.0051846     0.9768265  -0.0004206  -0.0025205  -0.0112955   0.0000000   0.0000000   0.0000000   0.0000000
0.0052568     0.9767578  -0.0004450  -0.0025539  -0.0113436   0.0000000   0.0000000   0.0000000   0.0000000
0.0053300     0.9768880  -0.0004494  -0.0025717  -0.0113269   0.0000000   0.0000000   0.0000000   0.0000000
0.0054042     0.9768133  -0.0003463  -0.0026396  -0.0115122   0.0000000   0.0000000   0.0000000   0.0000000
0.0054795     0.9768332  -0.0004298  -0.0027513  -0.0116341   0.0000000   0.0000000   0.0000000   0.0000000
0.0055558     0.9769464  -0.0004644  -0.0027538  -0.0117771   0.0000000   0.0000000   0.0000000   0.0000000
0.0056331     0.9767793  -0.0005051  -0.0027972  -0.0119350   0.0000000   0.0000000   0.0000000   0.0000000
0.0057116     0.9769468  -0.0004614  -0.0028686  -0.0120299   0.0000000   0.0000000   0.0000000   0.0000000
0.0057911     0.9768801  -0.0003977  -0.0028748  -0.0121650   0.0000000   0.0000000   0.0000000   0.0000000
0.0058718     0.9768734  -0.0003922  -0.0029432  -0.0122753   0.0000000   0.0000000   0.0000000   0.0000000
0.0059535     0.9769132  -0.0003919  -0.0030238  -0.0124464   0.0000000   0.0000000   0.0000000   0.0000000
0.0060364     0.9769605  -0.0004606  -0.0030542  -0.0125804   0.0000000   0.0000000   0.0000000   0.0000000
0.0061205     0.9767604  -0.0005221  -0.0031374  -0.0126862   0.0000000   0.0000000   0.0000000   0.0000000
0.0062057     0.9768290  -0.0005020  -0.0031529  -0.0128485   0.0000000   0.0000000   0.0000000   0.0000000
0.0062921     0.9768532  -0.0003424  -0.0032332  -0.0129622   0.0000000   0.0000000   0.0000000   0.0000000
0.0063798     0.9768866  -0.0004329  -0.0032445  -0.0131233   0.0000000   0.0000000   0.0000000   0.0000000
0.0064686     0.9768662  -0.0003874  -0.0033073  -0.0132841   0.0000000   0.0000000   0.0000000   0.0000000
0.0065587     0.9769239  -0.0003996  -0.0034234  -0.0133484   0.0000000   0.0000000   0.0000000   0.0000000
0.0066500     0.9768694  -0.0004689  -0.0034558  -0.0135485   0.0000000   0.0000000   0.0000000   0.0000000
0.0067426     0.9766983  -0.0003067  -0.0034994  -0.0137877   0.0000000   0.0000000   0.0000000   0.0000000
0.0068365     0.9768139  -0.0003765  -0.0037869  -0.0136427   0.0000000   0.0000000   0.0000000   0.0000000
0.0069317     0.9768518  -0.0003488  -0.0035983  -0.0139478   0.0000000   0.0000000   0.0000000   0.0000000
0.0070282     0.9767279  -0.0003507  -0.0036345  -0.0141425   0.0000000   0.0000000   0.0000000   0.0000000
0.0071261     0.9768668  -0.0003801  -0.0036944  -0.0142732   0.0000000   0.0000000   0.0000000   0.0000000
0.0072253     0.9766915  -0.0004180  -0.0038308  -0.0143858   0.0000000   0.0000000   0.0000000   0.0000000
0.0073260     0.9769394  -0.0003946  -0.0038654  -0.0145561   0.0000000   0.0000000   0.0000000   0.0000000
0.0074280     0.9768575  -0.0004427  -0.0038949  -0.0146717   0.0000000   0.0000000   0.0000000   0.0000000
0.0075314     0.9766965  -0.0003860  -0.0040040  -0.0148379   0.0000000   0.0000000   0.0000000   0.0000000
0.0076363     0.9767632  -0.0004573  -0.0040801  -0.0150166   0.0000000   0.0000000   0.0000000   0.0000000
0.0077426     0.9768241  -0.0004077  -0.0041174  -0.0151607   0.0000000   0.0000000   0.0000000   0.0000000
0.0078505     0.9767245  -0.0003594  -0.0042061  -0.0153188   0.0000000   0.0000000   0.0000000   0.0000000
0.0079598     0.9767355  -0.0003259  -0.0042904  -0.0154778   0.0000000   0.0000000   0.0000000   0.0000000
0.0080706     0.9768710  -0.0002671  -0.0043167  -0.0156450   0.0000000   0.0000000   0.0000000   0.0000000
0.0081830     0.9767954  -0.0004258  -0.0044047  -0.0157903   0.0000000   0.0000000   0.0000000   0.0000000
0.0082970     0.9767935  -0.0004009  -0.0044111  -0.0159696   0.0000000   0.0000000   0.0000000   0.0000000
0.0084125     0.9769016  -0.0005622  -0.0044952  -0.0161105   0.0000000   0.0000000   0.0000000   0.0000000
0.0085296     0.9768123  -0.0003988  -0.0046870  -0.0162849   0.0000000   0.0000000   0.0000000   0.0000000
0.0086484     0.9767628  -0.0003943  -0.0046545  -0.0164678   0.0000000   0.0000000   0.0000000   0.0000000
0.0087689     0.9767922  -0.0003374  -0.0047310  -0.0166165   0.0000000   0.0000000   0.0000000   0.0000000
0.0088910     0.9767049  -0.0004642  -0.0048052  -0.0167998   0.0000000   0.0000000   0.0000000   0.0000000
0.0090148     0.9768844  -0.0004475  -0.0048204  -0.0169754   0.0000000   0.0000000   0.0000000   0.0000000
0.0091403     0.9767437  -0.0004597  -0.0048930  -0.0171742   0.0000000   0.0000000   0.0000000   0.0000000
0.0092676     0.9767096  -0.0004169  -0.0049460  -0.0173277   0.0000000   0.0000000   0.0000000   0.0000000
0.0093966     0.9768582  -0.0004544  -0.0050509  -0.0174917   0.0000000   0.0000000   0.0000000   0.0000000
0.0095275     0.9768837  -0.0004075  -0.0050899  -0.0177036   0.0000000   0.0000000   0.0000000   0.0000000
0.0096602     0.9767976  -0.0004673  -0.0051639  -0.0178633   0.0000000   0.0000000   0.0000000   0.0000000
0.0097947     0.9767689  -0.0003836  -0.0052319  -0.0180595   0.0000000   0.0000000   0.0000000   0.0000000
0.0099311     0.9767438  -0.0003534  -0.0052967  -0.0182362   0.0000000   0.0000000   0.0000000   0.0000000
0.0100694     0.9768937  -0.0004998  -0.0053382  -0.0184029   0.0000000   0.0000000   0.0000000   0.0000000
0.0102096     0.9766594  -0.0004354  -0.0053703  -0.0186396   0.0000000   0.0000000   0.0000000   0.0000000
0.0103518     0.9769028  -0.0005091  -0.0055017  -0.0187686   0.0000000   0.0000000   0.0000000   0.0000000
0.0104959     0.9767886  -0.0004693  -0.0055512  -0.0189853   0.0000000   0.0000000   0.0000000   0.0000000
0.0106421     0.9768170  -0.0004891  -0.0056355  -0.0191698   0.0000000   0.0000000   0.0000000   0.0000000
0.0107903     0.9767583  -0.0003535  -0.0056885  -0.0193873   0.0000000   0.0000000   0.0000000   0.0000000
0.0109405     0.9767566  -0.0005219  -0.0057484  -0.0195814   0.0000000   0.0000000   0.0000000   0.0000000
0.0110929     0.9767748  -0.0003914  -0.0058178  -0.0197782   0.0000000   0.0000000   0.0000000   0.0000000
0.0112474     0.9766330  -0.0004397  -0.0058808  -0.0199729   0.0000000   0.0000000   0.0000000   0.0000000
0.0114040     0.9768953  -0.0004616  -0.0059271  -0.0202029   0.0000000   0.0000000   0.0000000   0.0000000
0.0115628     0.9768074  -0.0004781  -0.0060082  -0.0204003   0.0000000   0.0000000   0.0000000   0.0000000
0.0117238     0.9770322  -0.0005905  -0.0060759  -0.0206449   0.0000000   0.0000000   0.0000000   0.0000000
0.0118871     0.9767485  -0.0002584  -0.0061147  -0.0208165   0.0000000   0.0000000   0.0000000   0.0000000
0.0120526     0.9752292  -0.0040536  -0.0065556  -0.0210551   0.0000000   0.0000000   0.0000000   0.0000000
0.0122204     0.9765972  -0.0004761  -0.0063050  -0.0212323   0.0000000   0.0000000   0.0000000   0.0000000
0.0123906     0.9769193  -0.0006028  -0.0063513  -0.0214814   0.0000000   0.0000000   0.0000000   0.0000000
0.0125632     0.9768045  -0.0003840  -0.0063763  -0.0217116   0.0000000   0.0000000   0.0000000   0.0000000
0.0127381     0.9767877  -0.0004182  -0.0064629  -0.0219457   0.0000000   0.0000000   0.0000000   0.0000000
0.0129155     0.9768827  -0.0004297  -0.0065210  -0.0221465   0.0000000   0.0000000   0.0000000   0.0000000
0.0130954     0.9768026  -0.0005593  -0.0065952  -0.0224114   0.0000000   0.0000000   0.0000000   0.0000000
0.0132777     0.9769300  -0.0005058  -0.0066663  -0.0226559   0.0000000   0.0000000   0.0000000   0.0000000
0.0134626     0.9767955  -0.0005124  -0.0067167  -0.0228680   0.0000000   0.0000000   0.0000000   0.0000000
0.0136501     0.9767702  -0.0005294  -0.0068403  -0.0231605   0.0000000   0.0000000   0.0000000   0.0000000
0.0138402     0.9767689  -0.0004621  -0.0068639  -0.0233702   0.0000000   0.0000000   0.0000000   0.0000000
0.0140329     0.9768043  -0.0005896  -0.0069202  -0.0236093   0.0000000   0.0000000   0.0000000   0.0000000
0.0142283     0.9769377  -0.0005073  -0.0069944  -0.0238733   0.0000000   0.0000000   0.0000000   0.0000000
0.0144264     0.9769651  -0.0004811  -0.0070613  -0.0241250   0.0000000   0.0000000   0.0000000   0.0000000
0.0146273     0.9767901  -0.0006605  -0.0071016  -0.0243889   0.0000000   0.0000000   0.0000000   0.0000000
0.0148310     0.9767308  -0.0005778  -0.0071737  -0.0246423   0.0000000   0.0000000   0.0000000   0.0000000
0.0150376     0.9767587  -0.0004685  -0.0072398  -0.0249217   0.0000000   0.0000000   0.0000000   0.0000000
0.0152470     0.9768523  -0.0005948  -0.0073076  -0.0251837   0.0000000   0.0000000   0.0000000   0.0000000
0.0154593     0.9767636  -0.0005116  -0.0074000  -0.0254799   0.0000000   0.0000000   0.0000000   0.0000000
0.0156746     0.9768180  -0.0005750  -0.0074301  -0.0257415   0.0000000   0.0000000   0.0000000   0.0000000
0.0158928     0.9768887  -0.0005339  -0.0074984  -0.0260236   0.0000000   0.0000000   0.0000000   0.0000000
0.0161141     0.9767235  -0.0005944  -0.0075472  -0.0263197   0.0000000   0.0000000   0.0000000   0.0000000
0.0163385     0.9768858  -0.0005289  -0.0076280  -0.0265975   0.0000000   0.0000000   0.0000000   0.0000000
0.0165661     0.9766914  -0.0005912  -0.0076972  -0.0268824   0.0000000   0.0000000   0.0000000   0.0000000
0.0167967     0.9768749  -0.0004921  -0.0077564  -0.0271805   0.0000000   0.0000000   0.0000000   0.0000000
0.0170307     0.9768671  -0.0005825  -0.0078267  -0.0274955   0.0000000   0.0000000   0.0000000   0.0000000
0.0172678     0.9768087  -0.0005342  -0.0078971  -0.0278001   0.0000000   0.0000000   0.0000000   0.0000000
0.0175083     0.9767794  -0.0005375  -0.0079711  -0.0281230   0.0000000   0.0000000   0.0000000   0.0000000
0.0177521     0.9767393  -0.0005610  -0.0080382  -0.0284181   0.0000000   0.0000000   0.0000000   0.0000000
0.0179993     0.9768091  -0.0005658  -0.0080945  -0.0287272   0.0000000   0.0000000   0.0000000   0.0000000
0.0182499     0.9767198  -0.0006053  -0.0081491  -0.0290676   0.0000000   0.0000000   0.0000000   0.0000000
0.0185041     0.9768539  -0.0005541  -0.0082262  -0.0294068   0.0000000   0.0000000   0.0000000   0.0000000
0.0187617     0.9768533  -0.0006790  -0.0083007  -0.0297348   0.0000000   0.0000000   0.0000000   0.0000000
0.0190230     0.9768758  -0.0006626  -0.0083662  -0.0300781   0.0000000   0.0000000   0.0000000   0.0000000
0.0192879     0.9767726  -0.0005899  -0.0084209  -0.0304356   0.0000000   0.0000000   0.0000000   0.0000000
0.0195565     0.9768069  -0.0005816  -0.0084837  -0.0307647   0.0000000   0.0000000   0.0000000   0.0000000
0.0198288     0.9768857  -0.0004868  -0.0085805  -0.0311222   0.0000000   0.0000000   0.0000000   0.0000000
0.0201050     0.9767020  -0.0006945  -0.0086510  -0.0315026   0.0000000   0.0000000   0.0000000   0.0000000
0.0203849     0.9768558  -0.0006530  -0.0087094  -0.0318418   0.0000000   0.0000000   0.0000000   0.0000000
0.0206688     0.9768989  -0.0005334  -0.0087702  -0.0322203   0.0000000   0.0000000   0.0000000   0.0000000
0.0209566     0.9768109  -0.0006328  -0.0088555  -0.0325808   0.0000000   0.0000000   0.0000000   0.0000000
0.0212485     0.9768150  -0.0006737  -0.0089341  -0.0329512   0.0000000   0.0000000   0.0000000   0.0000000
0.0215443     0.9768437  -0.0007308  -0.0089959  -0.0333605   0.0000000   0.0000000   0.0000000   0.0000000
0.0218444     0.9768252  -0.0006750  -0.0090642  -0.0337424   0.0000000   0.0000000   0.0000000   0.0000000
0.0221486     0.9767628  -0.0007117  -0.0091581  -0.0341601   0.0000000   0.0000000   0.0000000   0.0000000
0.0224570     0.9769184  -0.0006862  -0.0092261  -0.0345570   0.0000000   0.0000000   0.0000000   0.0000000
0.0227697     0.9768586  -0.0006781  -0.0092936  -0.0349439   0.0000000   0.0000000   0.0000000   0.0000000
0.0230868     0.9768695  -0.0007268  -0.0093918  -0.0353811   0.0000000   0.0000000   0.0000000   0.0000000
0.0234083     0.9768188  -0.0007464  -0.0094399  -0.0357869   0.0000000   0.0000000   0.0000000   0.0000000
0.0237342     0.9768801  -0.0007305  -0.0095312  -0.0362300   0.0000000   0.0000000   0.0000000   0.0000000
0.0240648     0.9770342  -0.0006520  -0.0096386  -0.0366673   0.0000000   0.0000000   0.0000000   0.0000000
0.0243999     0.9769543  -0.0009065  -0.0096908  -0.0371145   0.0000000   0.0000000   0.0000000   0.0000000
0.0247396     0.9769379  -0.0006882  -0.0097714  -0.0375644   0.0000000   0.0000000   0.0000000   0.0000000
0.0250842     0.9768680  -0.0007726  -0.0098532  -0.0379904   0.0000000   0.0000000   0.0000000   0.0000000
0.0254335     0.9767832  -0.0007202  -0.0099233  -0.0384516   0.0000000   0.0000000   0.0000000   0.0000000
0.0257876     0.9769202  -0.0007402  -0.0100355  -0.0389206   0.0000000   0.0000000   0.0000000   0.0000000
0.0261467     0.9769116  -0.0008102  -0.0100955  -0.0393941   0.0000000   0.0000000   0.0000000   0.0000000
0.0265108     0.9769304  -0.0007911  -0.0102091  -0.0398789   0.0000000   0.0000000   0.0000000   0.0000000
0.0268800     0.9769218  -0.0007804  -0.0103003  -0.0403780   0.0000000   0.0000000   0.0000000   0.0000000
0.0272543     0.9768196  -0.0009296  -0.0103752  -0.0408521   0.0000000   0.0000000   0.0000000   0.0000000
0.0276339     0.9768156  -0.0008389  -0.0104900  -0.0413399   0.0000000   0.0000000   0.0000000   0.0000000
0.0280187     0.9767864  -0.0006834  -0.0105678  -0.0418763   0.0000000   0.0000000   0.0000000   0.0000000
0.0284088     0.9768844  -0.0008088  -0.0106727  -0.0423738   0.0000000   0.0000000   0.0000000   0.0000000
0.0288044     0.9769222  -0.0009068  -0.0107825  -0.0428994   0.0000000   0.0000000   0.0000000   0.0000000
0.0292056     0.9769606  -0.0007414  -0.0108566  -0.0434284   0.0000000   0.0000000   0.0000000   0.0000000
0.0296123     0.9769506  -0.0008021  -0.0109645  -0.0439749   0.0000000   0.0000000   0.0000000   0.0000000
0.0300246     0.9768970  -0.0009228  -0.0110619  -0.0445209   0.0000000   0.0000000   0.0000000   0.0000000
0.0304427     0.9767923  -0.0009751  -0.0111653  -0.0450638   0.0000000   0.0000000   0.0000000   0.0000000
0.0308666     0.9769584  -0.0007490  -0.0112793  -0.0456359   0.0000000   0.0000000   0.0000000   0.0000000
0.0312965     0.9769542  -0.0008760  -0.0113840  -0.0462070   0.0000000   0.0000000   0.0000000   0.0000000
0.0317323     0.9768744  -0.0010235  -0.0115070  -0.0467791   0.0000000   0.0000000   0.0000000   0.0000000
0.0321742     0.9770236  -0.0009096  -0.0116049  -0.0473692   0.0000000   0.0000000   0.0000000   0.0000000
0.0326222     0.9768835  -0.0010381  -0.0117267  -0.0479467   0.0000000   0.0000000   0.0000000   0.0000000
0.0330765     0.9769658  -0.0010153  -0.0118517  -0.0485644   0.0000000   0.0000000   0.0000000   0.0000000
0.0335371     0.9768844  -0.0011115  -0.0119602  -0.0491459   0.0000000   0.0000000   0.0000000   0.0000000
0.0340041     0.9769021  -0.0009687  -0.0120871  -0.0497705   0.0000000   0.0000000   0.0000000   0.0000000
0.0344776     0.9768451  -0.0010274  -0.0122161  -0.0504192   0.0000000   0.0000000   0.0000000   0.0000000
0.0349578     0.9769897  -0.0009646  -0.0123279  -0.0510410   0.0000000   0.0000000   0.0000000   0.0000000
0.0354446     0.9770375  -0.0009327  -0.0124722  -0.0516948   0.0000000   0.0000000   0.0000000   0.0000000
0.0359381     0.9770006  -0.0010278  -0.0126062  -0.0523572   0.0000000   0.0000000   0.0000000   0.0000000
0.0364386     0.9769779  -0.0010496  -0.0127369  -0.0530123   0.0000000   0.0000000   0.0000000   0.0000000
0.0369460     0.9770396  -0.0010601  -0.0128849  -0.0536812   0.0000000   0.0000000   0.0000000   0.0000000
0.0374605     0.9769559  -0.0010946  -0.0130264  -0.0543782   0.0000000   0.0000000   0.0000000   0.0000000
0.0379822     0.9770740  -0.0010948  -0.0131653  -0.0550645   0.0000000   0.0000000   0.0000000   0.0000000
0.0385111     0.9769126  -0.0011556  -0.0133093  -0.0557499   0.0000000   0.0000000   0.0000000   0.0000000
0.0390474     0.9769550  -0.0011335  -0.0134460  -0.0564779   0.0000000   0.0000000   0.0000000   0.0000000
0.0395911     0.9770209  -0.0011427  -0.0136199  -0.0571731   0.0000000   0.0000000   0.0000000   0.0000000
0.0401424     0.9770642  -0.0010882  -0.0137888  -0.0579121   0.0000000   0.0000000   0.0000000   0.0000000
0.0407014     0.9770177  -0.0010860  -0.0139285  -0.0586281   0.0000000   0.0000000   0.0000000   0.0000000
0.0412682     0.9770461  -0.0012501  -0.0141217  -0.0594000   0.0000000   0.0000000   0.0000000   0.0000000
0.0418429     0.9770338  -0.0011749  -0.0142699  -0.0601413   0.0000000   0.0000000   0.0000000   0.0000000
0.0424256     0.9770378  -0.0010931  -0.0144473  -0.0609214   0.0000000   0.0000000   0.0000000   0.0000000
0.0430164     0.9770101  -0.0012150  -0.0146126  -0.0616994   0.0000000   0.0000000   0.0000000   0.0000000
0.0436154     0.9770863  -0.0011282  -0.0147882  -0.0624839   0.0000000   0.0000000   0.0000000   0.0000000
0.0442227     0.9771032  -0.0012808  -0.0149940  -0.0632918   0.0000000   0.0000000   0.0000000   0.0000000
0.0448386     0.9770266  -0.0011997  -0.0151708  -0.0640715   0.0000000   0.0000000   0.0000000   0.0000000
0.0454630     0.9769820  -0.0013185  -0.0153626  -0.0649069   0.0000000   0.0000000   0.0000000   0.0000000
0.0460960     0.9770611  -0.0013443  -0.0155782  -0.0657410   0.0000000   0.0000000   0.0000000   0.0000000
0.0467380     0.9771610  -0.0013302  -0.0157885  -0.0665786   0.0000000   0.0000000   0.0000000   0.0000000
0.0473888     0.9771328  -0.0013551  -0.0159944  -0.0674369   0.0000000   0.0000000   0.0000000   0.0000000
0.0480487     0.9772079  -0.0014346  -0.0162074  -0.0683054   0.0000000   0.0000000   0.0000000   0.0000000
0.0487178     0.9771065  -0.0013881  -0.0164183  -0.0691695   0.0000000   0.0000000   0.0000000   0.0000000
0.0493962     0.9771332  -0.0013459  -0.0166417  -0.0700629   0.0000000   0.0000000   0.0000000   0.0000000
0.0500841     0.9772018  -0.0014655  -0.0168619  -0.0709684   0.0000000   0.0000000   0.0000000   0.0000000
0.0507815     0.9771730  -0.0015447  -0.0171058  -0.0718650   0.0000000   0.0000000   0.0000000   0.0000000
0.0514887     0.9770894  -0.0013847  -0.0173328  -0.0727819   0.0000000   0.0000000   0.0000000   0.0000000
0.0522057     0.9772326  -0.0014801  -0.0176043  -0.0737287   0.0000000   0.0000000   0.0000000   0.0000000
0.0529327     0.9771868  -0.0014876  -0.0178482  -0.0746574   0.0000000   0.0000000   0.0000000   0.0000000
0.0536698     0.9773079  -0.0015326  -0.0181227  -0.0756254   0.0000000   0.0000000   0.0000000   0.0000000
0.0544171     0.9772298  -0.0014462  -0.0183661  -0.0765908   0.0000000   0.0000000   0.0000000   0.0000000
0.0551749     0.9772397  -0.0016042  -0.0186421  -0.0775707   0.0000000   0.0000000   0.0000000   0.0000000
0.0559433     0.9772919  -0.0015858  -0.0189148  -0.0785563   0.0000000   0.0000000   0.0000000   0.0000000
0.0567223     0.9772990  -0.0015404  -0.0191935  -0.0795719   0.0000000   0.0000000   0.0000000   0.0000000
0.0575122     0.9773113  -0.0015874  -0.0194889  -0.0805820   0.0000000   0.0000000   0.0000000   0.0000000
0.0583131     0.9773343  -0.0017143  -0.0197900  -0.0816006   0.0000000   0.0000000   0.0000000   0.0000000
0.0591251     0.9773215  -0.0017313  -0.0200993  -0.0826575   0.0000000   0.0000000   0.0000000   0.0000000
0.0599484     0.9772963  -0.0016501  -0.0204126  -0.0837149   0.0000000   0.0000000   0.0000000   0.0000000
0.0607832     0.9772917  -0.0017155  -0.0207272  -0.0847804   0.0000000   0.0000000   0.0000000   0.0000000
0.0616297     0.9773205  -0.0017239  -0.0210623  -0.0858618   0.0000000   0.0000000   0.0000000   0.0000000
0.0624879     0.9774416  -0.0017548  -0.0213831  -0.0869653   0.0000000   0.0000000   0.0000000   0.0000000
0.0633580     0.9773395  -0.0017167  -0.0217347  -0.0880854   0.0000000   0.0000000   0.0000000   0.0000000
0.0642403     0.9773975  -0.0017169  -0.0221101  -0.0892045   0.0000000   0.0000000   0.0000000   0.0000000
0.0651349     0.9774163  -0.0019485  -0.0224589  -0.0903426   0.0000000   0.0000000   0.0000000   0.0000000
0.0660419     0.9774408  -0.0018429  -0.0228269  -0.0914868   0.0000000   0.0000000   0.0000000   0.0000000
0.0669616     0.9774317  -0.0019447  -0.0231980  -0.0926589   0.0000000   0.0000000   0.0000000   0.0000000
0.0678941     0.9775488  -0.0019964  -0.0235760  -0.0938317   0.0000000   0.0000000   0.0000000   0.0000000
0.0688395     0.9774731  -0.0020178  -0.0239865  -0.0950144   0.0000000   0.0000000   0.0000000   0.0000000
0.0697981     0.9776347  -0.0019799  -0.0243944  -0.0962238   0.0000000   0.0000000   0.0000000   0.0000000
0.0707701     0.9774809  -0.0019952  -0.0247948  -0.0974340   0.0000000   0.0000000   0.0000000   0.0000000
0.0717556     0.9775001  -0.0020698  -0.0252209  -0.0986638   0.0000000   0.0000000   0.0000000   0.0000000
0.0727548     0.9776363  -0.0021373  -0.0256689  -0.0999299   0.0000000   0.0000000   0.0000000   0.0000000
0.0737680     0.9776431  -0.0019427  -0.0261110  -0.1011880   0.0000000   0.0000000   0.0000000   0.0000000
0.0747952     0.9775443  -0.0021387  -0.0265589  -0.1024380   0.0000000   0.0000000   0.0000000   0.0000000
0.0758368     0.9776786  -0.0021836  -0.0270277  -0.1037415   0.0000000   0.0000000   0.0000000   0.0000000
0.0768928     0.9776463  -0.0022298  -0.0275128  -0.1050576   0.0000000   0.0000000   0.0000000   0.0000000
0.0779636     0.9777110  -0.0022642  -0.0279851  -0.1063704   0.0000000   0.0000000   0.0000000   0.0000000
0.0790493     0.9777510  -0.0023754  -0.0285032  -0.1077101   0.0000000   0.0000000   0.0000000   0.0000000
0.0801501     0.9776778  -0.0022948  -0.0289921  -0.1090475   0.0000000   0.0000000   0.0000000   0.0000000
0.0812662     0.9778697  -0.0023574  -0.0295197  -0.1103799   0.0000000   0.0000000   0.0000000   0.0000000
0.0823979     0.9777791  -0.0023365  -0.0300272  -0.1117801   0.0000000   0.0000000   0.0000000   0.0000000
0.0835453     0.9779891  -0.0024229  -0.0305766  -0.1131643   0.0000000   0.0000000   0.0000000   0.0000000
0.0847087     0.9778654  -0.0024897  -0.0311447  -0.1145397   0.0000000   0.0000000   0.0000000   0.0000000
0.0858883     0.9777936  -0.0024561  -0.0317175  -0.1159754   0.0000000   0.0000000   0.0000000   0.0000000
0.0870843     0.9779199  -0.0024976  -0.0322973  -0.1173880   0.0000000   0.0000000   0.0000000   0.0000000
0.0882970     0.9778713  -0.0025751  -0.0328865  -0.1188387   0.0000000   0.0000000   0.0000000   0.0000000
0.0895266     0.9779240  -0.0026814  -0.0335240  -0.1202778   0.0000000   0.0000000   0.0000000   0.0000000
0.0907733     0.9779770  -0.0027102  -0.0341614  -0.1217623   0.0000000   0.0000000   0.0000000   0.0000000
0.0920373     0.9780738  -0.0026673  -0.0348081  -0.1232709   0.0000000   0.0000000   0.0000000   0.0000000
0.0933190     0.9781678  -0.0028208  -0.0354857  -0.1247617   0.0000000   0.0000000   0.0000000   0.0000000
0.0946185     0.9781187  -0.0027953  -0.0361602  -0.1262700   0.0000000   0.0000000   0.0000000   0.0000000
0.0959361     0.9781518  -0.0028276  -0.0368521  -0.1278077   0.0000000   0.0000000   0.0000000   0.0000000
0.0972720     0.9782508  -0.0029893  -0.0375932  -0.1293518   0.0000000   0.0000000   0.0000000   0.0000000
0.0986266     0.9782927  -0.0029651  -0.0382963  -0.1308936   0.0000000   0.0000000   0.0000000   0.0000000
0.1000000     0.9782732  -0.0031774  -0.0390762  -0.1324885   0.0000000   0.0000000   0.0000000   0.0000000
0.1013925     0.9782781  -0.0031769  -0.0398067  -0.1340944   0.0000000   0.0000000   0.0000000   0.0000000
0.1028045     0.9784158  -0.0030590  -0.0406092  -0.1356937   0.0000000   0.0000000   0.0000000   0.0000000
0.1042361     0.9783511  -0.0032295  -0.0413970  -0.1373158   0.0000000   0.0000000   0.0000000   0.0000000
0.1056876     0.9784397  -0.0033027  -0.0422198  -0.1389383   0.0000000   0.0000000   0.0000000   0.0000000
0.1071593     0.9784119  -0.0034112  -0.0430392  -0.1406123   0.0000000   0.0000000   0.0000000   0.0000000
0.1086516     0.9784247  -0.0034550  -0.0438830  -0.1422547   0.0000000   0.0000000   0.0000000   0.0000000
0.1101646     0.9785881  -0.0034147  -0.0447478  -0.1439811   0.0000000   0.0000000   0.0000000   0.0000000
0.1116987     0.9784978  -0.0033957  -0.0456232  -0.1456534   0.0000000   0.0000000   0.0000000   0.0000000
0.1132541     0.9786201  -0.0034864  -0.0465459  -0.1473518   0.0000000   0.0000000   0.0000000   0.0000000
0.1148312     0.9785485  -0.0036247  -0.0474559  -0.1491024   0.0000000   0.0000000   0.0000000   0.0000000
0.1164303     0.9786941  -0.0036551  -0.0484285  -0.1508440   0.0000000   0.0000000   0.0000000   0.0000000
0.1180517     0.9786921  -0.0035599  -0.0493641  -0.1526181   0.0000000   0.0000000   0.0000000   0.0000000
0.1196956     0.9788082  -0.0037293  -0.0503752  -0.1543816   0.0000000   0.0000000   0.0000000   0.0000000
0.1213624     0.9787593  -0.0037684  -0.0513809  -0.1561623   0.0000000   0.0000000   0.0000000   0.0000000
0.1230524     0.9788344  -0.0038654  -0.0524028  -0.1579640   0.0000000   0.0000000   0.0000000   0.0000000
0.1247660     0.9789691  -0.0038893  -0.0534492  -0.1597802   0.0000000   0.0000000   0.0000000   0.0000000
0.1265034     0.9789756  -0.0039976  -0.0545213  -0.1616081   0.0000000   0.0000000   0.0000000   0.0000000
0.1282650     0.9791120  -0.0040671  -0.0556301  -0.1634753   0.0000000   0.0000000   0.0000000   0.0000000
0.1300511     0.9790626  -0.0041609  -0.0567545  -0.1653311   0.0000000   0.0000000   0.0000000   0.0000000
0.1318621     0.9791263  -0.0042122  -0.0578953  -0.1671840   0.0000000   0.0000000   0.0000000   0.0000000
0.1336984     0.9792072  -0.0042102  -0.0590663  -0.1690701   0.0000000   0.0000000   0.0000000   0.0000000
0.1355602     0.9792547  -0.0043727  -0.0602491  -0.1709512   0.0000000   0.0000000   0.0000000   0.0000000
0.1374479     0.9792733  -0.0044049  -0.0614508  -0.1728661   0.0000000   0.0000000   0.0000000   0.0000000
0.1393619     0.9794622  -0.0044955  -0.0626818  -0.1747957   0.0000000   0.0000000   0.0000000   0.0000000
0.1413026     0.9793975  -0.0045496  -0.0639448  -0.1766570   0.0000000   0.0000000   0.0000000   0.0000000
0.1432703     0.9795098  -0.0046637  -0.0652557  -0.1786657   0.0000000   0.0000000   0.0000000   0.0000000
0.1452654     0.9796165  -0.0047518  -0.0665677  -0.1806346   0.0000000   0.0000000   0.0000000   0.0000000
0.1472883     0.9797608  -0.0048604  -0.0679076  -0.1825932   0.0000000   0.0000000   0.0000000   0.0000000
0.1493393     0.9797094  -0.0050932  -0.0692875  -0.1845459   0.0000000   0.0000000   0.0000000   0.0000000
0.1514189     0.9797990  -0.0049599  -0.0707096  -0.1865597   0.0000000   0.0000000   0.0000000   0.0000000
0.1535275     0.9799145  -0.0051853  -0.0721142  -0.1885566   0.0000000   0.0000000   0.0000000   0.0000000
0.1556654     0.9800098  -0.0053407  -0.0735634  -0.1906037   0.0000000   0.0000000   0.0000000   0.0000000
0.1578331     0.9800341  -0.0052395  -0.0750375  -0.1926148   0.0000000   0.0000000   0.0000000   0.0000000
0.1600310     0.9801845  -0.0055486  -0.0765388  -0.1946547   0.0000000   0.0000000   0.0000000   0.0000000
0.1622595     0.9802459  -0.0056459  -0.0781079  -0.1967344   0.0000000   0.0000000   0.0000000   0.0000000
0.1645191     0.9804284  -0.0056593  -0.0796707  -0.1987746   0.0000000   0.0000000   0.0000000   0.0000000
0.1668101     0.9805967  -0.0057750  -0.0812623  -0.2008364   0.0000000   0.0000000   0.0000000   0.0000000
0.1691330     0.9805258  -0.0058458  -0.0828856  -0.2028999   0.0000000   0.0000000   0.0000000   0.0000000
0.1714882     0.9806672  -0.0059451  -0.0845207  -0.2049886   0.0000000   0.0000000   0.0000000   0.0000000
0.1738762     0.9807332  -0.0060798  -0.0862314  -0.2071092   0.0000000   0.0000000   0.0000000   0.0000000
0.1762975     0.9808001  -0.0061972  -0.0879600  -0.2091843   0.0000000   0.0000000   0.0000000   0.0000000
0.1787526     0.9809305  -0.0064044  -0.0897022  -0.2112833   0.0000000   0.0000000   0.0000000   0.0000000
0.1812418     0.9809726  -0.0065547  -0.0914697  -0.2134035   0.0000000   0.0000000   0.0000000   0.0000000
0.1837656     0.9810460  -0.0066321  -0.0932728  -0.2155555   0.0000000   0.0000000   0.0000000   0.0000000
0.1863246     0.9811565  -0.0067795  -0.0951516  -0.2176603   0.0000000   0.0000000   0.0000000   0.0000000
0.1889193     0.9814147  -0.0069129  -0.0970450  -0.2198068   0.0000000   0.0000000   0.0000000   0.0000000
0.1915501     0.9814528  -0.0069812  -0.0989486  -0.2219466   0.0000000   0.0000000   0.0000000   0.0000000
0.1942175     0.9815909  -0.0071835  -0.1008860  -0.2241051   0.0000000   0.0000000   0.0000000   0.0000000
0.1969220     0.9816468  -0.0072978  -0.1028669  -0.2262633   0.0000000   0.0000000   0.0000000   0.0000000
0.1996642     0.9817375  -0.0073879  -0.1048778  -0.2284494   0.0000000   0.0000000   0.0000000   0.0000000
0.2024447     0.9818838  -0.0075669  -0.1069085  -0.2305764   0.0000000   0.0000000   0.0000000   0.0000000
0.2052638     0.9820590  -0.0077054  -0.1090077  -0.2327991   0.0000000   0.0000000   0.0000000   0.0000000
0.2081222     0.9821215  -0.0079154  -0.1111136  -0.2349504   0.0000000   0.0000000   0.0000000   0.0000000
0.2110203     0.9823412  -0.0081191  -0.1132991  -0.2371107   0.0000000   0.0000000   0.0000000   0.0000000
0.2139589     0.9824409  -0.0082199  -0.1154621  -0.2392651   0.0000000   0.0000000   0.0000000   0.0000000
0.2169384     0.9825713  -0.0083733  -0.1176880  -0.2414470   0.0000000   0.0000000   0.0000000   0.0000000
0.2199593     0.9826966  -0.0086020  -0.1199685  -0.2436405   0.0000000   0.0000000   0.0000000   0.0000000
0.2230223     0.9827665  -0.0088073  -0.1222136  -0.2457966   0.0000000   0.0000000   0.0000000   0.0000000
0.2261280     0.9829506  -0.0089513  -0.1245871  -0.2480498   0.0000000   0.0000000   0.0000000   0.0000000
0.2292769     0.9830289  -0.0091303  -0.1269411  -0.2501793   0.0000000   0.0000000   0.0000000   0.0000000
0.2324697     0.9831713  -0.0093233  -0.1293445  -0.2523779   0.0000000   0.0000000   0.0000000   0.0000000
0.2357069     0.9833598  -0.0095295  -0.1318227  -0.2545724   0.0000000   0.0000000   0.0000000   0.0000000
0.2389893     0.9835173  -0.0097290  -0.1343142  -0.2567741   0.0000000   0.0000000   0.0000000   0.0000000
0.2423173     0.9835723  -0.0099668  -0.1368213  -0.2589501   0.0000000   0.0000000   0.0000000   0.0000000
0.2456916     0.9838171  -0.0101336  -0.1393915  -0.2611438   0.0000000   0.0000000   0.0000000   0.0000000
0.2491130     0.9839347  -0.0103963  -0.1419931  -0.2633438   0.0000000   0.0000000   0.0000000   0.0000000
0.2525820     0.9841209  -0.0106536  -0.1446520  -0.2654991   0.0000000   0.0000000   0.0000000   0.0000000
0.2560993     0.9843463  -0.0107905  -0.1473047  -0.2676687   0.0000000   0.0000000   0.0000000   0.0000000
0.2596656     0.9845152  -0.0110411  -0.1500495  -0.2698606   0.0000000   0.0000000   0.0000000   0.0000000
0.2632815     0.9846980  -0.0114509  -0.1528589  -0.2720083   0.0000000   0.0000000   0.0000000   0.0000000
0.2669478     0.9847972  -0.0116621  -0.1555918  -0.2741712   0.0000000   0.0000000   0.0000000   0.0000000
0.2706652     0.9849132  -0.0118782  -0.1584455  -0.2762994   0.0000000   0.0000000   0.0000000   0.0000000
0.2744343     0.9851849  -0.0120367  -0.1613492  -0.2784421   0.0000000   0.0000000   0.0000000   0.0000000
0.2782559     0.9853038  -0.0123989  -0.1642883  -0.2806162   0.0000000   0.0000000   0.0000000   0.0000000
0.2821308     0.9855458  -0.0126806  -0.1672425  -0.2827212   0.0000000   0.0000000   0.0000000   0.0000000
0.2860596     0.9857060  -0.0129560  -0.1702638  -0.2848071   0.0000000   0.0000000   0.0000000   0.0000000
0.2900430     0.9858990  -0.0132872  -0.1733273  -0.2869755   0.0000000   0.0000000   0.0000000   0.0000000
0.2940820     0.9860486  -0.0134803  -0.1764035  -0.2890705   0.0000000   0.0000000   0.0000000   0.0000000
0.2981772     0.9862501  -0.0138802  -0.1795968  -0.2911539   0.0000000   0.0000000   0.0000000   0.0000000
0.3023295     0.9865071  -0.0142299  -0.1828000  -0.2932352   0.0000000   0.0000000   0.0000000   0.0000000
0.3065395     0.9866927  -0.0144619  -0.1860239  -0.2952860   0.0000000   0.0000000   0.0000000   0.0000000
0.3108082     0.9869077  -0.0148801  -0.1893147  -0.2973481   0.0000000   0.0000000   0.0000000   0.0000000
0.3151363     0.9869677  -0.0151333  -0.1926278  -0.2993542   0.0000000   0.0000000   0.0000000   0.0000000
0.3195248     0.9872145  -0.0155729  -0.1959920  -0.3013529   0.0000000   0.0000000   0.0000000   0.0000000
0.3239743     0.9874273  -0.0158702  -0.1993892  -0.3033573   0.0000000   0.0000000   0.0000000   0.0000000
0.3284857     0.9876760  -0.0161591  -0.2028715  -0.3053381   0.0000000   0.0000000   0.0000000   0.0000000
0.3330600     0.9879745  -0.0166074  -0.2064142  -0.3073447   0.0000000   0.0000000   0.0000000   0.0000000
0.3376980     0.9881124  -0.0169811  -0.2099656  -0.3092560   0.0000000   0.0000000   0.0000000   0.0000000
0.3424006     0.9883925  -0.0173901  -0.2135628  -0.3111590   0.0000000   0.0000000   0.0000000   0.0000000
0.3471687     0.9886191  -0.0177805  -0.2171921  -0.3130512   0.0000000   0.0000000   0.0000000   0.0000000
0.3520031     0.9888567  -0.0181881  -0.2208592  -0.3149235   0.0000000   0.0000000   0.0000000   0.0000000
0.3569049     0.9891439  -0.0186194  -0.2246485  -0.3167958   0.0000000   0.0000000   0.0000000   0.0000000
0.3618750     0.9892140  -0.0190101  -0.2284546  -0.3186216   0.0000000   0.0000000   0.0000000   0.0000000
0.3669142     0.9894959  -0.0195044  -0.2322748  -0.3203954   0.0000000   0.0000000   0.0000000   0.0000000
0.3720237     0.9897510  -0.0199163  -0.2361460  -0.3221230   0.0000000   0.0000000   0.0000000   0.0000000
0.3772042     0.9899818  -0.0204381  -0.2400466  -0.3238079   0.0000000   0.0000000   0.0000000   0.0000000
0.3824570     0.9901890  -0.0208395  -0.2440587  -0.3255788   0.0000000   0.0000000   0.0000000   0.0000000
0.3877828     0.9904759  -0.0213828  -0.2480864  -0.3272166   0.0000000   0.0000000   0.0000000   0.0000000
0.3931829     0.9907205  -0.0219138  -0.2520884  -0.3287913   0.0000000   0.0000000   0.0000000   0.0000000
0.3986581     0.9909379  -0.0224439  -0.2562323  -0.3303387   0.0000000   0.0000000   0.0000000   0.0000000
0.4042096     0.9911622  -0.0229672  -0.2603692  -0.3319053   0.0000000   0.0000000   0.0000000   0.0000000
0.4098384     0.9915043  -0.0234733  -0.2645647  -0.3334487   0.0000000   0.0000000   0.0000000   0.0000000
0.4155455     0.9917224  -0.0239964  -0.2687981  -0.3348829   0.0000000   0.0000000   0.0000000   0.0000000
0.4213322     0.9919696  -0.0246647  -0.2731070  -0.3363137   0.0000000   0.0000000   0.0000000   0.0000000
0.4271994     0.9922074  -0.0251909  -0.2774264  -0.3377029   0.0000000   0.0000000   0.0000000   0.0000000
0.4331483     0.9923969  -0.0257490  -0.2817276  -0.3390255   0.0000000   0.0000000   0.0000000   0.0000000
0.4391801     0.9926161  -0.0263254  -0.2861267  -0.3402942   0.0000000   0.0000000   0.0000000   0.0000000
0.4452959     0.9928627  -0.0270044  -0.2905414  -0.3415276   0.0000000   0.0000000   0.0000000   0.0000000
0.4514968     0.9931376  -0.0275535  -0.2950215  -0.3427385   0.0000000   0.0000000   0.0000000   0.0000000
0.4577841     0.9934110  -0.0282946  -0.2995073  -0.3438790   0.0000000   0.0000000   0.0000000   0.0000000
0.4641589     0.9935785  -0.0289275  -0.3040384  -0.3449329   0.0000000   0.0000000   0.0000000   0.0000000
0.4706225     0.9939254  -0.0296459  -0.3086123  -0.3459667   0.0000000   0.0000000   0.0000000   0.0000000
0.4771761     0.9942496  -0.0303283  -0.3131907  -0.3470022   0.0000000   0.0000000   0.0000000   0.0000000
0.4838210     0.9944024  -0.0309729  -0.3177897  -0.3479095   0.0000000   0.0000000   0.0000000   0.0000000
0.4905584     0.9947243  -0.0317686  -0.3225287  -0.3487980   0.0000000   0.0000000   0.0000000   0.0000000
0.4973896     0.9949407  -0.0325833  -0.3272430  -0.3495873   0.0000000   0.0000000   0.0000000   0.0000000
0.5043159     0.9951096  -0.0331491  -0.3319042  -0.3503152   0.0000000   0.0000000   0.0000000   0.0000000
0.5113388     0.9954938  -0.0340261  -0.3367216  -0.3511118   0.0000000   0.0000000   0.0000000   0.0000000
0.5184594     0.9955931  -0.0347438  -0.3414513  -0.3516834   0.0000000   0.0000000   0.0000000   0.0000000
0.5256791     0.9959050  -0.0357053  -0.3462806  -0.3523030   0.0000000   0.0000000   0.0000000   0.0000000
0.5329994     0.9962157  -0.0364460  -0.3511285  -0.3527896   0.0000000   0.0000000   0.0000000   0.0000000
0.5404216     0.9963037  -0.0372967  -0.3559221  -0.3532052   0.0000000   0.0000000   0.0000000   0.0000000
0.5479472     0.9966002  -0.0381324  -0.3607999  -0.3536210   0.0000000   0.0000000   0.0000000   0.0000000
0.5555776     0.9967425  -0.0390157  -0.3656209  -0.3539523   0.0000000   0.0000000   0.0000000   0.0000000
0.5633143     0.9970473  -0.0399603  -0.3705625  -0.3541812   0.0000000   0.0000000   0.0000000   0.0000000
0.5711586     0.9972226  -0.0408200  -0.3754515  -0.3544102   0.0000000   0.0000000   0.0000000   0.0000000
0.5791123     0.9974553  -0.0417553  -0.3804117  -0.3545277   0.0000000   0.0000000   0.0000000   0.0000000
0.5871766     0.9976961  -0.0426962  -0.3853704  -0.3545852   0.0000000   0.0000000   0.0000000   0.0000000
0.5953533     0.9979143  -0.0436665  -0.3903362  -0.3546112   0.0000000   0.0000000   0.0000000   0.0000000
0.6036439     0.9981074  -0.0446819  -0.3953666  -0.3545405   0.0000000   0.0000000   0.0000000   0.0000000
0.6120498     0.9983460  -0.0456092  -0.4003614  -0.3544015   0.0000000   0.0000000   0.0000000   0.0000000
0.6205729     0.9985401  -0.0467194  -0.4053192  -0.3542189   0.0000000   0.0000000   0.0000000   0.0000000
0.6292146     0.9986169  -0.0477769  -0.4103291  -0.3539450   0.0000000   0.0000000   0.0000000   0.0000000
0.6379767     0.9989070  -0.0488173  -0.4153893  -0.3536316   0.0000000   0.0000000   0.0000000   0.0000000
0.6468608     0.9990210  -0.0498999  -0.4202952  -0.3531933   0.0000000   0.0000000   0.0000000   0.0000000
0.6558686     0.9992466  -0.0510787  -0.4253524  -0.3526631   0.0000000   0.0000000   0.0000000   0.0000000
0.6650018     0.9993505  -0.0521219  -0.4302883  -0.3521346   0.0000000   0.0000000   0.0000000   0.0000000
0.6742622     0.9995284  -0.0533043  -0.4353160  -0.3514929   0.0000000   0.0000000   0.0000000   0.0000000
0.6836516     0.9995131  -0.0544288  -0.4402673  -0.3507669   0.0000000   0.0000000   0.0000000   0.0000000
0.6931717     0.9997816  -0.0555957  -0.4452938  -0.3500633   0.0000000   0.0000000   0.0000000   0.0000000
0.7028244     0.9997902  -0.0568728  -0.4503503  -0.3491957   0.0000000   0.0000000   0.0000000   0.0000000
0.7126115     1.0000145  -0.0581264  -0.4553706  -0.3482991   0.0000000   0.0000000   0.0000000   0.0000000
0.7225349     1.0000580  -0.0593347  -0.4603208  -0.3473413   0.0000000   0.0000000   0.0000000   0.0000000
0.7325965     1.0001938  -0.0606130  -0.4652830  -0.3462661   0.0000000   0.0000000   0.0000000   0.0000000
0.7427982     1.0002926  -0.0618810  -0.4702324  -0.3451983   0.0000000   0.0000000   0.0000000   0.0000000
0.7531420     1.0002360  -0.0632574  -0.4752030  -0.3438816   0.0000000   0.0000000   0.0000000   0.0000000
0.7636298     1.0003786  -0.0646949  -0.4801705  -0.3426992   0.0000000   0.0000000   0.0000000   0.0000000
0.7742637     1.0003706  -0.0660269  -0.4850150  -0.3413470   0.0000000   0.0000000   0.0000000   0.0000000
0.7850456     1.0003982  -0.0674170  -0.4898627  -0.3399222   0.0000000   0.0000000   0.0000000   0.0000000
0.7959777     1.0005038  -0.0688271  -0.4946970  -0.3384140   0.0000000   0.0000000   0.0000000   0.0000000
0.8070620     1.0005086  -0.0701733  -0.4994880  -0.3369170   0.0000000   0.0000000   0.0000000   0.0000000
0.8183007     1.0005507  -0.0715583  -0.5043400  -0.3352953   0.0000000   0.0000000   0.0000000   0.0000000
0.8296959     1.0004925  -0.0731014  -0.5091509  -0.3336311   0.0000000   0.0000000   0.0000000   0.0000000
0.8412497     1.0003899  -0.0745985  -0.5138118  -0.3318454   0.0000000   0.0000000   0.0000000   0.0000000
0.8529644     1.0003900  -0.0761306  -0.5185651  -0.3300244   0.0000000   0.0000000   0.0000000   0.0000000
0.8648423     1.0002515  -0.0776918  -0.5232850  -0.3281922   0.0000000   0.0000000   0.0000000   0.0000000
0.8768856     1.0001658  -0.0791428  -0.5278804  -0.3261889   0.0000000   0.0000000   0.0000000   0.0000000
0.8890966     1.0000301  -0.0807318  -0.5325147  -0.3241995   0.0000000   0.0000000   0.0000000   0.0000000
0.9014776     0.9999037  -0.0825305  -0.5371393  -0.3220789   0.0000000   0.0000000   0.0000000   0.0000000
0.9140311     0.9997291  -0.0841094  -0.5416504  -0.3199783   0.0000000   0.0000000   0.0000000   0.0000000
0.9267593     0.9995561  -0.0856971  -0.5462084  -0.3177727   0.0000000   0.0000000   0.0000000   0.0000000
0.9396648     0.9993454  -0.0873528  -0.5506239  -0.3154579   0.0000000   0.0000000   0.0000000   0.0000000
0.9527500     0.9992152  -0.0890643  -0.5550270  -0.3131679   0.0000000   0.0000000   0.0000000   0.0000000
0.9660175     0.9989555  -0.0907029  -0.5593500  -0.3108052   0.0000000   0.0000000   0.0000000   0.0000000
0.9794697     0.9988724  -0.0924388  -0.5636805  -0.3083697   0.0000000   0.0000000   0.0000000   0.0000000
0.9931092     0.9984886  -0.0944071  -0.5679865  -0.3058012   0.0000000   0.0000000   0.0000000   0.0000000
1.0069386     0.9981263  -0.0961104  -0.5722702  -0.3032416   0.0000000   0.0000000   0.0000000   0.0000000
1.0209607     0.9979307  -0.0980110  -0.5765090  -0.3006345   0.0000000   0.0000000   0.0000000   0.0000000
1.0351780     0.9975319  -0.0997195  -0.5805582  -0.2979899   0.0000000   0.0000000   0.0000000   0.0000000
1.0495932     0.9971263  -0.1015963  -0.5845872  -0.2952080   0.0000000   0.0000000   0.0000000   0.0000000
1.0642092     0.9967208  -0.1034527  -0.5886815  -0.2925002   0.0000000   0.0000000   0.0000000   0.0000000
1.0790288     0.9964405  -0.1053217  -0.5925380  -0.2896212   0.0000000   0.0000000   0.0000000   0.0000000
1.0940547     0.9960329  -0.1071249  -0.5964620  -0.2867931   0.0000000   0.0000000   0.0000000   0.0000000
1.1092899     0.9954165  -0.1091929  -0.6003428  -0.2837638   0.0000000   0.0000000   0.0000000   0.0000000
1.1247372     0.9950135  -0.1111527  -0.6042585  -0.2808703   0.0000000   0.0000000   0.0000000   0.0000000
1.1403996     0.9944225  -0.1130957  -0.6079791  -0.2777884   0.0000000   0.0000000   0.0000000   0.0000000
1.1562801     0.9940027  -0.1150894  -0.6116645  -0.2746872   0.0000000   0.0000000   0.0000000   0.0000000
1.1723818     0.9933929  -0.1171566  -0.6152164  -0.2716011   0.0000000   0.0000000   0.0000000   0.0000000
1.1887077     0.9927294  -0.1191477  -0.6187925  -0.2684004   0.0000000   0.0000000   0.0000000   0.0000000
1.2052609     0.9921297  -0.1211199  -0.6223216  -0.2652780   0.0000000   0.0000000   0.0000000   0.0000000
1.2220447     0.9915067  -0.1232522  -0.6257509  -0.2620762   0.0000000   0.0000000   0.0000000   0.0000000
1.2390622     0.9908023  -0.1252922  -0.6290703  -0.2587265   0.0000000   0.0000000   0.0000000   0.0000000
1.2563166     0.9899870  -0.1274047  -0.6323922  -0.2555056   0.0000000   0.0000000   0.0000000   0.0000000
1.2738113     0.9893449  -0.1295289  -0.6356497  -0.2521278   0.0000000   0.0000000   0.0000000   0.0000000
1.2915497     0.9885201  -0.1316516  -0.6388743  -0.2486737   0.0000000   0.0000000   0.0000000   0.0000000
1.3095350     0.9876238  -0.1338875  -0.6419762  -0.2452508   0.0000000   0.0000000   0.0000000   0.0000000
1.3277708     0.9867811  -0.1359167  -0.6450066  -0.2418478   0.0000000   0.0000000   0.0000000   0.0000000
1.3462606     0.9859379  -0.1382083  -0.6480368  -0.2384217   0.0000000   0.0000000   0.0000000   0.0000000
1.3650078     0.9850217  -0.1403961  -0.6509522  -0.2348709   0.0000000   0.0000000   0.0000000   0.0000000
1.3840161     0.9840315  -0.1426627  -0.6538236  -0.2313648   0.0000000   0.0000000   0.0000000   0.0000000
1.4032891     0.9830015  -0.1447271  -0.6565197  -0.2277977   0.0000000   0.0000000   0.0000000   0.0000000
1.4228305     0.9819031  -0.1469324  -0.6592484  -0.2242062   0.0000000   0.0000000   0.0000000   0.0000000
1.4426440     0.9810695  -0.1493562  -0.6619773  -0.2206052   0.0000000   0.0000000   0.0000000   0.0000000
1.4627334     0.9798327  -0.1516021  -0.6644750  -0.2170378   0.0000000   0.0000000   0.0000000   0.0000000
1.4831025     0.9786055  -0.1539431  -0.6670261  -0.2133334   0.0000000   0.0000000   0.0000000   0.0000000
1.5037553     0.9774889  -0.1561703  -0.6694677  -0.2096970   0.0000000   0.0000000   0.0000000   0.0000000
1.5246957     0.9761207  -0.1586054  -0.6717989  -0.2060360   0.0000000   0.0000000   0.0000000   0.0000000
1.5459277     0.9749205  -0.1608990  -0.6741335  -0.2023517   0.0000000   0.0000000   0.0000000   0.0000000
1.5674554     0.9736467  -0.1632296  -0.6764251  -0.1986338   0.0000000   0.0000000   0.0000000   0.0000000
1.5892829     0.9723529  -0.1655466  -0.6784594  -0.1949386   0.0000000   0.0000000   0.0000000   0.0000000
1.6114143     0.9708778  -0.1679041  -0.6805911  -0.1912213   0.0000000   0.0000000   0.0000000   0.0000000
1.6338539     0.9695062  -0.1701948  -0.6825934  -0.1875281   0.0000000   0.0000000   0.0000000   0.0000000
1.6566060     0.9680030  -0.1725367  -0.6846044  -0.1837794   0.0000000   0.0000000   0.0000000   0.0000000
1.6796749     0.9665233  -0.1749004  -0.6864337  -0.1801355   0.0000000   0.0000000   0.0000000   0.0000000
1.7030650     0.9650299  -0.1772731  -0.6881841  -0.1763694   0.0000000   0.0000000   0.0000000   0.0000000
1.7267809     0.9633898  -0.1796511  -0.6899550  -0.1726969   0.0000000   0.0000000   0.0000000   0.0000000
1.7508270     0.9617515  -0.1820655  -0.6917245  -0.1689385   0.0000000   0.0000000   0.0000000   0.0000000
1.7752080     0.9600436  -0.1845896  -0.6932497  -0.1652332   0.0000000   0.0000000   0.0000000   0.0000000
1.7999285     0.9583387  -0.1868742  -0.6947787  -0.1615483   0.0000000   0.0000000   0.0000000   0.0000000
1.8249932     0.9565130  -0.1893329  -0.6961970  -0.1578831   0.0000000   0.0000000   0.0000000   0.0000000
1.8504070     0.9547737  -0.1917138  -0.6976976  -0.1541975   0.0000000   0.0000000   0.0000000   0.0000000
1.8761747     0.9528535  -0.1941452  -0.6989790  -0.1505178   0.0000000   0.0000000   0.0000000   0.0000000
1.9023012     0.9509787  -0.1965674  -0.7002692  -0.1468131   0.0000000   0.0000000   0.0000000   0.0000000
1.9287915     0.9490003  -0.1989620  -0.7016128  -0.1431020   0.0000000   0.0000000   0.0000000   0.0000000
1.9556507     0.9470448  -0.2014438  -0.7028708  -0.1395273   0.0000000   0.0000000   0.0000000   0.0000000
1.9828839     0.9450131  -0.2038100  -0.7039956  -0.1359175   0.0000000   0.0000000   0.0000000   0.0000000
2.0104964     0.9428399  -0.2062655  -0.7051171  -0.1321436   0.0000000   0.0000000   0.0000000   0.0000000
2.0384934     0.9407044  -0.2086899  -0.7061895  -0.1284838   0.0000000   0.0000000   0.0000000   0.0000000
2.0668802     0.9385152  -0.2110376  -0.7072041  -0.1248305   0.0000000   0.0000000   0.0000000   0.0000000
2.0956624     0.9360789  -0.2134581  -0.7080389  -0.1210434   0.0000000   0.0000000   0.0000000   0.0000000
2.1248454     0.9338654  -0.2158576  -0.7090158  -0.1174295   0.0000000   0.0000000   0.0000000   0.0000000
2.1544347     0.9315167  -0.2182310  -0.7098441  -0.1137520   0.0000000   0.0000000   0.0000000   0.0000000
2.1844361     0.9292447  -0.2206996  -0.7106795  -0.1100817   0.0000000   0.0000000   0.0000000   0.0000000
2.2148552     0.9266076  -0.2230336  -0.7112835  -0.1064105   0.0000000   0.0000000   0.0000000   0.0000000
2.2456980     0.9241802  -0.2254230  -0.7118989  -0.1028324   0.0000000   0.0000000   0.0000000   0.0000000
2.2769703     0.9216125  -0.2277437  -0.7124303  -0.0992383   0.0000000   0.0000000   0.0000000   0.0000000
2.3086780     0.9188783  -0.2300251  -0.7129021  -0.0955439   0.0000000   0.0000000   0.0000000   0.0000000
2.3408273     0.9162492  -0.2323150  -0.7133633  -0.0919494   0.0000000   0.0000000   0.0000000   0.0000000
2.3734243     0.9134913  -0.2346446  -0.7137543  -0.0883124   0.0000000   0.0000000   0.0000000   0.0000000
2.4064752     0.9108115  -0.2369051  -0.7140457  -0.0848324   0.0000000   0.0000000   0.0000000   0.0000000
2.4399863     0.9079795  -0.2391037  -0.7142129  -0.0812726   0.0000000   0.0000000   0.0000000   0.0000000
2.4739641     0.9050897  -0.2413216  -0.7143860  -0.0777606   0.0000000   0.0000000   0.0000000   0.0000000
2.5084151     0.9020835  -0.2435020  -0.7144506  -0.0742292   0.0000000   0.0000000   0.0000000   0.0000000
2.5433458     0.8992137  -0.2457020  -0.7145549  -0.0708024   0.0000000   0.0000000   0.0000000   0.0000000
2.5787629     0.8962038  -0.2478358  -0.7144685  -0.0673752   0.0000000   0.0000000   0.0000000   0.0000000
2.6146732     0.8931852  -0.2499444  -0.7144705  -0.0639756   0.0000000   0.0000000   0.0000000   0.0000000
2.6510836     0.8899331  -0.2518722  -0.7142733  -0.0605791   0.0000000   0.0000000   0.0000000   0.0000000
2.6880010     0.8866988  -0.2539833  -0.7140299  -0.0571687   0.0000000   0.0000000   0.0000000   0.0000000
2.7254325     0.8834994  -0.2561071  -0.7138679  -0.0538272   0.0000000   0.0000000   0.0000000   0.0000000
2.7633853     0.8803858  -0.2581321  -0.7136280  -0.0505275   0.0000000   0.0000000   0.0000000   0.0000000
2.8018666     0.8769769  -0.2600180  -0.7132625  -0.0473399   0.0000000   0.0000000   0.0000000   0.0000000
2.8408837     0.8736837  -0.2620166  -0.7129225  -0.0440381   0.0000000   0.0000000   0.0000000   0.0000000
2.8804442     0.8702379  -0.2639518  -0.7124871  -0.0408143   0.0000000   0.0000000   0.0000000   0.0000000
2.9205555     0.8668883  -0.2656860  -0.7119351  -0.0376913   0.0000000   0.0000000   0.0000000   0.0000000
2.9612254     0.8634525  -0.2675882  -0.7114504  -0.0346138   0.0000000   0.0000000   0.0000000   0.0000000
3.0024617     0.8598786  -0.2692972  -0.7108027  -0.0314751   0.0000000   0.0000000   0.0000000   0.0000000
3.0442722     0.8562876  -0.2711031  -0.7102091  -0.0284558   0.0000000   0.0000000   0.0000000   0.0000000
3.0866649     0.8527369  -0.2726939  -0.7094613  -0.0254197   0.0000000   0.0000000   0.0000000   0.0000000
3.1296480     0.8491445  -0.2744480  -0.7088139  -0.0225314   0.0000000   0.0000000   0.0000000   0.0000000
3.1732296     0.8453468  -0.2760220  -0.7080226  -0.0194470   0.0000000   0.0000000   0.0000000   0.0000000
3.2174182     0.8415944  -0.2775922  -0.7071664  -0.0166091   0.0000000   0.0000000   0.0000000   0.0000000
3.2622220     0.8379170  -0.2790717  -0.7063021  -0.0137646   0.0000000   0.0000000   0.0000000   0.0000000
3.3076498     0.8342053  -0.2805632  -0.7054025  -0.0109980   0.0000000   0.0000000   0.0000000   0.0000000
3.3537102     0.8303413  -0.2820044  -0.7044652  -0.0081556   0.0000000   0.0000000   0.0000000   0.0000000
3.4004119     0.8265322  -0.2832979  -0.7035440  -0.0054448   0.0000000   0.0000000   0.0000000   0.0000000
3.4477641     0.8226281  -0.2846655  -0.7025314  -0.0027592   0.0000000   0.0000000   0.0000000   0.0000000
3.4957756     0.8187002  -0.2859534  -0.7013787  -0.0000980   0.0000000   0.0000000   0.0000000   0.0000000
3.5444557     0.8148110  -0.2870938  -0.7003201   0.0025571   0.0000000   0.0000000   0.0000000   0.0000000
3.5938137     0.8108100  -0.2882739  -0.6992952   0.0050934   0.0000000   0.0000000   0.0000000   0.0000000
3.6438590     0.8068335  -0.2894379  -0.6981263   0.0076018   0.0000000   0.0000000   0.0000000   0.0000000
3.6946012     0.8028073  -0.2904525  -0.6969016   0.0100528   0.0000000   0.0000000   0.0000000   0.0000000
3.7460500     0.7987299  -0.2915194  -0.6957239   0.0124450   0.0000000   0.0000000   0.0000000   0.0000000
3.7982153     0.7946176  -0.2923719  -0.6944300   0.0148917   0.0000000   0.0000000   0.0000000   0.0000000
3.8511070     0.7905671  -0.2933254  -0.6931777   0.0172334   0.0000000   0.0000000   0.0000000   0.0000000
3.9047352     0.7864373  -0.2942057  -0.6918921   0.0195161   0.0000000   0.0000000   0.0000000   0.0000000
3.9591103     0.7823683  -0.2949053  -0.6904664   0.0216909   0.0000000   0.0000000   0.0000000   0.0000000
4.0142425     0.7782340  -0.2956949  -0.6891821   0.0239290   0.0000000   0.0000000   0.0000000   0.0000000
4.0701425     0.7740282  -0.2963529  -0.6877676   0.0260667   0.0000000   0.0000000   0.0000000   0.0000000
4.1268208     0.7699636  -0.2968901  -0.6864076   0.0281798   0.0000000   0.0000000   0.0000000   0.0000000
4.1842885     0.7657701  -0.2974154  -0.6850575   0.0302779   0.0000000   0.0000000   0.0000000   0.0000000
4.2425564     0.7615771  -0.2979798  -0.6835410   0.0322240   0.0000000   0.0000000   0.0000000   0.0000000
4.3016358     0.7574295  -0.2983266  -0.6820495   0.0341984   0.0000000   0.0000000   0.0000000   0.0000000
4.3615378     0.7532060  -0.2986291  -0.6805442   0.0360465   0.0000000   0.0000000   0.0000000   0.0000000
4.4222740     0.7490309  -0.2989803  -0.6790781   0.0379892   0.0000000   0.0000000   0.0000000   0.0000000
4.4838559     0.7448839  -0.2992644  -0.6775959   0.0398313   0.0000000   0.0000000   0.0000000   0.0000000
4.5462955     0.7405883  -0.2994487  -0.6760879   0.0415620   0.0000000   0.0000000   0.0000000   0.0000000
4.6096045     0.7364094  -0.2994865  -0.6745269   0.0432875   0.0000000   0.0000000   0.0000000   0.0000000
4.6737951     0.7322521  -0.2996948  -0.6730031   0.0450388   0.0000000   0.0000000   0.0000000   0.0000000
4.7388796     0.7281459  -0.2996617  -0.6714289   0.0466506   0.0000000   0.0000000   0.0000000   0.0000000
4.8048704     0.7239585  -0.2996285  -0.6698934   0.0482061   0.0000000   0.0000000   0.0000000   0.0000000
4.8717802     0.7196829  -0.2994501  -0.6682718   0.0497554   0.0000000   0.0000000   0.0000000   0.0000000
4.9396217     0.7154717  -0.2992988  -0.6666938   0.0513125   0.0000000   0.0000000   0.0000000   0.0000000
5.0084080     0.7114799  -0.2991668  -0.6650846   0.0527533   0.0000000   0.0000000   0.0000000   0.0000000
5.0781521     0.7072754  -0.2988471  -0.6634660   0.0541317   0.0000000   0.0000000   0.0000000   0.0000000
5.1488675     0.7031012  -0.2985411  -0.6619222   0.0555424   0.0000000   0.0000000   0.0000000   0.0000000
5.2205675     0.6990328  -0.2980939  -0.6603588   0.0568582   0.0000000   0.0000000   0.0000000   0.0000000
5.2932661     0.6948166  -0.2977053  -0.6587422   0.0581222   0.0000000   0.0000000   0.0000000   0.0000000
5.3669769     0.6908544  -0.2972003  -0.6571249   0.0594186   0.0000000   0.0000000   0.0000000   0.0000000
5.4417143     0.6867943  -0.2965976  -0.6554933   0.0605880   0.0000000   0.0000000   0.0000000   0.0000000
5.5174924     0.6828117  -0.2960792  -0.6539256   0.0617039   0.0000000   0.0000000   0.0000000   0.0000000
5.5943257     0.6788106  -0.2953742  -0.6522645   0.0628521   0.0000000   0.0000000   0.0000000   0.0000000
5.6722290     0.6748511  -0.2946880  -0.6507309   0.0639192   0.0000000   0.0000000   0.0000000   0.0000000
5.7512171     0.6707506  -0.2939456  -0.6491325   0.0649825   0.0000000   0.0000000   0.0000000   0.0000000
5.8313051     0.6669162  -0.2932564  -0.6475093   0.0659631   0.0000000   0.0000000   0.0000000   0.0000000
5.9125084     0.6630503  -0.2923155  -0.6458891   0.0669296   0.0000000   0.0000000   0.0000000   0.0000000
5.9948425     0.6591671  -0.2914315  -0.6443386   0.0678208   0.0000000   0.0000000   0.0000000   0.0000000
6.0783231     0.6553214  -0.2904603  -0.6427688   0.0687055   0.0000000   0.0000000   0.0000000   0.0000000
6.1629663     0.6514839  -0.2894585  -0.6412165   0.0695827   0.0000000   0.0000000   0.0000000   0.0000000
6.2487881     0.6476796  -0.2884204  -0.6396693   0.0703995   0.0000000   0.0000000   0.0000000   0.0000000
6.3358050     0.6440091  -0.2873616  -0.6380784   0.0711866   0.0000000   0.0000000   0.0000000   0.0000000
6.4240337     0.6403423  -0.2862499  -0.6366064   0.0719098   0.0000000   0.0000000   0.0000000   0.0000000
6.5134909     0.6365826  -0.2851080  -0.6350894   0.0725642   0.0000000   0.0000000   0.0000000   0.0000000
6.6041940     0.6329222  -0.2839095  -0.6335336   0.0733074   0.0000000   0.0000000   0.0000000   0.0000000
6.6961601     0.6294062  -0.2826728  -0.6320710   0.0739200   0.0000000   0.0000000   0.0000000   0.0000000
6.7894068     0.6258552  -0.2814943  -0.6305632   0.0745427   0.0000000   0.0000000   0.0000000   0.0000000
6.8839521     0.6222542  -0.2801104  -0.6290662   0.0751393   0.0000000   0.0000000   0.0000000   0.0000000
6.9798139     0.6187632  -0.2787304  -0.6275838   0.0756872   0.0000000   0.0000000   0.0000000   0.0000000
7.0770107     0.6152966  -0.2773352  -0.6261561   0.0761925   0.0000000   0.0000000   0.0000000   0.0000000
7.1755609     0.6119937  -0.2760632  -0.6247225   0.0766987   0.0000000   0.0000000   0.0000000   0.0000000
7.2754835     0.6085798  -0.2745581  -0.6232531   0.0771988   0.0000000   0.0000000   0.0000000   0.0000000
7.3767976     0.6052713  -0.2731454  -0.6218544   0.0776578   0.0000000   0.0000000   0.0000000   0.0000000
7.4795225     0.6019588  -0.2716427  -0.6204877   0.0780602   0.0000000   0.0000000   0.0000000   0.0000000
7.5836779     0.5986621  -0.2700900  -0.6190998   0.0784568   0.0000000   0.0000000   0.0000000   0.0000000
7.6892837     0.5955058  -0.2686474  -0.6178100   0.0788411   0.0000000   0.0000000   0.0000000   0.0000000
7.7963601     0.5924381  -0.2671406  -0.6164460   0.0792130   0.0000000   0.0000000   0.0000000   0.0000000
7.9049276     0.5892848  -0.2653960  -0.6150646   0.0795638   0.0000000   0.0000000   0.0000000   0.0000000
8.0150070     0.5862681  -0.2639117  -0.6137968   0.0798403   0.0000000   0.0000000   0.0000000   0.0000000
8.1266192     0.5832651  -0.2623044  -0.6125097   0.0801155   0.0000000   0.0000000   0.0000000   0.0000000
8.2397857     0.5802773  -0.2606527  -0.6111794   0.0803963   0.0000000   0.0000000   0.0000000   0.0000000
8.3545281     0.5773134  -0.2588772  -0.6099265   0.0806344   0.0000000   0.0000000   0.0000000   0.0000000
8.4708683     0.5744221  -0.2572602  -0.6087476   0.0809157   0.0000000   0.0000000   0.0000000   0.0000000
8.5888286     0.5715928  -0.2556146  -0.6074933   0.0811118   0.0000000   0.0000000   0.0000000   0.0000000
8.7084315     0.5687536  -0.2538755  -0.6062919   0.0813274   0.0000000   0.0000000   0.0000000   0.0000000
8.8297000     0.5660660  -0.2521364  -0.6051042   0.0815328   0.0000000   0.0000000   0.0000000   0.0000000
8.9526571     0.5633110  -0.2503612  -0.6039539   0.0816888   0.0000000   0.0000000   0.0000000   0.0000000
9.0773265     0.5606568  -0.2486772  -0.6028224   0.0818709   0.0000000   0.0000000   0.0000000   0.0000000
9.2037320     0.5581380  -0.2469876  -0.6016694   0.0820322   0.0000000   0.0000000   0.0000000   0.0000000
9.3318977     0.5554785  -0.2452268  -0.6005390   0.0821089   0.0000000   0.0000000   0.0000000   0.0000000
9.4618482     0.5528722  -0.2435054  -0.5994963   0.0823124   0.0000000   0.0000000   0.0000000   0.0000000
9.5936083     0.5504972  -0.2416139  -0.5983899   0.0823736   0.0000000   0.0000000   0.0000000   0.0000000
9.7272032     0.5479098  -0.2398829  -0.5973253   0.0824851   0.0000000   0.0000000   0.0000000   0.0000000
9.8626585     0.5455643  -0.2381860  -0.5962870   0.0825981   0.0000000   0.0000000   0.0000000   0.0000000
10.0000000    0.5430492  -0.2363702  -0.5952876   0.0826739   0.0000000   0.0000000   0.0000000   0.0000000
10.1392541    0.5407711  -0.2345835  -0.5942996   0.0827677   0.0000000   0.0000000   0.0000000   0.0000000
10.2804473    0.5384720  -0.2327198  -0.5933563   0.0828576   0.0000000   0.0000000   0.0000000   0.0000000
10.4236067    0.5363041  -0.2310412  -0.5923552   0.0828800   0.0000000   0.0000000   0.0000000   0.0000000
10.5687597    0.5340805  -0.2293214  -0.5914321   0.0829918   0.0000000   0.0000000   0.0000000   0.0000000
10.7159340    0.5318689  -0.2274811  -0.5905173   0.0830407   0.0000000   0.0000000   0.0000000   0.0000000
10.8651577    0.5297214  -0.2257030  -0.5896068   0.0831011   0.0000000   0.0000000   0.0000000   0.0000000
11.0164595    0.5275960  -0.2239544  -0.5887598   0.0831384   0.0000000   0.0000000   0.0000000   0.0000000
11.1698682    0.5256301  -0.2220752  -0.5878664   0.0831632   0.0000000   0.0000000   0.0000000   0.0000000
11.3254132    0.5236305  -0.2205056  -0.5870093   0.0832189   0.0000000   0.0000000   0.0000000   0.0000000
11.4831241    0.5216847  -0.2187754  -0.5861597   0.0832686   0.0000000   0.0000000   0.0000000   0.0000000
11.6430313    0.5196188  -0.2168767  -0.5853138   0.0833318   0.0000000   0.0000000   0.0000000   0.0000000
11.8051653    0.5178588  -0.2151427  -0.5844854   0.0833425   0.0000000   0.0000000   0.0000000   0.0000000
11.9695570    0.5159327  -0.2133795  -0.5836783   0.0833918   0.0000000   0.0000000   0.0000000   0.0000000
12.1362380    0.5141691  -0.2117403  -0.5829323   0.0834346   0.0000000   0.0000000   0.0000000   0.0000000
12.3052400    0.5122771  -0.2100342  -0.5822260   0.0835269   0.0000000   0.0000000   0.0000000   0.0000000
12.4765955    0.5104692  -0.2082378  -0.5814677   0.0835043   0.0000000   0.0000000   0.0000000   0.0000000
12.6503372    0.5087428  -0.2065993  -0.5807633   0.0835606   0.0000000   0.0000000   0.0000000   0.0000000
12.8264983    0.5070964  -0.2048264  -0.5800532   0.0836533   0.0000000   0.0000000   0.0000000   0.0000000
13.0051125    0.5053719  -0.2031643  -0.5793428   0.0836970   0.0000000   0.0000000   0.0000000   0.0000000
13.1862140    0.5037853  -0.2015100  -0.5786507   0.0837475   0.0000000   0.0000000   0.0000000   0.0000000
13.3698374    0.5021719  -0.1998722  -0.5780073   0.0837645   0.0000000   0.0000000   0.0000000   0.0000000
13.5560179    0.5005952  -0.1982192  -0.5773714   0.0838357   0.0000000   0.0000000   0.0000000   0.0000000
13.7447909    0.4991139  -0.1966392  -0.5767311   0.0839405   0.0000000   0.0000000   0.0000000   0.0000000
13.9361927    0.4976303  -0.1950067  -0.5761417   0.0839707   0.0000000   0.0000000   0.0000000   0.0000000
14.1302599    0.4962115  -0.1934625  -0.5755126   0.0840674   0.0000000   0.0000000   0.0000000   0.0000000
14.3270295    0.4946575  -0.1918334  -0.5749555   0.0841541   0.0000000   0.0000000   0.0000000   0.0000000
14.5265393    0.4932417  -0.1902363  -0.5743805   0.0842804   0.0000000   0.0000000   0.0000000   0.0000000
14.7288272    0.4918801  -0.1887435  -0.5738126   0.0843360   0.0000000   0.0000000   0.0000000   0.0000000
14.9339322    0.4905616  -0.1870814  -0.5731988   0.0844792   0.0000000   0.0000000   0.0000000   0.0000000
15.1418933    0.4892819  -0.1855574  -0.5726505   0.0846026   0.0000000   0.0000000   0.0000000   0.0000000
15.3527503    0.4877744  -0.1840627  -0.5721591   0.0847249   0.0000000   0.0000000   0.0000000   0.0000000
15.5665436    0.4865029  -0.1825334  -0.5716139   0.0848553   0.0000000   0.0000000   0.0000000   0.0000000
15.7833141    0.4853276  -0.1810996  -0.5710902   0.0849827   0.0000000   0.0000000   0.0000000   0.0000000
16.0031031    0.4840858  -0.1795743  -0.5706214   0.0851487   0.0000000   0.0000000   0.0000000   0.0000000
16.2259529    0.4829605  -0.1782802  -0.5701396   0.0852359   0.0000000   0.0000000   0.0000000   0.0000000
16.4519059    0.4816854  -0.1767033  -0.5697004   0.0854862   0.0000000   0.0000000   0.0000000   0.0000000
16.6810054    0.4805256  -0.1753531  -0.5692362   0.0856472   0.0000000   0.0000000   0.0000000   0.0000000
16.9132952    0.4793432  -0.1739477  -0.5687994   0.0858336   0.0000000   0.0000000   0.0000000   0.0000000
17.1488197    0.4782696  -0.1725833  -0.5683735   0.0860472   0.0000000   0.0000000   0.0000000   0.0000000
17.3876240    0.4771728  -0.1711894  -0.5679942   0.0862807   0.0000000   0.0000000   0.0000000   0.0000000
17.6297538    0.4761006  -0.1699001  -0.5675796   0.0864665   0.0000000   0.0000000   0.0000000   0.0000000
17.8752553    0.4749591  -0.1685367  -0.5671236   0.0866944   0.0000000   0.0000000   0.0000000   0.0000000
18.1241755    0.4739480  -0.1671418  -0.5667300   0.0869565   0.0000000   0.0000000   0.0000000   0.0000000
18.3765620    0.4729327  -0.1659084  -0.5663422   0.0872045   0.0000000   0.0000000   0.0000000   0.0000000
18.6324631    0.4719506  -0.1646363  -0.5660025   0.0874625   0.0000000   0.0000000   0.0000000   0.0000000
18.8919278    0.4708953  -0.1633837  -0.5656132   0.0877692   0.0000000   0.0000000   0.0000000   0.0000000
19.1550056    0.4700884  -0.1621641  -0.5651911   0.0880484   0.0000000   0.0000000   0.0000000   0.0000000
19.4217468    0.4689473  -0.1609192  -0.5648372   0.0883826   0.0000000   0.0000000   0.0000000   0.0000000
19.6922026    0.4680813  -0.1597231  -0.5645161   0.0887290   0.0000000   0.0000000   0.0000000   0.0000000
19.9664245    0.4671431  -0.1585441  -0.5642057   0.0890341   0.0000000   0.0000000   0.0000000   0.0000000
20.2444651    0.4663111  -0.1573214  -0.5638633   0.0893925   0.0000000   0.0000000   0.0000000   0.0000000
20.5263775    0.4653402  -0.1562375  -0.5635912   0.0897918   0.0000000   0.0000000   0.0000000   0.0000000
20.8122157    0.4645025  -0.1550747  -0.5632963   0.0901444   0.0000000   0.0000000   0.0000000   0.0000000
21.1020343    0.4635713  -0.1539794  -0.5629723   0.0905631   0.0000000   0.0000000   0.0000000   0.0000000
21.3958887    0.4627835  -0.1529166  -0.5626520   0.0909898   0.0000000   0.0000000   0.0000000   0.0000000
21.6938352    0.4619948  -0.1517884  -0.5623447   0.0913968   0.0000000   0.0000000   0.0000000   0.0000000
21.9959307    0.4611092  -0.1507023  -0.5620833   0.0918592   0.0000000   0.0000000   0.0000000   0.0000000
22.3022330    0.4603728  -0.1497737  -0.5617618   0.0923324   0.0000000   0.0000000   0.0000000   0.0000000
22.6128007    0.4596309  -0.1487533  -0.5614945   0.0927684   0.0000000   0.0000000   0.0000000   0.0000000
22.9276931    0.4588662  -0.1476826  -0.5611681   0.0933179   0.0000000   0.0000000   0.0000000   0.0000000
23.2469706    0.4581002  -0.1466831  -0.5609508   0.0938104   0.0000000   0.0000000   0.0000000   0.0000000
23.5706941    0.4572776  -0.1458460  -0.5606754   0.0943240   0.0000000   0.0000000   0.0000000   0.0000000
23.8989257    0.4566398  -0.1448630  -0.5604691   0.0949067   0.0000000   0.0000000   0.0000000   0.0000000
24.2317279    0.4558037  -0.1438420  -0.5601661   0.0954421   0.0000000   0.0000000   0.0000000   0.0000000
24.5691646    0.4551238  -0.1429508  -0.5598899   0.0960767   0.0000000   0.0000000   0.0000000   0.0000000
24.9113003    0.4543325  -0.1421246  -0.5597058   0.0966652   0.0000000   0.0000000   0.0000000   0.0000000
25.2582003    0.4537241  -0.1412242  -0.5595084   0.0972997   0.0000000   0.0000000   0.0000000   0.0000000
25.6099310    0.4530097  -0.1403241  -0.5592710   0.0979488   0.0000000   0.0000000   0.0000000   0.0000000
25.9665597    0.4523545  -0.1395413  -0.5589847   0.0985780   0.0000000   0.0000000   0.0000000   0.0000000
26.3281547    0.4516690  -0.1386838  -0.5588184   0.0993093   0.0000000   0.0000000   0.0000000   0.0000000
26.6947849    0.4509478  -0.1378483  -0.5585943   0.1000017   0.0000000   0.0000000   0.0000000   0.0000000
27.0665207    0.4503018  -0.1371304  -0.5584009   0.1007324   0.0000000   0.0000000   0.0000000   0.0000000
27.4434330    0.4497114  -0.1363684  -0.5581372   0.1014770   0.0000000   0.0000000   0.0000000   0.0000000
27.8255940    0.4489683  -0.1355524  -0.5579134   0.1022154   0.0000000   0.0000000   0.0000000   0.0000000
28.2130768    0.4483957  -0.1348925  -0.5577140   0.1030188   0.0000000   0.0000000   0.0000000   0.0000000
28.6059554    0.4478056  -0.1340721  -0.5574712   0.1037770   0.0000000   0.0000000   0.0000000   0.0000000
29.0043049    0.4471804  -0.1334364  -0.5573104   0.1046756   0.0000000   0.0000000   0.0000000   0.0000000
29.4082017    0.4465025  -0.1326130  -0.5571418   0.1055142   0.0000000   0.0000000   0.0000000   0.0000000
29.8177229    0.4459206  -0.1320737  -0.5569202   0.1063715   0.0000000   0.0000000   0.0000000   0.0000000
30.2329468    0.4453781  -0.1314376  -0.5566944   0.1072672   0.0000000   0.0000000   0.0000000   0.0000000
30.6539530    0.4448345  -0.1308177  -0.5565073   0.1081746   0.0000000   0.0000000   0.0000000   0.0000000
31.0808217    0.4442340  -0.1301622  -0.5562776   0.1091280   0.0000000   0.0000000   0.0000000   0.0000000
31.5136348    0.4435570  -0.1295094  -0.5560602   0.1101007   0.0000000   0.0000000   0.0000000   0.0000000
31.9524751    0.4430449  -0.1289457  -0.5558384   0.1110270   0.0000000   0.0000000   0.0000000   0.0000000
32.3974263    0.4425477  -0.1283861  -0.5556517   0.1120641   0.0000000   0.0000000   0.0000000   0.0000000
32.8485737    0.4419623  -0.1278613  -0.5554309   0.1130872   0.0000000   0.0000000   0.0000000   0.0000000
33.3060034    0.4413893  -0.1272988  -0.5551870   0.1141507   0.0000000   0.0000000   0.0000000   0.0000000
33.7698031    0.4408089  -0.1267701  -0.5549789   0.1152329   0.0000000   0.0000000   0.0000000   0.0000000
34.2400614    0.4403621  -0.1262625  -0.5547758   0.1162971   0.0000000   0.0000000   0.0000000   0.0000000
34.7168682    0.4397951  -0.1256112  -0.5545654   0.1174648   0.0000000   0.0000000   0.0000000   0.0000000
35.2003147    0.4392915  -0.1251557  -0.5543436   0.1186671   0.0000000   0.0000000   0.0000000   0.0000000
35.6904935    0.4387986  -0.1247968  -0.5540997   0.1198187   0.0000000   0.0000000   0.0000000   0.0000000
36.1874981    0.4383338  -0.1243605  -0.5538178   0.1210388   0.0000000   0.0000000   0.0000000   0.0000000
36.6914238    0.4377812  -0.1238738  -0.5536236   0.1222413   0.0000000   0.0000000   0.0000000   0.0000000
37.2023668    0.4372578  -0.1234921  -0.5533716   0.1235190   0.0000000   0.0000000   0.0000000   0.0000000
37.7204249    0.4367539  -0.1230764  -0.5529698   0.1248050   0.0000000   0.0000000   0.0000000   0.0000000
38.2456972    0.4362457  -0.1227096  -0.5528336   0.1260930   0.0000000   0.0000000   0.0000000   0.0000000
38.7782841    0.4358621  -0.1223097  -0.5525705   0.1274551   0.0000000   0.0000000   0.0000000   0.0000000
39.3182876    0.4353839  -0.1220154  -0.5523221   0.1287856   0.0000000   0.0000000   0.0000000   0.0000000
39.8658107    0.4349159  -0.1215941  -0.5520242   0.1301934   0.0000000   0.0000000   0.0000000   0.0000000
40.4209584    0.4344460  -0.1213296  -0.5517391   0.1316017   0.0000000   0.0000000   0.0000000   0.0000000
40.9838367    0.4339666  -0.1210106  -0.5514700   0.1330391   0.0000000   0.0000000   0.0000000   0.0000000
41.5545533    0.4335322  -0.1207487  -0.5511525   0.1345287   0.0000000   0.0000000   0.0000000   0.0000000
42.1332174    0.4331566  -0.1204301  -0.5508330   0.1360459   0.0000000   0.0000000   0.0000000   0.0000000
42.7199397    0.4326190  -0.1201736  -0.5505635   0.1375811   0.0000000   0.0000000   0.0000000   0.0000000
43.3148322    0.4322021  -0.1198359  -0.5501956   0.1391631   0.0000000   0.0000000   0.0000000   0.0000000
43.9180089    0.4317343  -0.1196838  -0.5499209   0.1407603   0.0000000   0.0000000   0.0000000   0.0000000
44.5295851    0.4314063  -0.1194131  -0.5495995   0.1423801   0.0000000   0.0000000   0.0000000   0.0000000
45.1496777    0.4308155  -0.1192904  -0.5492753   0.1440358   0.0000000   0.0000000   0.0000000   0.0000000
45.7784054    0.4304833  -0.1190835  -0.5489149   0.1457421   0.0000000   0.0000000   0.0000000   0.0000000
46.4158883    0.4300438  -0.1189445  -0.5485286   0.1474470   0.0000000   0.0000000   0.0000000   0.0000000
47.0622485    0.4297321  -0.1187727  -0.5481427   0.1492252   0.0000000   0.0000000   0.0000000   0.0000000
47.7176095    0.4292390  -0.1186035  -0.5477179   0.1510028   0.0000000   0.0000000   0.0000000   0.0000000
48.3820966    0.4288285  -0.1184820  -0.5472770   0.1527945   0.0000000   0.0000000   0.0000000   0.0000000
49.0558371    0.4284822  -0.1184516  -0.5468276   0.1546344   0.0000000   0.0000000   0.0000000   0.0000000
49.7389596    0.4280384  -0.1183077  -0.5464209   0.1564977   0.0000000   0.0000000   0.0000000   0.0000000
50.4315949    0.4276249  -0.1183010  -0.5459567   0.1584384   0.0000000   0.0000000   0.0000000   0.0000000
51.1338754    0.4272945  -0.1182794  -0.5454893   0.1603722   0.0000000   0.0000000   0.0000000   0.0000000
51.8459354    0.4269481  -0.1181682  -0.5449876   0.1623807   0.0000000   0.0000000   0.0000000   0.0000000
52.5679112    0.4265408  -0.1181403  -0.5444632   0.1643795   0.0000000   0.0000000   0.0000000   0.0000000
53.2999408    0.4262329  -0.1181908  -0.5439360   0.1664296   0.0000000   0.0000000   0.0000000   0.0000000
54.0421642    0.4258033  -0.1182361  -0.5434394   0.1685103   0.0000000   0.0000000   0.0000000   0.0000000
54.7947234    0.4253975  -0.1182895  -0.5428647   0.1706399   0.0000000   0.0000000   0.0000000   0.0000000
55.5577622    0.4250652  -0.1183104  -0.5422766   0.1727561   0.0000000   0.0000000   0.0000000   0.0000000
56.3314267    0.4247142  -0.1184086  -0.5416461   0.1749572   0.0000000   0.0000000   0.0000000   0.0000000
57.1158648    0.4244296  -0.1185616  -0.5410405   0.1771553   0.0000000   0.0000000   0.0000000   0.0000000
57.9112265    0.4241360  -0.1185948  -0.5403893   0.1794166   0.0000000   0.0000000   0.0000000   0.0000000
58.7176639    0.4236313  -0.1188021  -0.5397038   0.1817312   0.0000000   0.0000000   0.0000000   0.0000000
59.5353313    0.4233629  -0.1188970  -0.5389952   0.1840417   0.0000000   0.0000000   0.0000000   0.0000000
60.3643851    0.4230439  -0.1192133  -0.5382675   0.1864152   0.0000000   0.0000000   0.0000000   0.0000000
61.2049837    0.4227193  -0.1193789  -0.5375615   0.1887806   0.0000000   0.0000000   0.0000000   0.0000000
62.0572881    0.4223497  -0.1195085  -0.5367837   0.1912648   0.0000000   0.0000000   0.0000000   0.0000000
62.9214611    0.4219673  -0.1198277  -0.5359653   0.1937218   0.0000000   0.0000000   0.0000000   0.0000000
63.7976681    0.4217365  -0.1201514  -0.5351432   0.1962449   0.0000000   0.0000000   0.0000000   0.0000000
64.6860766    0.4213091  -0.1204043  -0.5343261   0.1987986   0.0000000   0.0000000   0.0000000   0.0000000
65.5868566    0.4210787  -0.1207198  -0.5334338   0.2013878   0.0000000   0.0000000   0.0000000   0.0000000
66.5001803    0.4207498  -0.1210147  -0.5324583   0.2040091   0.0000000   0.0000000   0.0000000   0.0000000
67.4262224    0.4203942  -0.1213817  -0.5315439   0.2067150   0.0000000   0.0000000   0.0000000   0.0000000
68.3651600    0.4199954  -0.1217586  -0.5305335   0.2094189   0.0000000   0.0000000   0.0000000   0.0000000
69.3171728    0.4196978  -0.1221996  -0.5294649   0.2122141   0.0000000   0.0000000   0.0000000   0.0000000
70.2824426    0.4195007  -0.1226918  -0.5282257   0.2148943   0.0000000   0.0000000   0.0000000   0.0000000
71.2611543    0.4190436  -0.1231827  -0.5274367   0.2176499   0.0000000   0.0000000   0.0000000   0.0000000
72.2534949    0.4186378  -0.1236485  -0.5263073   0.2205577   0.0000000   0.0000000   0.0000000   0.0000000
73.2596543    0.4182790  -0.1241308  -0.5252415   0.2234619   0.0000000   0.0000000   0.0000000   0.0000000
74.2798248    0.4180328  -0.1246491  -0.5236830   0.2265026   0.0000000   0.0000000   0.0000000   0.0000000
75.3142017    0.4176294  -0.1251441  -0.5224803   0.2294350   0.0000000   0.0000000   0.0000000   0.0000000
76.3629826    0.4173127  -0.1258296  -0.5212259   0.2324259   0.0000000   0.0000000   0.0000000   0.0000000
77.4263683    0.4169071  -0.1264461  -0.5198780   0.2354961   0.0000000   0.0000000   0.0000000   0.0000000
78.5045620    0.4164511  -0.1270677  -0.5184599   0.2385747   0.0000000   0.0000000   0.0000000   0.0000000
79.5977700    0.4160917  -0.1278026  -0.5170205   0.2416982   0.0000000   0.0000000   0.0000000   0.0000000
80.7062014    0.4156650  -0.1284757  -0.5155117   0.2448664   0.0000000   0.0000000   0.0000000   0.0000000
81.8300682    0.4152625  -0.1291299  -0.5139391   0.2480596   0.0000000   0.0000000   0.0000000   0.0000000
82.9695852    0.4148117  -0.1298930  -0.5123783   0.2513045   0.0000000   0.0000000   0.0000000   0.0000000
84.1249705    0.4143804  -0.1306933  -0.5106601   0.2545860   0.0000000   0.0000000   0.0000000   0.0000000
85.2964450    0.4138519  -0.1314811  -0.5089545   0.2578532   0.0000000   0.0000000   0.0000000   0.0000000
86.4842328    0.4133855  -0.1323407  -0.5071474   0.2612371   0.0000000   0.0000000   0.0000000   0.0000000
87.6885609    0.4129683  -0.1331005  -0.5052843   0.2646125   0.0000000   0.0000000   0.0000000   0.0000000
88.9096599    0.4123668  -0.1340657  -0.5033770   0.2680380   0.0000000   0.0000000   0.0000000   0.0000000
90.1477631    0.4117972  -0.1350089  -0.5014432   0.2714966   0.0000000   0.0000000   0.0000000   0.0000000
91.4031075    0.4112607  -0.1358956  -0.4993976   0.2749815   0.0000000   0.0000000   0.0000000   0.0000000
92.6759330    0.4107159  -0.1368254  -0.4972547   0.2784602   0.0000000   0.0000000   0.0000000   0.0000000
93.9664831    0.4101618  -0.1377490  -0.4951172   0.2820461   0.0000000   0.0000000   0.0000000   0.0000000
95.2750047    0.4095459  -0.1387876  -0.4929041   0.2856744   0.0000000   0.0000000   0.0000000   0.0000000
96.6017480    0.4088217  -0.1398431  -0.4904430   0.2893655   0.0000000   0.0000000   0.0000000   0.0000000
97.9469667    0.4079666  -0.1410162  -0.4879465   0.2929271   0.0000000   0.0000000   0.0000000   0.0000000
99.3109181    0.4072213  -0.1419257  -0.4854983   0.2965008   0.0000000   0.0000000   0.0000000   0.0000000
100.6938631   0.4062682  -0.1429476  -0.4830031   0.3002160   0.0000000   0.0000000   0.0000000   0.0000000
102.0960662   0.4055861  -0.1440827  -0.4803430   0.3038825   0.0000000   0.0000000   0.0000000   0.0000000
103.5177956   0.4047627  -0.1449937  -0.4776044   0.3075973   0.0000000   0.0000000   0.0000000   0.0000000
104.9593231   0.4038137  -0.1462056  -0.4747790   0.3113296   0.0000000   0.0000000   0.0000000   0.0000000
106.4209244   0.4037289  -0.1473658  -0.4718686   0.3158499   0.0000000   0.0000000   0.0000000   0.0000000
107.9028792   0.4021182  -0.1482620  -0.4690024   0.3188852   0.0000000   0.0000000   0.0000000   0.0000000
109.4054707   0.4010399  -0.1493816  -0.4658725   0.3222357   0.0000000   0.0000000   0.0000000   0.0000000
110.9289865   0.3998512  -0.1507436  -0.4626921   0.3264393   0.0000000   0.0000000   0.0000000   0.0000000
112.4737178   0.3987770  -0.1517998  -0.4594236   0.3302687   0.0000000   0.0000000   0.0000000   0.0000000
114.0399602   0.3977214  -0.1528455  -0.4560623   0.3341106   0.0000000   0.0000000   0.0000000   0.0000000
115.6280131   0.3965420  -0.1540501  -0.4525766   0.3378848   0.0000000   0.0000000   0.0000000   0.0000000
117.2381803   0.3954594  -0.1551370  -0.4490439   0.3417344   0.0000000   0.0000000   0.0000000   0.0000000
118.8707698   0.3943214  -0.1563549  -0.4453387   0.3455517   0.0000000   0.0000000   0.0000000   0.0000000
120.5260937   0.3929230  -0.1573657  -0.4415888   0.3493877   0.0000000   0.0000000   0.0000000   0.0000000
122.2044687   0.3917217  -0.1584826  -0.4377755   0.3531627   0.0000000   0.0000000   0.0000000   0.0000000
123.9062157   0.3901559  -0.1596503  -0.4338186   0.3570110   0.0000000   0.0000000   0.0000000   0.0000000
125.6316602   0.3891041  -0.1608523  -0.4297068   0.3607970   0.0000000   0.0000000   0.0000000   0.0000000
127.3811323   0.3876135  -0.1619053  -0.4255132   0.3644822   0.0000000   0.0000000   0.0000000   0.0000000
129.1549665   0.3859929  -0.1630518  -0.4212674   0.3682175   0.0000000   0.0000000   0.0000000   0.0000000
130.9535020   0.3845473  -0.1640025  -0.4168803   0.3719655   0.0000000   0.0000000   0.0000000   0.0000000
132.7770829   0.3829539  -0.1650883  -0.4123737   0.3756109   0.0000000   0.0000000   0.0000000   0.0000000
134.6260579   0.3813291  -0.1663647  -0.4077683   0.3795364   0.0000000   0.0000000   0.0000000   0.0000000
136.5007807   0.3798284  -0.1677069  -0.4028529   0.3831300   0.0000000   0.0000000   0.0000000   0.0000000
138.4016097   0.3774857  -0.1687135  -0.3979163   0.3865596   0.0000000   0.0000000   0.0000000   0.0000000
140.3289085   0.3754631  -0.1695349  -0.3929727   0.3899840   0.0000000   0.0000000   0.0000000   0.0000000
142.2830457   0.3735565  -0.1701410  -0.3879271   0.3932565   0.0000000   0.0000000   0.0000000   0.0000000
144.2643951   0.3714675  -0.1713585  -0.3822480   0.3971058   0.0000000   0.0000000   0.0000000   0.0000000
146.2733356   0.3700659  -0.1722877  -0.3774876   0.3999877   0.0000000   0.0000000   0.0000000   0.0000000
148.3102514   0.3678277  -0.1731393  -0.3719295   0.4032920   0.0000000   0.0000000   0.0000000   0.0000000
150.3755321   0.3654349  -0.1738284  -0.3663952   0.4065219   0.0000000   0.0000000   0.0000000   0.0000000
152.4695727   0.3631932  -0.1744661  -0.3607672   0.4095957   0.0000000   0.0000000   0.0000000   0.0000000
154.5927736   0.3608906  -0.1752206  -0.3549896   0.4124802   0.0000000   0.0000000   0.0000000   0.0000000
156.7455410   0.3586922  -0.1758235  -0.3490810   0.4152830   0.0000000   0.0000000   0.0000000   0.0000000
158.9282866   0.3564305  -0.1764410  -0.3430620   0.4179356   0.0000000   0.0000000   0.0000000   0.0000000
161.1414277   0.3540597  -0.1754319  -0.3370672   0.4172176   0.0000000   0.0000000   0.0000000   0.0000000
163.3853878   0.3510343  -0.1772582  -0.3305546   0.4229527   0.0000000   0.0000000   0.0000000   0.0000000
165.6605959   0.3485437  -0.1773641  -0.3248856   0.4251509   0.0000000   0.0000000   0.0000000   0.0000000
167.9674872   0.3461143  -0.1774115  -0.3186377   0.4271790   0.0000000   0.0000000   0.0000000   0.0000000
170.3065029   0.3431254  -0.1773473  -0.3125216   0.4290815   0.0000000   0.0000000   0.0000000   0.0000000
172.6780904   0.3404921  -0.1772051  -0.3064210   0.4308395   0.0000000   0.0000000   0.0000000   0.0000000
175.0827032   0.3376611  -0.1768429  -0.3000810   0.4323723   0.0000000   0.0000000   0.0000000   0.0000000
177.5208012   0.3347857  -0.1763966  -0.2941936   0.4338995   0.0000000   0.0000000   0.0000000   0.0000000
179.9928507   0.3320924  -0.1746009  -0.2884817   0.4342856   0.0000000   0.0000000   0.0000000   0.0000000
182.4993245   0.3295970  -0.1746754  -0.2819485   0.4364540   0.0000000   0.0000000   0.0000000   0.0000000
185.0407020   0.3269313  -0.1733971  -0.2761587   0.4373014   0.0000000   0.0000000   0.0000000   0.0000000
187.6174691   0.3240923  -0.1721827  -0.2705349   0.4380797   0.0000000   0.0000000   0.0000000   0.0000000
190.2301189   0.3217932  -0.1705947  -0.2650266   0.4388852   0.0000000   0.0000000   0.0000000   0.0000000
192.8791508   0.3197680  -0.1687877  -0.2596917   0.4396122   0.0000000   0.0000000   0.0000000   0.0000000
195.5650716   0.3171705  -0.1667140  -0.2546493   0.4404099   0.0000000   0.0000000   0.0000000   0.0000000
198.2883949   0.3153291  -0.1644042  -0.2497806   0.4416699   0.0000000   0.0000000   0.0000000   0.0000000
201.0496416   0.3141124  -0.1613897  -0.2450464   0.4420175   0.0000000   0.0000000   0.0000000   0.0000000
203.8493398   0.3130586  -0.1583643  -0.2404337   0.4430123   0.0000000   0.0000000   0.0000000   0.0000000
206.6880250   0.3122934  -0.1554244  -0.2363342   0.4442452   0.0000000   0.0000000   0.0000000   0.0000000
209.5662399   0.3120398  -0.1523491  -0.2323046   0.4456681   0.0000000   0.0000000   0.0000000   0.0000000
212.4845352   0.3131561  -0.1488358  -0.2286100   0.4473277   0.0000000   0.0000000   0.0000000   0.0000000
215.4434690   0.3136580  -0.1461965  -0.2247169   0.4503120   0.0000000   0.0000000   0.0000000   0.0000000
218.4436071   0.3163234  -0.1434299  -0.2212376   0.4520782   0.0000000   0.0000000   0.0000000   0.0000000
221.4855234   0.3188795  -0.1411507  -0.2170835   0.4560283   0.0000000   0.0000000   0.0000000   0.0000000
224.5697996   0.3216872  -0.1394892  -0.2128430   0.4598748   0.0000000   0.0000000   0.0000000   0.0000000
227.6970255   0.3252527  -0.1386499  -0.2080815   0.4641169   0.0000000   0.0000000   0.0000000   0.0000000
230.8677994   0.3290869  -0.1387819  -0.2028940   0.4686829   0.0000000   0.0000000   0.0000000   0.0000000
234.0827276   0.3331674  -0.1390673  -0.1969227   0.4733816   0.0000000   0.0000000   0.0000000   0.0000000
237.3424250   0.3365662  -0.1400034  -0.1906331   0.4785149   0.0000000   0.0000000   0.0000000   0.0000000
240.6475150   0.3404543  -0.1426181  -0.1838223   0.4835231   0.0000000   0.0000000   0.0000000   0.0000000
243.9986297   0.3446954  -0.1451483  -0.1765367   0.4888385   0.0000000   0.0000000   0.0000000   0.0000000
247.3964101   0.3474799  -0.1497245  -0.1683880   0.4946081   0.0000000   0.0000000   0.0000000   0.0000000
250.8415059   0.3492456  -0.1536726  -0.1578232   0.4984884   0.0000000   0.0000000   0.0000000   0.0000000
254.3345761   0.3528963  -0.1567802  -0.1501465   0.5037705   0.0000000   0.0000000   0.0000000   0.0000000
257.8762888   0.3544285  -0.1630276  -0.1392652   0.5080066   0.0000000   0.0000000   0.0000000   0.0000000
261.4673212   0.3559169  -0.1681207  -0.1286892   0.5117133   0.0000000   0.0000000   0.0000000   0.0000000
265.1083602   0.3536138  -0.1752840  -0.1168221   0.5145536   0.0000000   0.0000000   0.0000000   0.0000000
268.8001022   0.3530622  -0.1802203  -0.1059182   0.5157726   0.0000000   0.0000000   0.0000000   0.0000000
272.5432531   0.3515101  -0.1826033  -0.0950768   0.5180169   0.0000000   0.0000000   0.0000000   0.0000000
276.3385290   0.3507887  -0.1860125  -0.0841622   0.5199082   0.0000000   0.0000000   0.0000000   0.0000000
280.1866556   0.3526491  -0.1910988  -0.0730058   0.5218326   0.0000000   0.0000000   0.0000000   0.0000000
284.0883690   0.3517716  -0.1963644  -0.0613966   0.5229558   0.0000000   0.0000000   0.0000000   0.0000000
288.0444153   0.3502248  -0.1994539  -0.0472808   0.5246392   0.0000000   0.0000000   0.0000000   0.0000000
292.0555512   0.3490419  -0.2059701  -0.0368583   0.5242804   0.0000000   0.0000000   0.0000000   0.0000000
296.1225438   0.3479512  -0.2077339  -0.0241188   0.5241726   0.0000000   0.0000000   0.0000000   0.0000000
300.2461709   0.3422725  -0.2174011  -0.0110823   0.5246104   0.0000000   0.0000000   0.0000000   0.0000000
304.4272212   0.3445868  -0.2209755  -0.0015248   0.5218826   0.0000000   0.0000000   0.0000000   0.0000000
308.6664943   0.3447765  -0.2251671   0.0134349   0.5215455   0.0000000   0.0000000   0.0000000   0.0000000
312.9648011   0.3345436  -0.2171880   0.0260870   0.5209048   0.0000000   0.0000000   0.0000000   0.0000000
317.3229635   0.3380277  -0.2216146   0.0421003   0.5238644   0.0000000   0.0000000   0.0000000   0.0000000
321.7418151   0.2932090  -0.2183339   0.0795767   0.5241631   0.0000000   0.0000000   0.0000000   0.0000000
326.2222010   0.3500384  -0.2225871   0.0380084   0.5627914   0.0000000   0.0000000   0.0000000   0.0000000
330.7649781   0.3570724  -0.2937177   0.0504396   0.5132419   0.0000000   0.0000000   0.0000000   0.0000000
335.3710152   0.3358135  -0.2304791   0.0768906   0.5016571   0.0000000   0.0000000   0.0000000   0.0000000
340.0411933   0.3423521  -0.2547165   0.0848615   0.4966758   0.0000000   0.0000000   0.0000000   0.0000000
344.7764055   0.3293444  -0.2640722   0.1048889   0.4875505   0.0000000   0.0000000   0.0000000   0.0000000
349.5775574   0.3544625  -0.2609751   0.1017537   0.4917958   0.0000000   0.0000000   0.0000000   0.0000000
354.4455674   0.3450884  -0.2639081   0.1125458   0.4874553   0.0000000   0.0000000   0.0000000   0.0000000
359.3813664   0.3599021  -0.3679111   0.1333994   0.4404349   0.0000000   0.0000000   0.0000000   0.0000000
364.3858984   0.2574604  -0.3141526   0.1945903   0.5755892   0.0000000   0.0000000   0.0000000   0.0000000
369.4601205   0.2883898  -0.2886732   0.1953866   0.4955199   0.0000000   0.0000000   0.0000000   0.0000000
374.6050033   0.2726173  -0.2903482   0.1990839   0.4721649   0.0000000   0.0000000   0.0000000   0.0000000
379.8215306   0.2725458  -0.2915503   0.2108745   0.4625429   0.0000000   0.0000000   0.0000000   0.0000000
385.1107002   0.2802005  -0.2863746   0.2196582   0.4481105   0.0000000   0.0000000   0.0000000   0.0000000
390.4735237   0.2751324  -0.2975166   0.2280322   0.4410169   0.0000000   0.0000000   0.0000000   0.0000000
395.9110266   0.2825760  -0.2955492   0.2413082   0.4312857   0.0000000   0.0000000   0.0000000   0.0000000
401.4242490   0.2730466  -0.2972794   0.2500286   0.4218120   0.0000000   0.0000000   0.0000000   0.0000000
407.0142453   0.2730256  -0.2970820   0.2614512   0.4115807   0.0000000   0.0000000   0.0000000   0.0000000
412.6820846   0.2730119  -0.3035887   0.2704425   0.4010276   0.0000000   0.0000000   0.0000000   0.0000000
418.4288508   0.2709943  -0.3031962   0.2804051   0.3908988   0.0000000   0.0000000   0.0000000   0.0000000
424.2556431   0.2610457  -0.3081883   0.2910472   0.3794067   0.0000000   0.0000000   0.0000000   0.0000000
430.1635758   0.2503798  -0.3059938   0.2868457   0.3592644   0.0000000   0.0000000   0.0000000   0.0000000
436.1537789   0.2567213  -0.3099144   0.3087946   0.3551547   0.0000000   0.0000000   0.0000000   0.0000000
442.2273981   0.2542932  -0.3134347   0.3189466   0.3435563   0.0000000   0.0000000   0.0000000   0.0000000
448.3855948   0.2492660  -0.3137086   0.3265904   0.3307889   0.0000000   0.0000000   0.0000000   0.0000000
454.6295470   0.2437410  -0.3165712   0.3357009   0.3177671   0.0000000   0.0000000   0.0000000   0.0000000
460.9604487   0.2393428  -0.3192498   0.3430307   0.3045092   0.0000000   0.0000000   0.0000000   0.0000000
467.3795108   0.2300641  -0.3244152   0.3452405   0.2871168   0.0000000   0.0000000   0.0000000   0.0000000
473.8879610   0.2287498  -0.3218990   0.3576128   0.2762834   0.0000000   0.0000000   0.0000000   0.0000000
480.4870440   0.2223926  -0.3229428   0.3634573   0.2605457   0.0000000   0.0000000   0.0000000   0.0000000
487.1780219   0.2157979  -0.3209665   0.3712109   0.2454537   0.0000000   0.0000000   0.0000000   0.0000000
493.9621744   0.2117157  -0.3255513   0.3745629   0.2300122   0.0000000   0.0000000   0.0000000   0.0000000
500.8407990   0.2070882  -0.3261307   0.3783094   0.2139221   0.0000000   0.0000000   0.0000000   0.0000000
507.8152112   0.1994661  -0.3273053   0.3825375   0.1976672   0.0000000   0.0000000   0.0000000   0.0000000
514.8867450   0.1936900  -0.3272663   0.3855929   0.1814705   0.0000000   0.0000000   0.0000000   0.0000000
522.0567528   0.1799542  -0.3282794   0.3926222   0.1633632   0.0000000   0.0000000   0.0000000   0.0000000
529.3266058   0.1797253  -0.3302844   0.3897197   0.1475927   0.0000000   0.0000000   0.0000000   0.0000000
536.6976946   0.1714925  -0.3314038   0.3909066   0.1309605   0.0000000   0.0000000   0.0000000   0.0000000
544.1714287   0.1625045  -0.3307183   0.3905740   0.1131444   0.0000000   0.0000000   0.0000000   0.0000000
551.7492376   0.1544686  -0.3343145   0.3895505   0.0962695   0.0000000   0.0000000   0.0000000   0.0000000
559.4325706   0.1441234  -0.3319918   0.3885457   0.0780274   0.0000000   0.0000000   0.0000000   0.0000000
567.2228972   0.1395061  -0.3326237   0.3855935   0.0615597   0.0000000   0.0000000   0.0000000   0.0000000
575.1217072   0.1301006  -0.3284686   0.3829905   0.0378433   0.0000000   0.0000000   0.0000000   0.0000000
583.1305114   0.1235481  -0.3352746   0.3775919   0.0263154   0.0000000   0.0000000   0.0000000   0.0000000
591.2508414   0.1233867  -0.3350729   0.3736729   0.0112884   0.0000000   0.0000000   0.0000000   0.0000000
599.4842503   0.1055699  -0.3437497   0.3658531  -0.0061602   0.0000000   0.0000000   0.0000000   0.0000000
607.8323128   0.1012699  -0.3351629   0.3602422  -0.0231620   0.0000000   0.0000000   0.0000000   0.0000000
616.2966255   0.1005521  -0.3427369   0.3554817  -0.0392388   0.0000000   0.0000000   0.0000000   0.0000000
624.8788072   0.1058076  -0.3270060   0.3442423  -0.0548250   0.0000000   0.0000000   0.0000000   0.0000000
633.5804993   0.0921917  -0.3287881   0.3293121  -0.0730473   0.0000000   0.0000000   0.0000000   0.0000000
642.4033659   0.1524668  -0.2343984   0.3155655  -0.0971546   0.0000000   0.0000000   0.0000000   0.0000000
651.3490946  -0.1031838  -0.2684525   0.4373200   0.0435945   0.0000000   0.0000000   0.0000000   0.0000000
660.4193962   0.0413338  -0.3139746   0.3339290  -0.0798613   0.0000000   0.0000000   0.0000000   0.0000000
669.6160055   0.0321635  -0.3815822   0.3197334  -0.1003376   0.0000000   0.0000000   0.0000000   0.0000000
678.9406813   0.0252253  -0.3324699   0.3024406  -0.1106497   0.0000000   0.0000000   0.0000000   0.0000000
688.3952070  -0.0130422  -0.3488010   0.2968830  -0.1313954   0.0000000   0.0000000   0.0000000   0.0000000
697.9813908   0.0217187  -0.3293825   0.3090439  -0.1560378   0.0000000   0.0000000   0.0000000   0.0000000
707.7010661  -0.0537924  -0.2801317   0.3343445  -0.2231648   0.0000000   0.0000000   0.0000000   0.0000000
717.5560919  -0.1063512  -0.1813855  -0.2957608  -0.5406846   0.0000000   0.0000000   0.0000000   0.0000000
727.5483529   0.2890501  -0.2820662   0.1119059  -0.0681794   0.0000000   0.0000000   0.0000000   0.0000000
737.6797603   0.1784848  -0.4228633   0.1690105  -0.0974490   0.0000000   0.0000000   0.0000000   0.0000000
747.9522516   0.0465288  -0.4267608   0.1769458  -0.1110324   0.0000000   0.0000000   0.0000000   0.0000000
758.3677915   0.0388658  -0.4559175   0.1846640  -0.1090997   0.0000000   0.0000000   0.0000000   0.0000000
768.9283721  -0.0302883  -0.4551096   0.1861209  -0.1208348   0.0000000   0.0000000   0.0000000   0.0000000
779.6360130  -0.0389312  -0.4349970   0.1942102  -0.1264580   0.0000000   0.0000000   0.0000000   0.0000000
790.4927623  -0.0505818  -0.3880861   0.2190260  -0.1066778   0.0000000   0.0000000   0.0000000   0.0000000
801.5006962  -0.0842406  -0.4159058   0.1968059  -0.1459652   0.0000000   0.0000000   0.0000000   0.0000000
812.6619200  -0.0978897  -0.3917757   0.1934629  -0.1554470   0.0000000   0.0000000   0.0000000   0.0000000
823.9785685  -0.1122148  -0.3820703   0.1912333  -0.1710466   0.0000000   0.0000000   0.0000000   0.0000000
835.4528058  -0.1172172  -0.3375985   0.1851345  -0.1832950   0.0000000   0.0000000   0.0000000   0.0000000
847.0868267  -0.1555792  -0.2265323   0.2808439  -0.2691028   0.0000000   0.0000000   0.0000000   0.0000000
858.8828560  -0.1510840  -0.3295596   0.1726873  -0.2070407   0.0000000   0.0000000   0.0000000   0.0000000
870.8431498  -0.1550069  -0.2986061   0.1629136  -0.2137820   0.0000000   0.0000000   0.0000000   0.0000000
882.9699955  -0.1352919  -0.2939533   0.1510883  -0.2136375   0.0000000   0.0000000   0.0000000   0.0000000
895.2657126  -0.1845972  -0.2935602   0.1452577  -0.2318262   0.0000000   0.0000000   0.0000000   0.0000000
907.7326525  -0.2153144  -0.2973078   0.1358710  -0.2334751   0.0000000   0.0000000   0.0000000   0.0000000
920.3731997  -0.2176567  -0.3219433   0.1226591  -0.2348424   0.0000000   0.0000000   0.0000000   0.0000000
933.1897716  -0.2656065  -0.3182987   0.1073248  -0.2313383   0.0000000   0.0000000   0.0000000   0.0000000
946.1848195  -0.2782621  -0.2972448   0.0961548  -0.2183997   0.0000000   0.0000000   0.0000000   0.0000000
959.3608287  -0.2814610  -0.3346262   0.0728246  -0.2150838   0.0000000   0.0000000   0.0000000   0.0000000
972.7203192  -0.3119374  -0.3098567   0.0232518  -0.2256192   0.0000000   0.0000000   0.0000000   0.0000000
986.2658461  -0.5765051  -0.3156862   0.0413285  -0.2072762   0.0000000   0.0000000   0.0000000   0.0000000
1000.0000000  -0.4949441  -0.4087285   0.0476937  -0.1801311   0.0000000   0.0000000   0.0000000   0.0000000
