! ListType=Log
# MHZ S RI R 50
0.0010000     0.9992676   0.0004315  -0.0000135  -0.0000048   0.0000000   0.0000000   0.0000000   0.0000000
0.0010139     0.9978853  -0.0002615   0.0000073  -0.0000093   0.0000000   0.0000000   0.0000000   0.0000000
0.0010280     0.9998896  -0.0010190   0.0000077  -0.0000275   0.0000000   0.0000000   0.0000000   0.0000000
0.0010424     0.9988294   0.0004685   0.0000229   0.0000137   0.0000000   0.0000000   0.0000000   0.0000000
0.0010569     0.9996790  -0.0012590  -0.0000105   0.0000076   0.0000000   0.0000000   0.0000000   0.0000000
0.0010716     0.9989837  -0.0001885   0.0000172   0.0000084   0.0000000   0.0000000   0.0000000   0.0000000
0.0010865     1.0006213   0.0000544  -0.0000129  -0.0000044   0.0000000   0.0000000   0.0000000   0.0000000
0.0011016     0.9992296  -0.0001063   0.0000052  -0.0000121   0.0000000   0.0000000   0.0000000   0.0000000
0.0011170     0.9980386   0.0001374   0.0000022   0.0000019   0.0000000   0.0000000   0.0000000   0.0000000
0.0011325     0.9989036  -0.0006002  -0.0000047  -0.0000160   0.0000000   0.0000000   0.0000000   0.0000000
0.0011483     1.0001403  -0.0000128  -0.0000310   0.0000000   0.0000000   0.0000000   0.0000000   0.0000000
0.0011643     0.9989685   0.0003868  -0.0000277   0.0000217   0.0000000   0.0000000   0.0000000   0.0000000
0.0011805     0.9986976  -0.0010864   0.0000135  -0.0000111   0.0000000   0.0000000   0.0000000   0.0000000
0.0011970     0.9998489  -0.0004429  -0.0000045   0.0000234   0.0000000   0.0000000   0.0000000   0.0000000
0.0012136     0.9989299   0.0004029   0.0000055   0.0000156   0.0000000   0.0000000   0.0000000   0.0000000
0.0012305     0.9989405  -0.0007094   0.0000084  -0.0000067   0.0000000   0.0000000   0.0000000   0.0000000
0.0012477     0.9999636  -0.0004759  -0.0000008   0.0000076   0.0000000   0.0000000   0.0000000   0.0000000
0.0012650     0.9989316   0.0000038   0.0000122  -0.0000003   0.0000000   0.0000000   0.0000000   0.0000000
0.0012826     0.9984751  -0.0009252   0.0000040  -0.0000115   0.0000000   0.0000000   0.0000000   0.0000000
0.0013005     0.9994922  -0.0006575  -0.0000102  -0.0000110   0.0000000   0.0000000   0.0000000   0.0000000
0.0013186     1.0000594  -0.0001074   0.0000187   0.0000205   0.0000000   0.0000000   0.0000000   0.0000000
0.0013370     0.9992453  -0.0005139   0.0000054  -0.0000116   0.0000000   0.0000000   0.0000000   0.0000000
0.0013556     0.9986910   0.0001690   0.0000031   0.0000143   0.0000000   0.0000000   0.0000000   0.0000000
0.0013745     0.9995122  -0.0006729  -0.0000143   0.0000088   0.0000000   0.0000000   0.0000000   0.0000000
0.0013936     0.9985228  -0.0001865   0.0000133   0.0000101   0.0000000   0.0000000   0.0000000   0.0000000
0.0014130     0.9996567  -0.0006960  -0.0000099  -0.0000076   0.0000000   0.0000000   0.0000000   0.0000000
0.0014327     0.9996109  -0.0002053  -0.0000168  -0.0000036   0.0000000   0.0000000   0.0000000   0.0000000
0.0014527     0.9987360  -0.0000755   0.0000059  -0.0000080   0.0000000   0.0000000   0.0000000   0.0000000
0.0014729     0.9994930  -0.0008199   0.0000078  -0.0000125   0.0000000   0.0000000   0.0000000   0.0000000
0.0014934     0.9984305  -0.0004989   0.0000048   0.0000154   0.0000000   0.0000000   0.0000000   0.0000000
0.0015142     0.9998468  -0.0009624   0.0000044  -0.0000134   0.0000000   0.0000000   0.0000000   0.0000000
0.0015353     0.9994632  -0.0004880   0.0000022   0.0000132   0.0000000   0.0000000   0.0000000   0.0000000
0.0015567     0.9993335  -0.0001127   0.0000117  -0.0000019   0.0000000   0.0000000   0.0000000   0.0000000
0.0015783     0.9993206  -0.0010328  -0.0000066   0.0000103   0.0000000   0.0000000   0.0000000   0.0000000
0.0016003     0.9995874  -0.0007332   0.0000154  -0.0000003   0.0000000   0.0000000   0.0000000   0.0000000
0.0016226     0.9993978  -0.0003059  -0.0000119  -0.0000024   0.0000000   0.0000000   0.0000000   0.0000000
0.0016452     0.9993758  -0.0011680   0.0000071  -0.0000014   0.0000000   0.0000000   0.0000000   0.0000000
0.0016681     0.9996490  -0.0007019  -0.0000051   0.0000041   0.0000000   0.0000000   0.0000000   0.0000000
0.0016913     0.9997570  -0.0005395   0.0000120   0.0000179   0.0000000   0.0000000   0.0000000   0.0000000
0.0017149     0.9988749  -0.0008560   0.0000012  -0.0000184   0.0000000   0.0000000   0.0000000   0.0000000
0.0017388     0.9993007  -0.0006914   0.0000084   0.0000177   0.0000000   0.0000000   0.0000000   0.0000000
0.0017630     0.9991757  -0.0012298   0.0000156  -0.0000065   0.0000000   0.0000000   0.0000000   0.0000000
0.0017875     0.9999481  -0.0012040   0.0000120  -0.0000010   0.0000000   0.0000000   0.0000000   0.0000000
0.0018124     0.9988878  -0.0007738   0.0000025  -0.0000289   0.0000000   0.0000000   0.0000000   0.0000000
0.0018377     0.9994311  -0.0010799  -0.0000150  -0.0000129   0.0000000   0.0000000   0.0000000   0.0000000
0.0018632     0.9991562  -0.0012033   0.0000175   0.0000026   0.0000000   0.0000000   0.0000000   0.0000000
0.0018892     0.9996296  -0.0013019   0.0000255  -0.0000118   0.0000000   0.0000000   0.0000000   0.0000000
0.0019155     0.9990238  -0.0005554   0.0000216  -0.0000069   0.0000000   0.0000000   0.0000000   0.0000000
0.0019422     0.9993921  -0.0009737   0.0000064   0.0000016   0.0000000   0.0000000   0.0000000   0.0000000
0.0019692     0.9991883  -0.0009755  -0.0000073  -0.0000096   0.0000000   0.0000000   0.0000000   0.0000000
0.0019966     0.9992134  -0.0009519  -0.0000054   0.0000165   0.0000000   0.0000000   0.0000000   0.0000000
0.0020244     0.9985070  -0.0010483  -0.0000016  -0.0000075   0.0000000   0.0000000   0.0000000   0.0000000
0.0020526     0.9994264  -0.0015537  -0.0000193  -0.0000135   0.0000000   0.0000000   0.0000000   0.0000000
0.0020812     0.9991716  -0.0007755  -0.0000090  -0.0000020   0.0000000   0.0000000   0.0000000   0.0000000
0.0021102     0.9994467  -0.0011400  -0.0000008  -0.0000043   0.0000000   0.0000000   0.0000000   0.0000000
0.0021396     0.9992117  -0.0012954   0.0000026   0.0000149   0.0000000   0.0000000   0.0000000   0.0000000
0.0021694     0.9994721  -0.0011520  -0.0000034  -0.0000008   0.0000000   0.0000000   0.0000000   0.0000000
0.0021996     0.9995728  -0.0011855  -0.0000092  -0.0000153   0.0000000   0.0000000   0.0000000   0.0000000
0.0022302     0.9997469  -0.0011181   0.0000125   0.0000129   0.0000000   0.0000000   0.0000000   0.0000000
0.0022613     0.9994116  -0.0010543  -0.0000018  -0.0000092   0.0000000   0.0000000   0.0000000   0.0000000
0.0022928     0.9989355  -0.0012294  -0.0000026   0.0000053   0.0000000   0.0000000   0.0000000   0.0000000
0.0023247     0.9989202  -0.0016609  -0.0000043  -0.0000180   0.0000000   0.0000000   0.0000000   0.0000000
0.0023571     0.9997670  -0.0015568   0.0000155  -0.0000013   0.0000000   0.0000000   0.0000000   0.0000000
0.0023899     0.9993771  -0.0010581  -0.0000129   0.0000008   0.0000000   0.0000000   0.0000000   0.0000000
0.0024232     0.9989174  -0.0014951   0.0000046   0.0000098   0.0000000   0.0000000   0.0000000   0.0000000
0.0024569     0.9995783  -0.0017096  -0.0000140   0.0000001   0.0000000   0.0000000   0.0000000   0.0000000
0.0024911     0.9995428  -0.0013160   0.0000051  -0.0000033   0.0000000   0.0000000   0.0000000   0.0000000
0.0025258     0.9990369  -0.0014264  -0.0000174   0.0000020   0.0000000   0.0000000   0.0000000   0.0000000
0.0025610     0.9989684  -0.0016215   0.0000122  -0.0000038   0.0000000   0.0000000   0.0000000   0.0000000
0.0025967     0.9991419  -0.0017633  -0.0000107  -0.0000138   0.0000000   0.0000000   0.0000000   0.0000000
0.0026328     0.9992464  -0.0017810   0.0000225   0.0000015   0.0000000   0.0000000   0.0000000   0.0000000
0.0026695     0.9992803  -0.0017907  -0.0000103  -0.0000094   0.0000000   0.0000000   0.0000000   0.0000000
0.0027067     0.9992622  -0.0017681  -0.0000123   0.0000039   0.0000000   0.0000000   0.0000000   0.0000000
0.0027443     0.9992989  -0.0017536  -0.0000186  -0.0000096   0.0000000   0.0000000   0.0000000   0.0000000
0.0027826     0.9989492  -0.0016252   0.0000020  -0.0000035   0.0000000   0.0000000   0.0000000   0.0000000
0.0028213     0.9994888  -0.0019054   0.0000160   0.0000017   0.0000000   0.0000000   0.0000000   0.0000000
0.0028606     0.9992537  -0.0014152   0.0000029   0.0000201   0.0000000   0.0000000   0.0000000   0.0000000
0.0029004     0.9989760  -0.0014110   0.0000066  -0.0000163   0.0000000   0.0000000   0.0000000   0.0000000
0.0029408     0.9993217  -0.0018486  -0.0000026  -0.0000125   0.0000000   0.0000000   0.0000000   0.0000000
0.0029818     0.9993147  -0.0018125  -0.0000076   0.0000125   0.0000000   0.0000000   0.0000000   0.0000000
0.0030233     0.9992652  -0.0022149   0.0000017  -0.0000096   0.0000000   0.0000000   0.0000000   0.0000000
0.0030654     0.9993764  -0.0019954   0.0000180   0.0000128   0.0000000   0.0000000   0.0000000   0.0000000
0.0031081     0.9992147  -0.0019629   0.0000032   0.0000067   0.0000000   0.0000000   0.0000000   0.0000000
0.0031514     0.9994198  -0.0021916  -0.0000152   0.0000123   0.0000000   0.0000000   0.0000000   0.0000000
0.0031952     0.9990486  -0.0017145  -0.0000101  -0.0000033   0.0000000   0.0000000   0.0000000   0.0000000
0.0032397     0.9990927  -0.0021034  -0.0000038   0.0000028   0.0000000   0.0000000   0.0000000   0.0000000
0.0032849     0.9992585  -0.0018592   0.0000059   0.0000013   0.0000000   0.0000000   0.0000000   0.0000000
0.0033306     0.9992084  -0.0024037  -0.0000029  -0.0000023   0.0000000   0.0000000   0.0000000   0.0000000
0.0033770     0.9993725  -0.0021146  -0.0000045   0.0000102   0.0000000   0.0000000   0.0000000   0.0000000
0.0034240     0.9991320  -0.0019319  -0.0000184   0.0000049   0.0000000   0.0000000   0.0000000   0.0000000
0.0034717     0.9993498  -0.0023852   0.0000083  -0.0000040   0.0000000   0.0000000   0.0000000   0.0000000
0.0035200     0.9990361  -0.0023281   0.0000102  -0.0000104   0.0000000   0.0000000   0.0000000   0.0000000
0.0035690     0.9991868  -0.0022997  -0.0000047   0.0000001   0.0000000   0.0000000   0.0000000   0.0000000
0.0036187     0.9993113  -0.0021621   0.0000015   0.0000064   0.0000000   0.0000000   0.0000000   0.0000000
0.0036691     0.9991713  -0.0020993  -0.0000070   0.0000107   0.0000000   0.0000000   0.0000000   0.0000000
0.0037202     0.9993434  -0.0023409   0.0000091  -0.0000004   0.0000000   0.0000000   0.0000000   0.0000000
0.0037720     0.9991786  -0.0024130   0.0000088  -0.0000004   0.0000000   0.0000000   0.0000000   0.0000000
0.0038246     0.9989475  -0.0024747   0.0000032  -0.0000021   0.0000000   0.0000000   0.0000000   0.0000000
0.0038778     0.9992792  -0.0024232  -0.0000125   0.0000009   0.0000000   0.0000000   0.0000000   0.0000000
0.0039318     0.9989735  -0.0022606  -0.0000063  -0.0000096   0.0000000   0.0000000   0.0000000   0.0000000
0.0039866     0.9989943  -0.0024420  -0.0000018  -0.0000178   0.0000000   0.0000000   0.0000000   0.0000000
0.0040421     0.9990735  -0.0025188   0.0000106   0.0000023   0.0000000   0.0000000   0.0000000   0.0000000
0.0040984     0.9990895  -0.0026399  -0.0000060   0.0000031   0.0000000   0.0000000   0.0000000   0.0000000
0.0041555     0.9992237  -0.0027738   0.0000022   0.0000067   0.0000000   0.0000000   0.0000000   0.0000000
0.0042133     0.9991240  -0.0025779  -0.0000041   0.0000138   0.0000000   0.0000000   0.0000000   0.0000000
0.0042720     0.9990161  -0.0025751   0.0000070   0.0000057   0.0000000   0.0000000   0.0000000   0.0000000
0.0043315     0.9989776  -0.0025093   0.0000036  -0.0000061   0.0000000   0.0000000   0.0000000   0.0000000
0.0043918     0.9989736  -0.0027858   0.0000121  -0.0000072   0.0000000   0.0000000   0.0000000   0.0000000
0.0044530     0.9991594  -0.0031463  -0.0000076  -0.0000102   0.0000000   0.0000000   0.0000000   0.0000000
0.0045150     0.9991659  -0.0028845  -0.0000201  -0.0000045   0.0000000   0.0000000   0.0000000   0.0000000
0.0045778     0.9990635  -0.0028663   0.0000079  -0.0000181   0.0000000   0.0000000   0.0000000   0.0000000
0.0046416     0.9991922  -0.0030190   0.0000046  -0.0000040   0.0000000   0.0000000   0.0000000   0.0000000
0.0047062     0.9992889  -0.0030153   0.0000190   0.0000090   0.0000000   0.0000000   0.0000000   0.0000000
0.0047718     0.9990568  -0.0031579   0.0000085   0.0000027   0.0000000   0.0000000   0.0000000   0.0000000
0.0048382     0.9992295  -0.0029921  -0.0000104   0.0000043   0.0000000   0.0000000   0.0000000   0.0000000
0.0049056     0.9990531  -0.0029158  -0.0000104   0.0000059   0.0000000   0.0000000   0.0000000   0.0000000
0.0049739     0.9990901  -0.0029965  -0.0000076   0.0000108   0.0000000   0.0000000   0.0000000   0.0000000
0.0050432     0.9992719  -0.0033428   0.0000012  -0.0000019   0.0000000   0.0000000   0.0000000   0.0000000
0.0051134     0.9989462  -0.0032341   0.0000021  -0.0000071   0.0000000   0.0000000   0.0000000   0.0000000
0.0051846     0.9990131  -0.0033444  -0.0000143  -0.0000055   0.0000000   0.0000000   0.0000000   0.0000000
0.0052568     0.9991529  -0.0033678  -0.0000052   0.0000107   0.0000000   0.0000000   0.0000000   0.0000000
0.0053300     0.9991689  -0.0032910   0.0000117  -0.0000039   0.0000000   0.0000000   0.0000000   0.0000000
0.0054042     0.9990833  -0.0032315  -0.0000054  -0.0000131   0.0000000   0.0000000   0.0000000   0.0000000
0.0054795     0.9991822  -0.0034694   0.0000055   0.0000063   0.0000000   0.0000000   0.0000000   0.0000000
0.0055558     0.9993937  -0.0035036  -0.0000009  -0.0000004   0.0000000   0.0000000   0.0000000   0.0000000
0.0056331     0.9991300  -0.0034236  -0.0000174   0.0000005   0.0000000   0.0000000   0.0000000   0.0000000
0.0057116     0.9992508  -0.0035110  -0.0000018   0.0000192   0.0000000   0.0000000   0.0000000   0.0000000
0.0057911     0.9992033  -0.0036402   0.0000026   0.0000088   0.0000000   0.0000000   0.0000000   0.0000000
0.0058718     0.9992113  -0.0035429  -0.0000088  -0.0000066   0.0000000   0.0000000   0.0000000   0.0000000
0.0059535     0.9991829  -0.0035983  -0.0000054  -0.0000128   0.0000000   0.0000000   0.0000000   0.0000000
0.0060364     0.9991273  -0.0037116  -0.0000005  -0.0000052   0.0000000   0.0000000   0.0000000   0.0000000
0.0061205     0.9989975  -0.0039250  -0.0000185   0.0000030   0.0000000   0.0000000   0.0000000   0.0000000
0.0062057     0.9990221  -0.0039747  -0.0000033   0.0000053   0.0000000   0.0000000   0.0000000   0.0000000
0.0062921     0.9989971  -0.0039468   0.0000122  -0.0000004   0.0000000   0.0000000   0.0000000   0.0000000
0.0063798     0.9989893  -0.0040755   0.0000049   0.0000025   0.0000000   0.0000000   0.0000000   0.0000000
0.0064686     0.9991903  -0.0039342  -0.0000069  -0.0000029   0.0000000   0.0000000   0.0000000   0.0000000
0.0065587     0.9991289  -0.0040375  -0.0000029   0.0000111   0.0000000   0.0000000   0.0000000   0.0000000
0.0066500     0.9991797  -0.0042285   0.0000032   0.0000097   0.0000000   0.0000000   0.0000000   0.0000000
0.0067426     0.9991003  -0.0041860  -0.0000119  -0.0000046   0.0000000   0.0000000   0.0000000   0.0000000
0.0068365     0.9988653  -0.0044482  -0.0000021   0.0000032   0.0000000   0.0000000   0.0000000   0.0000000
0.0069317     0.9989726  -0.0043222  -0.0000189  -0.0000019   0.0000000   0.0000000   0.0000000   0.0000000
0.0070282     0.9989574  -0.0044284  -0.0000029  -0.0000012   0.0000000   0.0000000   0.0000000   0.0000000
0.0071261     0.9992373  -0.0043872   0.0000023  -0.0000094   0.0000000   0.0000000   0.0000000   0.0000000
0.0072253     0.9990947  -0.0045287  -0.0000073   0.0000059   0.0000000   0.0000000   0.0000000   0.0000000
0.0073260     0.9991143  -0.0046537  -0.0000045   0.0000048   0.0000000   0.0000000   0.0000000   0.0000000
0.0074280     0.9990154  -0.0047758   0.0000191   0.0000099   0.0000000   0.0000000   0.0000000   0.0000000
0.0075314     0.9989626  -0.0048928   0.0000136   0.0000042   0.0000000   0.0000000   0.0000000   0.0000000
0.0076363     0.9990304  -0.0049769  -0.0000243  -0.0000047   0.0000000   0.0000000   0.0000000   0.0000000
0.0077426     0.9989997  -0.0048954   0.0000172   0.0000087   0.0000000   0.0000000   0.0000000   0.0000000
0.0078505     0.9990390  -0.0048032   0.0000012   0.0000129   0.0000000   0.0000000   0.0000000   0.0000000
0.0079598     0.9990338  -0.0050185  -0.0000086  -0.0000010   0.0000000   0.0000000   0.0000000   0.0000000
0.0080706     0.9991669  -0.0048778  -0.0000037  -0.0000008   0.0000000   0.0000000   0.0000000   0.0000000
0.0081830     0.9989607  -0.0052061   0.0000021   0.0000000   0.0000000   0.0000000   0.0000000   0.0000000
0.0082970     0.9989638  -0.0052891   0.0000011  -0.0000008   0.0000000   0.0000000   0.0000000   0.0000000
0.0084125     0.9991909  -0.0052355  -0.0000030   0.0000148   0.0000000   0.0000000   0.0000000   0.0000000
0.0085296     0.9991095  -0.0053594   0.0000215  -0.0000030   0.0000000   0.0000000   0.0000000   0.0000000
0.0086484     0.9991055  -0.0053674  -0.0000027  -0.0000249   0.0000000   0.0000000   0.0000000   0.0000000
0.0087689     0.9988969  -0.0054114   0.0000074  -0.0000035   0.0000000   0.0000000   0.0000000   0.0000000
0.0088910     0.9989263  -0.0056399   0.0000004  -0.0000030   0.0000000   0.0000000   0.0000000   0.0000000
0.0090148     0.9991099  -0.0056614   0.0000064   0.0000000   0.0000000   0.0000000   0.0000000   0.0000000
0.0091403     0.9989545  -0.0058573   0.0000009  -0.0000198   0.0000000   0.0000000   0.0000000   0.0000000
0.0092676     0.9989436  -0.0058726   0.0000073   0.0000003   0.0000000   0.0000000   0.0000000   0.0000000
0.0093966     0.9990848  -0.0059082  -0.0000068   0.0000064   0.0000000   0.0000000   0.0000000   0.0000000
0.0095275     0.9991114  -0.0060191   0.0000003  -0.0000071   0.0000000   0.0000000   0.0000000   0.0000000
0.0096602     0.9990317  -0.0060694  -0.0000055   0.0000042   0.0000000   0.0000000   0.0000000   0.0000000
0.0097947     0.9990647  -0.0060497   0.0000013  -0.0000032   0.0000000   0.0000000   0.0000000   0.0000000
0.0099311     0.9990761  -0.0061090   0.0000008  -0.0000068   0.0000000   0.0000000   0.0000000   0.0000000
0.0100694     0.9991200  -0.0063315   0.0000098  -0.0000063   0.0000000   0.0000000   0.0000000   0.0000000
0.0102096     0.9990006  -0.0064414   0.0000141  -0.0000198   0.0000000   0.0000000   0.0000000   0.0000000
0.0103518     0.9990051  -0.0064307  -0.0000093  -0.0000005   0.0000000   0.0000000   0.0000000   0.0000000
0.0104959     0.9989793  -0.0065360   0.0000026  -0.0000041   0.0000000   0.0000000   0.0000000   0.0000000
0.0106421     0.9990190  -0.0065940   0.0000041   0.0000021   0.0000000   0.0000000   0.0000000   0.0000000
0.0107903     0.9990540  -0.0068088   0.0000007  -0.0000106   0.0000000   0.0000000   0.0000000   0.0000000
0.0109405     0.9990651  -0.0067870  -0.0000117  -0.0000089   0.0000000   0.0000000   0.0000000   0.0000000
0.0110929     0.9990003  -0.0069845  -0.0000052   0.0000051   0.0000000   0.0000000   0.0000000   0.0000000
0.0112474     0.9990834  -0.0069086  -0.0000002   0.0000052   0.0000000   0.0000000   0.0000000   0.0000000
0.0114040     0.9992160  -0.0072240   0.0000009  -0.0000030   0.0000000   0.0000000   0.0000000   0.0000000
0.0115628     0.9989970  -0.0072161   0.0000125   0.0000075   0.0000000   0.0000000   0.0000000   0.0000000
0.0117238     0.9989387  -0.0074654   0.0000035   0.0000023   0.0000000   0.0000000   0.0000000   0.0000000
0.0118871     0.9993128  -0.0075280   0.0000156  -0.0000070   0.0000000   0.0000000   0.0000000   0.0000000
0.0120526     0.9968881  -0.0050507  -0.0000034  -0.0000078   0.0000000   0.0000000   0.0000000   0.0000000
0.0122204     0.9989766  -0.0074409   0.0000001   0.0000081   0.0000000   0.0000000   0.0000000   0.0000000
0.0123906     0.9989114  -0.0077567   0.0000020   0.0000067   0.0000000   0.0000000   0.0000000   0.0000000
0.0125632     0.9989541  -0.0077512   0.0000055  -0.0000036   0.0000000   0.0000000   0.0000000   0.0000000
0.0127381     0.9990178  -0.0079244  -0.0000096   0.0000140   0.0000000   0.0000000   0.0000000   0.0000000
0.0129155     0.9991543  -0.0080534   0.0000065   0.0000134   0.0000000   0.0000000   0.0000000   0.0000000
0.0130954     0.9989261  -0.0081268   0.0000106  -0.0000121   0.0000000   0.0000000   0.0000000   0.0000000
0.0132777     0.9990282  -0.0082520  -0.0000039  -0.0000039   0.0000000   0.0000000   0.0000000   0.0000000
0.0134626     0.9990014  -0.0084861  -0.0000138   0.0000140   0.0000000   0.0000000   0.0000000   0.0000000
0.0136501     0.9990325  -0.0085095   0.0000074  -0.0000116   0.0000000   0.0000000   0.0000000   0.0000000
0.0138402     0.9990955  -0.0087189   0.0000110  -0.0000065   0.0000000   0.0000000   0.0000000   0.0000000
0.0140329     0.9990516  -0.0088200  -0.0000059   0.0000185   0.0000000   0.0000000   0.0000000   0.0000000
0.0142283     0.9990321  -0.0088665  -0.0000166  -0.0000106   0.0000000   0.0000000   0.0000000   0.0000000
0.0144264     0.9990502  -0.0089541  -0.0000075   0.0000026   0.0000000   0.0000000   0.0000000   0.0000000
0.0146273     0.9990575  -0.0092266   0.0000005   0.0000002   0.0000000   0.0000000   0.0000000   0.0000000
0.0148310     0.9989459  -0.0092639   0.0000194   0.0000028   0.0000000   0.0000000   0.0000000   0.0000000
0.0150376     0.9989954  -0.0094562  -0.0000068   0.0000094   0.0000000   0.0000000   0.0000000   0.0000000
0.0152470     0.9989926  -0.0094511   0.0000048  -0.0000089   0.0000000   0.0000000   0.0000000   0.0000000
0.0154593     0.9989067  -0.0096677   0.0000131  -0.0000098   0.0000000   0.0000000   0.0000000   0.0000000
0.0156746     0.9990032  -0.0097385  -0.0000088  -0.0000110   0.0000000   0.0000000   0.0000000   0.0000000
0.0158928     0.9989874  -0.0098035  -0.0000011   0.0000158   0.0000000   0.0000000   0.0000000   0.0000000
0.0161141     0.9989486  -0.0101145  -0.0000163  -0.0000017   0.0000000   0.0000000   0.0000000   0.0000000
0.0163385     0.9990421  -0.0101757  -0.0000015   0.0000102   0.0000000   0.0000000   0.0000000   0.0000000
0.0165661     0.9989487  -0.0102681   0.0000053   0.0000045   0.0000000   0.0000000   0.0000000   0.0000000
0.0167967     0.9990253  -0.0104383   0.0000009  -0.0000006   0.0000000   0.0000000   0.0000000   0.0000000
0.0170307     0.9990505  -0.0106534  -0.0000012  -0.0000074   0.0000000   0.0000000   0.0000000   0.0000000
0.0172678     0.9989338  -0.0108138  -0.0000019  -0.0000057   0.0000000   0.0000000   0.0000000   0.0000000
0.0175083     0.9990159  -0.0108636   0.0000034  -0.0000010   0.0000000   0.0000000   0.0000000   0.0000000
0.0177521     0.9989293  -0.0110328  -0.0000167   0.0000081   0.0000000   0.0000000   0.0000000   0.0000000
0.0179993     0.9988727  -0.0112118   0.0000058   0.0000040   0.0000000   0.0000000   0.0000000   0.0000000
0.0182499     0.9989636  -0.0113833  -0.0000051   0.0000137   0.0000000   0.0000000   0.0000000   0.0000000
0.0185041     0.9989687  -0.0114807   0.0000088  -0.0000107   0.0000000   0.0000000   0.0000000   0.0000000
0.0187617     0.9990147  -0.0116604   0.0000006   0.0000198   0.0000000   0.0000000   0.0000000   0.0000000
0.0190230     0.9989562  -0.0119418  -0.0000026  -0.0000048   0.0000000   0.0000000   0.0000000   0.0000000
0.0192879     0.9989655  -0.0119499   0.0000097  -0.0000027   0.0000000   0.0000000   0.0000000   0.0000000
0.0195565     0.9989824  -0.0121531   0.0000092   0.0000129   0.0000000   0.0000000   0.0000000   0.0000000
0.0198288     0.9990201  -0.0122390  -0.0000242   0.0000062   0.0000000   0.0000000   0.0000000   0.0000000
0.0201050     0.9988138  -0.0126047   0.0000058  -0.0000190   0.0000000   0.0000000   0.0000000   0.0000000
0.0203849     0.9989837  -0.0126237  -0.0000070   0.0000011   0.0000000   0.0000000   0.0000000   0.0000000
0.0206688     0.9989062  -0.0128493   0.0000026   0.0000132   0.0000000   0.0000000   0.0000000   0.0000000
0.0209566     0.9988445  -0.0130474  -0.0000025   0.0000007   0.0000000   0.0000000   0.0000000   0.0000000
0.0212485     0.9990538  -0.0131422  -0.0000101   0.0000197   0.0000000   0.0000000   0.0000000   0.0000000
0.0215443     0.9990241  -0.0134919  -0.0000013  -0.0000042   0.0000000   0.0000000   0.0000000   0.0000000
0.0218444     0.9989438  -0.0136285   0.0000000   0.0000035   0.0000000   0.0000000   0.0000000   0.0000000
0.0221486     0.9989227  -0.0137707  -0.0000019  -0.0000052   0.0000000   0.0000000   0.0000000   0.0000000
0.0224570     0.9989713  -0.0139313  -0.0000036  -0.0000012   0.0000000   0.0000000   0.0000000   0.0000000
0.0227697     0.9989927  -0.0141800  -0.0000038   0.0000127   0.0000000   0.0000000   0.0000000   0.0000000
0.0230868     0.9989559  -0.0143891  -0.0000094   0.0000041   0.0000000   0.0000000   0.0000000   0.0000000
0.0234083     0.9989092  -0.0145649   0.0000071   0.0000024   0.0000000   0.0000000   0.0000000   0.0000000
0.0237342     0.9990491  -0.0148184  -0.0000025   0.0000111   0.0000000   0.0000000   0.0000000   0.0000000
0.0240648     0.9989958  -0.0148257   0.0000035  -0.0000079   0.0000000   0.0000000   0.0000000   0.0000000
0.0243999     0.9989960  -0.0151944   0.0000111   0.0000054   0.0000000   0.0000000   0.0000000   0.0000000
0.0247396     0.9990122  -0.0153620   0.0000105  -0.0000114   0.0000000   0.0000000   0.0000000   0.0000000
0.0250842     0.9989079  -0.0156293   0.0000033  -0.0000010   0.0000000   0.0000000   0.0000000   0.0000000
0.0254335     0.9988209  -0.0158258  -0.0000051   0.0000064   0.0000000   0.0000000   0.0000000   0.0000000
0.0257876     0.9989401  -0.0159550  -0.0000070   0.0000075   0.0000000   0.0000000   0.0000000   0.0000000
0.0261467     0.9988572  -0.0163229   0.0000083   0.0000080   0.0000000   0.0000000   0.0000000   0.0000000
0.0265108     0.9989121  -0.0164832   0.0000032   0.0000059   0.0000000   0.0000000   0.0000000   0.0000000
0.0268800     0.9988795  -0.0166676  -0.0000003   0.0000045   0.0000000   0.0000000   0.0000000   0.0000000
0.0272543     0.9988606  -0.0170170   0.0000057   0.0000087   0.0000000   0.0000000   0.0000000   0.0000000
0.0276339     0.9988156  -0.0171688  -0.0000016   0.0000004   0.0000000   0.0000000   0.0000000   0.0000000
0.0280187     0.9988875  -0.0173695   0.0000072   0.0000018   0.0000000   0.0000000   0.0000000   0.0000000
0.0284088     0.9989593  -0.0176770  -0.0000039   0.0000062   0.0000000   0.0000000   0.0000000   0.0000000
0.0288044     0.9988389  -0.0179605  -0.0000083  -0.0000002   0.0000000   0.0000000   0.0000000   0.0000000
0.0292056     0.9989319  -0.0181202   0.0000024   0.0000154   0.0000000   0.0000000   0.0000000   0.0000000
0.0296123     0.9989845  -0.0183214  -0.0000004   0.0000008   0.0000000   0.0000000   0.0000000   0.0000000
0.0300246     0.9988132  -0.0186321  -0.0000048   0.0000089   0.0000000   0.0000000   0.0000000   0.0000000
0.0304427     0.9988489  -0.0189693  -0.0000007  -0.0000083   0.0000000   0.0000000   0.0000000   0.0000000
0.0308666     0.9988108  -0.0190639  -0.0000095   0.0000000   0.0000000   0.0000000   0.0000000   0.0000000
0.0312965     0.9988771  -0.0192947  -0.0000043  -0.0000053   0.0000000   0.0000000   0.0000000   0.0000000
0.0317323     0.9988532  -0.0197500  -0.0000092   0.0000053   0.0000000   0.0000000   0.0000000   0.0000000
0.0321742     0.9989223  -0.0199846   0.0000058  -0.0000031   0.0000000   0.0000000   0.0000000   0.0000000
0.0326222     0.9987268  -0.0203894   0.0000081   0.0000011   0.0000000   0.0000000   0.0000000   0.0000000
0.0330765     0.9987929  -0.0204722   0.0000029   0.0000019   0.0000000   0.0000000   0.0000000   0.0000000
0.0335371     0.9987101  -0.0209267  -0.0000014  -0.0000036   0.0000000   0.0000000   0.0000000   0.0000000
0.0340041     0.9987784  -0.0210970   0.0000028   0.0000203   0.0000000   0.0000000   0.0000000   0.0000000
0.0344776     0.9987827  -0.0213964  -0.0000087  -0.0000039   0.0000000   0.0000000   0.0000000   0.0000000
0.0349578     0.9987804  -0.0216913   0.0000031   0.0000146   0.0000000   0.0000000   0.0000000   0.0000000
0.0354446     0.9988215  -0.0220014   0.0000024  -0.0000060   0.0000000   0.0000000   0.0000000   0.0000000
0.0359381     0.9987397  -0.0223016   0.0000019   0.0000031   0.0000000   0.0000000   0.0000000   0.0000000
0.0364386     0.9987762  -0.0227149   0.0000076   0.0000110   0.0000000   0.0000000   0.0000000   0.0000000
0.0369460     0.9987699  -0.0229257  -0.0000043   0.0000006   0.0000000   0.0000000   0.0000000   0.0000000
0.0374605     0.9987411  -0.0232294  -0.0000003  -0.0000055   0.0000000   0.0000000   0.0000000   0.0000000
0.0379822     0.9987961  -0.0236345   0.0000036  -0.0000032   0.0000000   0.0000000   0.0000000   0.0000000
0.0385111     0.9987397  -0.0239207   0.0000166  -0.0000066   0.0000000   0.0000000   0.0000000   0.0000000
0.0390474     0.9986143  -0.0242922   0.0000077  -0.0000117   0.0000000   0.0000000   0.0000000   0.0000000
0.0395911     0.9987122  -0.0244405   0.0000044  -0.0000040   0.0000000   0.0000000   0.0000000   0.0000000
0.0401424     0.9987989  -0.0248812  -0.0000136  -0.0000060   0.0000000   0.0000000   0.0000000   0.0000000
0.0407014     0.9986671  -0.0252288   0.0000156   0.0000037   0.0000000   0.0000000   0.0000000   0.0000000
0.0412682     0.9987805  -0.0255950  -0.0000032  -0.0000011   0.0000000   0.0000000   0.0000000   0.0000000
0.0418429     0.9987802  -0.0258602  -0.0000008  -0.0000011   0.0000000   0.0000000   0.0000000   0.0000000
0.0424256     0.9985512  -0.0263231  -0.0000151   0.0000100   0.0000000   0.0000000   0.0000000   0.0000000
0.0430164     0.9986633  -0.0266400  -0.0000020   0.0000001   0.0000000   0.0000000   0.0000000   0.0000000
0.0436154     0.9987241  -0.0270836   0.0000102  -0.0000039   0.0000000   0.0000000   0.0000000   0.0000000
0.0442227     0.9987148  -0.0274742   0.0000047  -0.0000020   0.0000000   0.0000000   0.0000000   0.0000000
0.0448386     0.9985983  -0.0278161   0.0000063   0.0000022   0.0000000   0.0000000   0.0000000   0.0000000
0.0454630     0.9986441  -0.0281616   0.0000091   0.0000116   0.0000000   0.0000000   0.0000000   0.0000000
0.0460960     0.9986266  -0.0286318  -0.0000131   0.0000110   0.0000000   0.0000000   0.0000000   0.0000000
0.0467380     0.9986363  -0.0289442  -0.0000069   0.0000016   0.0000000   0.0000000   0.0000000   0.0000000
0.0473888     0.9986335  -0.0294680  -0.0000039   0.0000158   0.0000000   0.0000000   0.0000000   0.0000000
0.0480487     0.9986518  -0.0297944   0.0000047  -0.0000074   0.0000000   0.0000000   0.0000000   0.0000000
0.0487178     0.9985906  -0.0302668  -0.0000072  -0.0000021   0.0000000   0.0000000   0.0000000   0.0000000
0.0493962     0.9985200  -0.0306082   0.0000048  -0.0000057   0.0000000   0.0000000   0.0000000   0.0000000
0.0500841     0.9985624  -0.0310189   0.0000070  -0.0000055   0.0000000   0.0000000   0.0000000   0.0000000
0.0507815     0.9985313  -0.0315952  -0.0000009  -0.0000079   0.0000000   0.0000000   0.0000000   0.0000000
0.0514887     0.9985326  -0.0317997   0.0000009   0.0000049   0.0000000   0.0000000   0.0000000   0.0000000
0.0522057     0.9985082  -0.0324118  -0.0000116  -0.0000047   0.0000000   0.0000000   0.0000000   0.0000000
0.0529327     0.9984468  -0.0328213   0.0000112   0.0000054   0.0000000   0.0000000   0.0000000   0.0000000
0.0536698     0.9984314  -0.0333311  -0.0000021  -0.0000027   0.0000000   0.0000000   0.0000000   0.0000000
0.0544171     0.9984842  -0.0337307   0.0000094  -0.0000062   0.0000000   0.0000000   0.0000000   0.0000000
0.0551749     0.9984382  -0.0343508  -0.0000150  -0.0000025   0.0000000   0.0000000   0.0000000   0.0000000
0.0559433     0.9984956  -0.0346678   0.0000022  -0.0000070   0.0000000   0.0000000   0.0000000   0.0000000
0.0567223     0.9984581  -0.0351354   0.0000017  -0.0000098   0.0000000   0.0000000   0.0000000   0.0000000
0.0575122     0.9983825  -0.0355766  -0.0000037   0.0000014   0.0000000   0.0000000   0.0000000   0.0000000
0.0583131     0.9983714  -0.0361566   0.0000004  -0.0000091   0.0000000   0.0000000   0.0000000   0.0000000
0.0591251     0.9983491  -0.0366717  -0.0000058   0.0000013   0.0000000   0.0000000   0.0000000   0.0000000
0.0599484     0.9984019  -0.0371716  -0.0000092  -0.0000078   0.0000000   0.0000000   0.0000000   0.0000000
0.0607832     0.9983052  -0.0376470   0.0000030  -0.0000080   0.0000000   0.0000000   0.0000000   0.0000000
0.0616297     0.9982921  -0.0381332  -0.0000015  -0.0000039   0.0000000   0.0000000   0.0000000   0.0000000
0.0624879     0.9983051  -0.0387242  -0.0000110  -0.0000011   0.0000000   0.0000000   0.0000000   0.0000000
0.0633580     0.9982641  -0.0393237   0.0000053  -0.0000034   0.0000000   0.0000000   0.0000000   0.0000000
0.0642403     0.9982377  -0.0397402  -0.0000058   0.0000048   0.0000000   0.0000000   0.0000000   0.0000000
0.0651349     0.9982986  -0.0404750   0.0000000  -0.0000191   0.0000000   0.0000000   0.0000000   0.0000000
0.0660419     0.9981478  -0.0409680   0.0000034   0.0000068   0.0000000   0.0000000   0.0000000   0.0000000
0.0669616     0.9981289  -0.0415517   0.0000058   0.0000086   0.0000000   0.0000000   0.0000000   0.0000000
0.0678941     0.9981935  -0.0420125  -0.0000044  -0.0000060   0.0000000   0.0000000   0.0000000   0.0000000
0.0688395     0.9981039  -0.0426607   0.0000081  -0.0000074   0.0000000   0.0000000   0.0000000   0.0000000
0.0697981     0.9982369  -0.0432814   0.0000000  -0.0000063   0.0000000   0.0000000   0.0000000   0.0000000
0.0707701     0.9980059  -0.0437759   0.0000055   0.0000005   0.0000000   0.0000000   0.0000000   0.0000000
0.0717556     0.9979685  -0.0444929   0.0000037  -0.0000066   0.0000000   0.0000000   0.0000000   0.0000000
0.0727548     0.9980440  -0.0451145  -0.0000167   0.0000010   0.0000000   0.0000000   0.0000000   0.0000000
0.0737680     0.9980457  -0.0455530  -0.0000079  -0.0000021   0.0000000   0.0000000   0.0000000   0.0000000
0.0747952     0.9979031  -0.0463588  -0.0000088   0.0000092   0.0000000   0.0000000   0.0000000   0.0000000
0.0758368     0.9979666  -0.0470362   0.0000059  -0.0000077   0.0000000   0.0000000   0.0000000   0.0000000
0.0768928     0.9978888  -0.0476162  -0.0000016   0.0000045   0.0000000   0.0000000   0.0000000   0.0000000
0.0779636     0.9979295  -0.0483535  -0.0000067  -0.0000110   0.0000000   0.0000000   0.0000000   0.0000000
0.0790493     0.9978734  -0.0489653  -0.0000038  -0.0000157   0.0000000   0.0000000   0.0000000   0.0000000
0.0801501     0.9977660  -0.0496252  -0.0000107  -0.0000080   0.0000000   0.0000000   0.0000000   0.0000000
0.0812662     0.9977587  -0.0503603  -0.0000042   0.0000019   0.0000000   0.0000000   0.0000000   0.0000000
0.0823979     0.9977176  -0.0510438  -0.0000102  -0.0000022   0.0000000   0.0000000   0.0000000   0.0000000
0.0835453     0.9977391  -0.0516218   0.0000014  -0.0000003   0.0000000   0.0000000   0.0000000   0.0000000
0.0847087     0.9976707  -0.0525022   0.0000055   0.0000055   0.0000000   0.0000000   0.0000000   0.0000000
0.0858883     0.9974848  -0.0532016  -0.0000030   0.0000014   0.0000000   0.0000000   0.0000000   0.0000000
0.0870843     0.9976408  -0.0539489   0.0000069   0.0000077   0.0000000   0.0000000   0.0000000   0.0000000
0.0882970     0.9975183  -0.0546598   0.0000052  -0.0000071   0.0000000   0.0000000   0.0000000   0.0000000
0.0895266     0.9975351  -0.0555052  -0.0000014   0.0000060   0.0000000   0.0000000   0.0000000   0.0000000
0.0907733     0.9974525  -0.0562051  -0.0000094  -0.0000012   0.0000000   0.0000000   0.0000000   0.0000000
0.0920373     0.9974303  -0.0569758  -0.0000061  -0.0000013   0.0000000   0.0000000   0.0000000   0.0000000
0.0933190     0.9975046  -0.0578456  -0.0000042   0.0000010   0.0000000   0.0000000   0.0000000   0.0000000
0.0946185     0.9973121  -0.0585643   0.0000035  -0.0000027   0.0000000   0.0000000   0.0000000   0.0000000
0.0959361     0.9973414  -0.0593984  -0.0000041   0.0000045   0.0000000   0.0000000   0.0000000   0.0000000
0.0972720     0.9973074  -0.0604111  -0.0000014   0.0000003   0.0000000   0.0000000   0.0000000   0.0000000
0.0986266     0.9972326  -0.0612570   0.0000019  -0.0000062   0.0000000   0.0000000   0.0000000   0.0000000
0.1000000     0.9971230  -0.0620772  -0.0000063   0.0000009   0.0000000   0.0000000   0.0000000   0.0000000
0.1013925     0.9970025  -0.0629541  -0.0000090   0.0000104   0.0000000   0.0000000   0.0000000   0.0000000
0.1028045     0.9969962  -0.0637961   0.0000003  -0.0000044   0.0000000   0.0000000   0.0000000   0.0000000
0.1042361     0.9969642  -0.0646801   0.0000040   0.0000069   0.0000000   0.0000000   0.0000000   0.0000000
0.1056876     0.9968578  -0.0655528   0.0000001  -0.0000009   0.0000000   0.0000000   0.0000000   0.0000000
0.1071593     0.9968188  -0.0665399   0.0000016  -0.0000138   0.0000000   0.0000000   0.0000000   0.0000000
0.1086516     0.9966042  -0.0674466   0.0000070   0.0000041   0.0000000   0.0000000   0.0000000   0.0000000
0.1101646     0.9966815  -0.0681589   0.0000029   0.0000053   0.0000000   0.0000000   0.0000000   0.0000000
0.1116987     0.9965104  -0.0691347  -0.0000051  -0.0000003   0.0000000   0.0000000   0.0000000   0.0000000
0.1132541     0.9965375  -0.0701309   0.0000030   0.0000152   0.0000000   0.0000000   0.0000000   0.0000000
0.1148312     0.9963023  -0.0711672   0.0000007  -0.0000031   0.0000000   0.0000000   0.0000000   0.0000000
0.1164303     0.9963695  -0.0720634  -0.0000031   0.0000014   0.0000000   0.0000000   0.0000000   0.0000000
0.1180517     0.9962558  -0.0730399   0.0000084  -0.0000042   0.0000000   0.0000000   0.0000000   0.0000000
0.1196956     0.9961894  -0.0740788   0.0000091  -0.0000008   0.0000000   0.0000000   0.0000000   0.0000000
0.1213624     0.9960632  -0.0751380   0.0000019  -0.0000053   0.0000000   0.0000000   0.0000000   0.0000000
0.1230524     0.9959657  -0.0761860  -0.0000018   0.0000040   0.0000000   0.0000000   0.0000000   0.0000000
0.1247660     0.9959207  -0.0772400  -0.0000030   0.0000001   0.0000000   0.0000000   0.0000000   0.0000000
0.1265034     0.9958187  -0.0782480   0.0000169  -0.0000022   0.0000000   0.0000000   0.0000000   0.0000000
0.1282650     0.9956992  -0.0794429  -0.0000114   0.0000115   0.0000000   0.0000000   0.0000000   0.0000000
0.1300511     0.9956311  -0.0806286   0.0000034   0.0000052   0.0000000   0.0000000   0.0000000   0.0000000
0.1318621     0.9954842  -0.0815528   0.0000030   0.0000047   0.0000000   0.0000000   0.0000000   0.0000000
0.1336984     0.9955060  -0.0827304  -0.0000047  -0.0000044   0.0000000   0.0000000   0.0000000   0.0000000
0.1355602     0.9953440  -0.0838494  -0.0000051   0.0000122   0.0000000   0.0000000   0.0000000   0.0000000
0.1374479     0.9951952  -0.0851115  -0.0000074   0.0000040   0.0000000   0.0000000   0.0000000   0.0000000
0.1393619     0.9951942  -0.0862411   0.0000003  -0.0000035   0.0000000   0.0000000   0.0000000   0.0000000
0.1413026     0.9950213  -0.0873724  -0.0000007   0.0000027   0.0000000   0.0000000   0.0000000   0.0000000
0.1432703     0.9949957  -0.0885403  -0.0000027   0.0000055   0.0000000   0.0000000   0.0000000   0.0000000
0.1452654     0.9948706  -0.0898585   0.0000111   0.0000008   0.0000000   0.0000000   0.0000000   0.0000000
0.1472883     0.9947417  -0.0911232   0.0000000  -0.0000069   0.0000000   0.0000000   0.0000000   0.0000000
0.1493393     0.9945155  -0.0924754   0.0000003   0.0000037   0.0000000   0.0000000   0.0000000   0.0000000
0.1514189     0.9944963  -0.0936569   0.0000014   0.0000070   0.0000000   0.0000000   0.0000000   0.0000000
0.1535275     0.9943818  -0.0949642  -0.0000027   0.0000091   0.0000000   0.0000000   0.0000000   0.0000000
0.1556654     0.9943017  -0.0962995   0.0000090  -0.0000015   0.0000000   0.0000000   0.0000000   0.0000000
0.1578331     0.9941555  -0.0975149   0.0000109  -0.0000065   0.0000000   0.0000000   0.0000000   0.0000000
0.1600310     0.9939482  -0.0990296  -0.0000018   0.0000020   0.0000000   0.0000000   0.0000000   0.0000000
0.1622595     0.9938165  -0.1004228  -0.0000031  -0.0000065   0.0000000   0.0000000   0.0000000   0.0000000
0.1645191     0.9937339  -0.1016849  -0.0000128   0.0000018   0.0000000   0.0000000   0.0000000   0.0000000
0.1668101     0.9936695  -0.1031986   0.0000002   0.0000010   0.0000000   0.0000000   0.0000000   0.0000000
0.1691330     0.9934167  -0.1045798  -0.0000105   0.0000001   0.0000000   0.0000000   0.0000000   0.0000000
0.1714882     0.9932030  -0.1060831  -0.0000018  -0.0000009   0.0000000   0.0000000   0.0000000   0.0000000
0.1738762     0.9930511  -0.1075056  -0.0000094  -0.0000008   0.0000000   0.0000000   0.0000000   0.0000000
0.1762975     0.9929021  -0.1090565  -0.0000052  -0.0000037   0.0000000   0.0000000   0.0000000   0.0000000
0.1787526     0.9927068  -0.1104962   0.0000013  -0.0000050   0.0000000   0.0000000   0.0000000   0.0000000
0.1812418     0.9924631  -0.1121424   0.0000079   0.0000017   0.0000000   0.0000000   0.0000000   0.0000000
0.1837656     0.9923176  -0.1136354  -0.0000009  -0.0000037   0.0000000   0.0000000   0.0000000   0.0000000
0.1863246     0.9921841  -0.1152460   0.0000053  -0.0000036   0.0000000   0.0000000   0.0000000   0.0000000
0.1889193     0.9920465  -0.1168051  -0.0000107   0.0000067   0.0000000   0.0000000   0.0000000   0.0000000
0.1915501     0.9917829  -0.1183159  -0.0000013   0.0000037   0.0000000   0.0000000   0.0000000   0.0000000
0.1942175     0.9915883  -0.1200330  -0.0000095  -0.0000031   0.0000000   0.0000000   0.0000000   0.0000000
0.1969220     0.9913468  -0.1216644  -0.0000091   0.0000038   0.0000000   0.0000000   0.0000000   0.0000000
0.1996642     0.9911047  -0.1234008  -0.0000128   0.0000035   0.0000000   0.0000000   0.0000000   0.0000000
0.2024447     0.9908690  -0.1250740   0.0000149   0.0000047   0.0000000   0.0000000   0.0000000   0.0000000
0.2052638     0.9907143  -0.1267220   0.0000009   0.0000070   0.0000000   0.0000000   0.0000000   0.0000000
0.2081222     0.9903703  -0.1286103   0.0000055   0.0000130   0.0000000   0.0000000   0.0000000   0.0000000
0.2110203     0.9902173  -0.1303483   0.0000004   0.0000059   0.0000000   0.0000000   0.0000000   0.0000000
0.2139589     0.9900064  -0.1321699  -0.0000084   0.0000093   0.0000000   0.0000000   0.0000000   0.0000000
0.2169384     0.9897495  -0.1340031  -0.0000052   0.0000039   0.0000000   0.0000000   0.0000000   0.0000000
0.2199593     0.9894417  -0.1357897  -0.0000089  -0.0000034   0.0000000   0.0000000   0.0000000   0.0000000
0.2230223     0.9891431  -0.1377135   0.0000127   0.0000012   0.0000000   0.0000000   0.0000000   0.0000000
0.2261280     0.9888603  -0.1396126  -0.0000042  -0.0000022   0.0000000   0.0000000   0.0000000   0.0000000
0.2292769     0.9885305  -0.1414984  -0.0000043   0.0000040   0.0000000   0.0000000   0.0000000   0.0000000
0.2324697     0.9883889  -0.1434217  -0.0000052   0.0000034   0.0000000   0.0000000   0.0000000   0.0000000
0.2357069     0.9880143  -0.1454985  -0.0000005   0.0000016   0.0000000   0.0000000   0.0000000   0.0000000
0.2389893     0.9877511  -0.1475449  -0.0000055  -0.0000007   0.0000000   0.0000000   0.0000000   0.0000000
0.2423173     0.9873709  -0.1495034  -0.0000087  -0.0000060   0.0000000   0.0000000   0.0000000   0.0000000
0.2456916     0.9870901  -0.1515474  -0.0000144   0.0000024   0.0000000   0.0000000   0.0000000   0.0000000
0.2491130     0.9867576  -0.1537582  -0.0000052  -0.0000040   0.0000000   0.0000000   0.0000000   0.0000000
0.2525820     0.9863236  -0.1558221  -0.0000165   0.0000098   0.0000000   0.0000000   0.0000000   0.0000000
0.2560993     0.9861315  -0.1579112  -0.0000070   0.0000016   0.0000000   0.0000000   0.0000000   0.0000000
0.2596656     0.9857223  -0.1600589  -0.0000026   0.0000016   0.0000000   0.0000000   0.0000000   0.0000000
0.2632815     0.9852639  -0.1624319  -0.0000155   0.0000023   0.0000000   0.0000000   0.0000000   0.0000000
0.2669478     0.9849601  -0.1646013  -0.0000126  -0.0000033   0.0000000   0.0000000   0.0000000   0.0000000
0.2706652     0.9845413  -0.1667391   0.0000051  -0.0000001   0.0000000   0.0000000   0.0000000   0.0000000
0.2744343     0.9841264  -0.1690574  -0.0000051   0.0000119   0.0000000   0.0000000   0.0000000   0.0000000
0.2782559     0.9837092  -0.1714538  -0.0000023   0.0000010   0.0000000   0.0000000   0.0000000   0.0000000
0.2821308     0.9832650  -0.1738125  -0.0000074   0.0000043   0.0000000   0.0000000   0.0000000   0.0000000
0.2860596     0.9828358  -0.1762269   0.0000035   0.0000043   0.0000000   0.0000000   0.0000000   0.0000000
0.2900430     0.9824251  -0.1787791  -0.0000237  -0.0000012   0.0000000   0.0000000   0.0000000   0.0000000
0.2940820     0.9818581  -0.1810904  -0.0000069   0.0000033   0.0000000   0.0000000   0.0000000   0.0000000
0.2981772     0.9813626  -0.1836455  -0.0000059   0.0000014   0.0000000   0.0000000   0.0000000   0.0000000
0.3023295     0.9809092  -0.1861579  -0.0000176   0.0000026   0.0000000   0.0000000   0.0000000   0.0000000
0.3065395     0.9803760  -0.1887081  -0.0000015  -0.0000016   0.0000000   0.0000000   0.0000000   0.0000000
0.3108082     0.9799372  -0.1912000  -0.0000085   0.0000091   0.0000000   0.0000000   0.0000000   0.0000000
0.3151363     0.9792711  -0.1938387   0.0000032  -0.0000057   0.0000000   0.0000000   0.0000000   0.0000000
0.3195248     0.9789014  -0.1966231  -0.0000109   0.0000031   0.0000000   0.0000000   0.0000000   0.0000000
0.3239743     0.9782226  -0.1992095  -0.0000172   0.0000078   0.0000000   0.0000000   0.0000000   0.0000000
0.3284857     0.9776905  -0.2019529  -0.0000150   0.0000086   0.0000000   0.0000000   0.0000000   0.0000000
0.3330600     0.9770733  -0.2047217  -0.0000169   0.0000009   0.0000000   0.0000000   0.0000000   0.0000000
0.3376980     0.9764691  -0.2075321  -0.0000215  -0.0000074   0.0000000   0.0000000   0.0000000   0.0000000
0.3424006     0.9758733  -0.2103548  -0.0000128   0.0000075   0.0000000   0.0000000   0.0000000   0.0000000
0.3471687     0.9752041  -0.2132458  -0.0000170   0.0000140   0.0000000   0.0000000   0.0000000   0.0000000
0.3520031     0.9747130  -0.2161637  -0.0000132  -0.0000042   0.0000000   0.0000000   0.0000000   0.0000000
0.3569049     0.9739640  -0.2191809  -0.0000161  -0.0000023   0.0000000   0.0000000   0.0000000   0.0000000
0.3618750     0.9730373  -0.2221246  -0.0000238  -0.0000011   0.0000000   0.0000000   0.0000000   0.0000000
0.3669142     0.9724978  -0.2251356  -0.0000258  -0.0000034   0.0000000   0.0000000   0.0000000   0.0000000
0.3720237     0.9717511  -0.2281809  -0.0000255   0.0000063   0.0000000   0.0000000   0.0000000   0.0000000
0.3772042     0.9708487  -0.2313125  -0.0000163   0.0000011   0.0000000   0.0000000   0.0000000   0.0000000
0.3824570     0.9701643  -0.2344773  -0.0000216  -0.0000103   0.0000000   0.0000000   0.0000000   0.0000000
0.3877828     0.9693478  -0.2377082  -0.0000237   0.0000123   0.0000000   0.0000000   0.0000000   0.0000000
0.3931829     0.9685154  -0.2409280  -0.0000334   0.0000061   0.0000000   0.0000000   0.0000000   0.0000000
0.3986581     0.9675921  -0.2441425  -0.0000265  -0.0000007   0.0000000   0.0000000   0.0000000   0.0000000
0.4042096     0.9667594  -0.2475749  -0.0000180   0.0000009   0.0000000   0.0000000   0.0000000   0.0000000
0.4098384     0.9658932  -0.2508291  -0.0000187  -0.0000134   0.0000000   0.0000000   0.0000000   0.0000000
0.4155455     0.9649636  -0.2543281  -0.0000208   0.0000001   0.0000000   0.0000000   0.0000000   0.0000000
0.4213322     0.9639816  -0.2577427  -0.0000190   0.0000004   0.0000000   0.0000000   0.0000000   0.0000000
0.4271994     0.9629919  -0.2613750  -0.0000289  -0.0000033   0.0000000   0.0000000   0.0000000   0.0000000
0.4331483     0.9620656  -0.2647369  -0.0000229  -0.0000015   0.0000000   0.0000000   0.0000000   0.0000000
0.4391801     0.9609706  -0.2682189  -0.0000327  -0.0000098   0.0000000   0.0000000   0.0000000   0.0000000
0.4452959     0.9598404  -0.2720000  -0.0000310  -0.0000051   0.0000000   0.0000000   0.0000000   0.0000000
0.4514968     0.9588058  -0.2756494  -0.0000382  -0.0000065   0.0000000   0.0000000   0.0000000   0.0000000
0.4577841     0.9576259  -0.2793708  -0.0000292  -0.0000143   0.0000000   0.0000000   0.0000000   0.0000000
0.4641589     0.9564127  -0.2830542  -0.0000259  -0.0000029   0.0000000   0.0000000   0.0000000   0.0000000
0.4706225     0.9553353  -0.2869921  -0.0000275  -0.0000027   0.0000000   0.0000000   0.0000000   0.0000000
0.4771761     0.9541827  -0.2908270  -0.0000283  -0.0000092   0.0000000   0.0000000   0.0000000   0.0000000
0.4838210     0.9528213  -0.2946266  -0.0000189  -0.0000026   0.0000000   0.0000000   0.0000000   0.0000000
0.4905584     0.9515504  -0.2987577  -0.0000352  -0.0000046   0.0000000   0.0000000   0.0000000   0.0000000
0.4973896     0.9502003  -0.3028134  -0.0000296   0.0000002   0.0000000   0.0000000   0.0000000   0.0000000
0.5043159     0.9489226  -0.3066579  -0.0000418   0.0000009   0.0000000   0.0000000   0.0000000   0.0000000
0.5113388     0.9475198  -0.3108779  -0.0000222   0.0000000   0.0000000   0.0000000   0.0000000   0.0000000
0.5184594     0.9461061  -0.3149249  -0.0000528  -0.0000044   0.0000000   0.0000000   0.0000000   0.0000000
0.5256791     0.9445817  -0.3192571  -0.0000454  -0.0000112   0.0000000   0.0000000   0.0000000   0.0000000
0.5329994     0.9430527  -0.3234665  -0.0000452   0.0000157   0.0000000   0.0000000   0.0000000   0.0000000
0.5404216     0.9415489  -0.3277801  -0.0000421  -0.0000085   0.0000000   0.0000000   0.0000000   0.0000000
0.5479472     0.9398839  -0.3321915  -0.0000472  -0.0000045   0.0000000   0.0000000   0.0000000   0.0000000
0.5555776     0.9382243  -0.3366191  -0.0000567  -0.0000035   0.0000000   0.0000000   0.0000000   0.0000000
0.5633143     0.9364785  -0.3410127  -0.0000483  -0.0000022   0.0000000   0.0000000   0.0000000   0.0000000
0.5711586     0.9348619  -0.3454749  -0.0000534  -0.0000098   0.0000000   0.0000000   0.0000000   0.0000000
0.5791123     0.9330226  -0.3500674  -0.0000508  -0.0000057   0.0000000   0.0000000   0.0000000   0.0000000
0.5871766     0.9312230  -0.3547250  -0.0000698   0.0000026   0.0000000   0.0000000   0.0000000   0.0000000
0.5953533     0.9293599  -0.3593880  -0.0000501  -0.0000003   0.0000000   0.0000000   0.0000000   0.0000000
0.6036439     0.9274147  -0.3641197  -0.0000684  -0.0000100   0.0000000   0.0000000   0.0000000   0.0000000
0.6120498     0.9253341  -0.3688600  -0.0000614   0.0000043   0.0000000   0.0000000   0.0000000   0.0000000
0.6205729     0.9234518  -0.3737133  -0.0000524  -0.0000122   0.0000000   0.0000000   0.0000000   0.0000000
0.6292146     0.9213379  -0.3786049  -0.0000561  -0.0000023   0.0000000   0.0000000   0.0000000   0.0000000
0.6379767     0.9191857  -0.3836461  -0.0000643   0.0000007   0.0000000   0.0000000   0.0000000   0.0000000
0.6468608     0.9168776  -0.3885551  -0.0000503  -0.0000046   0.0000000   0.0000000   0.0000000   0.0000000
0.6558686     0.9146906  -0.3937403  -0.0000693   0.0000017   0.0000000   0.0000000   0.0000000   0.0000000
0.6650018     0.9123346  -0.3987499  -0.0000792   0.0000017   0.0000000   0.0000000   0.0000000   0.0000000
0.6742622     0.9099623  -0.4040298  -0.0000801   0.0000042   0.0000000   0.0000000   0.0000000   0.0000000
0.6836516     0.9074431  -0.4091375  -0.0000840   0.0000025   0.0000000   0.0000000   0.0000000   0.0000000
0.6931717     0.9050636  -0.4144024  -0.0000855  -0.0000097   0.0000000   0.0000000   0.0000000   0.0000000
0.7028244     0.9023280  -0.4197042  -0.0001031   0.0000039   0.0000000   0.0000000   0.0000000   0.0000000
0.7126115     0.8997342  -0.4251174  -0.0000965  -0.0000048   0.0000000   0.0000000   0.0000000   0.0000000
0.7225349     0.8969829  -0.4305481  -0.0000999  -0.0000100   0.0000000   0.0000000   0.0000000   0.0000000
0.7325965     0.8942102  -0.4360877  -0.0000889   0.0000038   0.0000000   0.0000000   0.0000000   0.0000000
0.7427982     0.8913695  -0.4416445  -0.0000931   0.0000134   0.0000000   0.0000000   0.0000000   0.0000000
0.7531420     0.8881616  -0.4471693  -0.0000999   0.0000014   0.0000000   0.0000000   0.0000000   0.0000000
0.7636298     0.8853001  -0.4529877  -0.0001127   0.0000006   0.0000000   0.0000000   0.0000000   0.0000000
0.7742637     0.8820397  -0.4587520  -0.0001101   0.0000088   0.0000000   0.0000000   0.0000000   0.0000000
0.7850456     0.8788806  -0.4644895  -0.0001050   0.0000055   0.0000000   0.0000000   0.0000000   0.0000000
0.7959777     0.8756412  -0.4703343  -0.0001148   0.0000037   0.0000000   0.0000000   0.0000000   0.0000000
0.8070620     0.8724270  -0.4761914  -0.0001242   0.0000008   0.0000000   0.0000000   0.0000000   0.0000000
0.8183007     0.8688925  -0.4821211  -0.0001294   0.0000188   0.0000000   0.0000000   0.0000000   0.0000000
0.8296959     0.8653049  -0.4881472  -0.0001251   0.0000134   0.0000000   0.0000000   0.0000000   0.0000000
0.8412497     0.8616660  -0.4942177  -0.0001375   0.0000186   0.0000000   0.0000000   0.0000000   0.0000000
0.8529644     0.8578242  -0.5003582  -0.0001421   0.0000201   0.0000000   0.0000000   0.0000000   0.0000000
0.8648423     0.8540480  -0.5064959  -0.0001392   0.0000164   0.0000000   0.0000000   0.0000000   0.0000000
0.8768856     0.8500076  -0.5126036  -0.0001351   0.0000269   0.0000000   0.0000000   0.0000000   0.0000000
0.8890966     0.8460059  -0.5188675  -0.0001486   0.0000207   0.0000000   0.0000000   0.0000000   0.0000000
0.9014776     0.8418467  -0.5252453  -0.0001542   0.0000211   0.0000000   0.0000000   0.0000000   0.0000000
0.9140311     0.8375240  -0.5314928  -0.0001537   0.0000159   0.0000000   0.0000000   0.0000000   0.0000000
0.9267593     0.8331957  -0.5379610  -0.0001635   0.0000322   0.0000000   0.0000000   0.0000000   0.0000000
0.9396648     0.8286521  -0.5443204  -0.0001704   0.0000381   0.0000000   0.0000000   0.0000000   0.0000000
0.9527500     0.8241578  -0.5508238  -0.0001775   0.0000331   0.0000000   0.0000000   0.0000000   0.0000000
0.9660175     0.8193877  -0.5573516  -0.0001775   0.0000174   0.0000000   0.0000000   0.0000000   0.0000000
0.9794697     0.8146303  -0.5640717  -0.0001900   0.0000293   0.0000000   0.0000000   0.0000000   0.0000000
0.9931092     0.8096730  -0.5706934  -0.0002003   0.0000348   0.0000000   0.0000000   0.0000000   0.0000000
1.0069386     0.8044481  -0.5773076  -0.0001866   0.0000498   0.0000000   0.0000000   0.0000000   0.0000000
1.0209607     0.7992492  -0.5841482  -0.0002000   0.0000387   0.0000000   0.0000000   0.0000000   0.0000000
1.0351780     0.7939927  -0.5907421  -0.0002089   0.0000393   0.0000000   0.0000000   0.0000000   0.0000000
1.0495932     0.7884260  -0.5975352  -0.0002141   0.0000521   0.0000000   0.0000000   0.0000000   0.0000000
1.0642092     0.7828059  -0.6044653  -0.0002198   0.0000509   0.0000000   0.0000000   0.0000000   0.0000000
1.0790288     0.7771097  -0.6113537  -0.0002103   0.0000531   0.0000000   0.0000000   0.0000000   0.0000000
1.0940547     0.7714138  -0.6180281  -0.0002258   0.0000456   0.0000000   0.0000000   0.0000000   0.0000000
1.1092899     0.7651039  -0.6249289  -0.0002223   0.0000712   0.0000000   0.0000000   0.0000000   0.0000000
1.1247372     0.7588706  -0.6320213  -0.0002463   0.0000622   0.0000000   0.0000000   0.0000000   0.0000000
1.1403996     0.7524196  -0.6388705  -0.0002465   0.0000653   0.0000000   0.0000000   0.0000000   0.0000000
1.1562801     0.7459717  -0.6459759  -0.0002533   0.0000821   0.0000000   0.0000000   0.0000000   0.0000000
1.1723818     0.7393812  -0.6529067  -0.0002619   0.0000752   0.0000000   0.0000000   0.0000000   0.0000000
1.1887077     0.7325170  -0.6598766  -0.0002594   0.0000963   0.0000000   0.0000000   0.0000000   0.0000000
1.2052609     0.7255230  -0.6669565  -0.0002779   0.0000814   0.0000000   0.0000000   0.0000000   0.0000000
1.2220447     0.7184051  -0.6741096  -0.0002854   0.0000949   0.0000000   0.0000000   0.0000000   0.0000000
1.2390622     0.7110465  -0.6809866  -0.0002758   0.0000928   0.0000000   0.0000000   0.0000000   0.0000000
1.2563166     0.7035480  -0.6881986  -0.0002948   0.0000966   0.0000000   0.0000000   0.0000000   0.0000000
1.2738113     0.6958423  -0.6952245  -0.0003049   0.0000988   0.0000000   0.0000000   0.0000000   0.0000000
1.2915497     0.6878680  -0.7021911  -0.0003151   0.0001118   0.0000000   0.0000000   0.0000000   0.0000000
1.3095350     0.6798847  -0.7092933  -0.0003216   0.0001195   0.0000000   0.0000000   0.0000000   0.0000000
1.3277708     0.6717281  -0.7163344  -0.0003209   0.0001389   0.0000000   0.0000000   0.0000000   0.0000000
1.3462606     0.6632874  -0.7234180  -0.0003367   0.0001355   0.0000000   0.0000000   0.0000000   0.0000000
1.3650078     0.6547535  -0.7303384  -0.0003392   0.0001340   0.0000000   0.0000000   0.0000000   0.0000000
1.3840161     0.6458040  -0.7373011  -0.0003489   0.0001530   0.0000000   0.0000000   0.0000000   0.0000000
1.4032891     0.6369686  -0.7440900  -0.0003470   0.0001623   0.0000000   0.0000000   0.0000000   0.0000000
1.4228305     0.6275987  -0.7511074  -0.0003596   0.0001679   0.0000000   0.0000000   0.0000000   0.0000000
1.4426440     0.6182425  -0.7581440  -0.0003752   0.0001823   0.0000000   0.0000000   0.0000000   0.0000000
1.4627334     0.6086761  -0.7648721  -0.0003755   0.0001876   0.0000000   0.0000000   0.0000000   0.0000000
1.4831025     0.5986945  -0.7716283  -0.0004020   0.0001956   0.0000000   0.0000000   0.0000000   0.0000000
1.5037553     0.5886947  -0.7783351  -0.0003901   0.0002001   0.0000000   0.0000000   0.0000000   0.0000000
1.5246957     0.5784547  -0.7849810  -0.0003981   0.0002131   0.0000000   0.0000000   0.0000000   0.0000000
1.5459277     0.5679306  -0.7916151  -0.0004036   0.0002226   0.0000000   0.0000000   0.0000000   0.0000000
1.5674554     0.5572437  -0.7980630  -0.0004150   0.0002408   0.0000000   0.0000000   0.0000000   0.0000000
1.5892829     0.5464283  -0.8045915  -0.0004295   0.0002424   0.0000000   0.0000000   0.0000000   0.0000000
1.6114143     0.5352224  -0.8108023  -0.0004233   0.0002493   0.0000000   0.0000000   0.0000000   0.0000000
1.6338539     0.5241224  -0.8170559  -0.0004621   0.0002765   0.0000000   0.0000000   0.0000000   0.0000000
1.6566060     0.5123615  -0.8231872  -0.0004445   0.0002850   0.0000000   0.0000000   0.0000000   0.0000000
1.6796749     0.5007980  -0.8293515  -0.0004718   0.0002894   0.0000000   0.0000000   0.0000000   0.0000000
1.7030650     0.4887172  -0.8352116  -0.0004673   0.0003138   0.0000000   0.0000000   0.0000000   0.0000000
1.7267809     0.4764910  -0.8409485  -0.0004704   0.0003123   0.0000000   0.0000000   0.0000000   0.0000000
1.7508270     0.4638269  -0.8467333  -0.0004955   0.0003405   0.0000000   0.0000000   0.0000000   0.0000000
1.7752080     0.4511478  -0.8520893  -0.0004992   0.0003474   0.0000000   0.0000000   0.0000000   0.0000000
1.7999285     0.4384021  -0.8574671  -0.0005209   0.0003570   0.0000000   0.0000000   0.0000000   0.0000000
1.8249932     0.4252318  -0.8627650  -0.0005173   0.0003745   0.0000000   0.0000000   0.0000000   0.0000000
1.8504070     0.4118129  -0.8678968  -0.0005383   0.0003991   0.0000000   0.0000000   0.0000000   0.0000000
1.8761747     0.3984075  -0.8726337  -0.0005333   0.0004101   0.0000000   0.0000000   0.0000000   0.0000000
1.9023012     0.3844924  -0.8773484  -0.0005370   0.0004250   0.0000000   0.0000000   0.0000000   0.0000000
1.9287915     0.3702867  -0.8817283  -0.0005581   0.0004517   0.0000000   0.0000000   0.0000000   0.0000000
1.9556507     0.3561447  -0.8861991  -0.0005528   0.0004590   0.0000000   0.0000000   0.0000000   0.0000000
1.9828839     0.3417682  -0.8902318  -0.0005753   0.0004869   0.0000000   0.0000000   0.0000000   0.0000000
2.0104964     0.3270458  -0.8939840  -0.0005630   0.0005040   0.0000000   0.0000000   0.0000000   0.0000000
2.0384934     0.3121968  -0.8974787  -0.0005863   0.0005194   0.0000000   0.0000000   0.0000000   0.0000000
2.0668802     0.2972035  -0.9009194  -0.0005998   0.0005344   0.0000000   0.0000000   0.0000000   0.0000000
2.0956624     0.2818879  -0.9038152  -0.0005935   0.0005652   0.0000000   0.0000000   0.0000000   0.0000000
2.1248454     0.2663423  -0.9067750  -0.0006052   0.0005860   0.0000000   0.0000000   0.0000000   0.0000000
2.1544347     0.2504968  -0.9093613  -0.0006168   0.0005918   0.0000000   0.0000000   0.0000000   0.0000000
2.1844361     0.2348082  -0.9116635  -0.0006337   0.0006238   0.0000000   0.0000000   0.0000000   0.0000000
2.2148552     0.2187375  -0.9135654  -0.0006303   0.0006413   0.0000000   0.0000000   0.0000000   0.0000000
2.2456980     0.2026158  -0.9154110  -0.0006386   0.0006822   0.0000000   0.0000000   0.0000000   0.0000000
2.2769703     0.1862116  -0.9169291  -0.0006393   0.0006968   0.0000000   0.0000000   0.0000000   0.0000000
2.3086780     0.1695888  -0.9178075  -0.0006342   0.0007367   0.0000000   0.0000000   0.0000000   0.0000000
2.3408273     0.1528423  -0.9184820  -0.0006450   0.0007630   0.0000000   0.0000000   0.0000000   0.0000000
2.3734243     0.1359304  -0.9187905  -0.0006556   0.0007726   0.0000000   0.0000000   0.0000000   0.0000000
2.4064752     0.1188690  -0.9189130  -0.0006564   0.0008088   0.0000000   0.0000000   0.0000000   0.0000000
2.4399863     0.1019015  -0.9184923  -0.0006428   0.0008344   0.0000000   0.0000000   0.0000000   0.0000000
2.4739641     0.0846088  -0.9176764  -0.0006580   0.0008662   0.0000000   0.0000000   0.0000000   0.0000000
2.5084151     0.0673898  -0.9164306  -0.0006678   0.0008777   0.0000000   0.0000000   0.0000000   0.0000000
2.5433458     0.0500066  -0.9149870  -0.0006628   0.0009223   0.0000000   0.0000000   0.0000000   0.0000000
2.5787629     0.0327024  -0.9130123  -0.0006645   0.0009566   0.0000000   0.0000000   0.0000000   0.0000000
2.6146732     0.0151759  -0.9108648  -0.0006755   0.0009764   0.0000000   0.0000000   0.0000000   0.0000000
2.6510836    -0.0023509  -0.9079583  -0.0006481   0.0010014   0.0000000   0.0000000   0.0000000   0.0000000
2.6880010    -0.0198883  -0.9047345  -0.0006626   0.0010301   0.0000000   0.0000000   0.0000000   0.0000000
2.7254325    -0.0376272  -0.9011445  -0.0006643   0.0010778   0.0000000   0.0000000   0.0000000   0.0000000
2.7633853    -0.0553188  -0.8972504  -0.0006436   0.0011060   0.0000000   0.0000000   0.0000000   0.0000000
2.8018666    -0.0728948  -0.8928251  -0.0006484   0.0011389   0.0000000   0.0000000   0.0000000   0.0000000
2.8408837    -0.0905199  -0.8878767  -0.0006528   0.0011749   0.0000000   0.0000000   0.0000000   0.0000000
2.8804442    -0.1082760  -0.8824642  -0.0006422   0.0012030   0.0000000   0.0000000   0.0000000   0.0000000
2.9205555    -0.1254908  -0.8767875  -0.0006342   0.0012425   0.0000000   0.0000000   0.0000000   0.0000000
2.9612254    -0.1430261  -0.8705341  -0.0006265   0.0012737   0.0000000   0.0000000   0.0000000   0.0000000
3.0024617    -0.1605387  -0.8638009  -0.0006242   0.0013039   0.0000000   0.0000000   0.0000000   0.0000000
3.0442722    -0.1778302  -0.8566704  -0.0006110   0.0013395   0.0000000   0.0000000   0.0000000   0.0000000
3.0866649    -0.1946898  -0.8489840  -0.0006091   0.0013784   0.0000000   0.0000000   0.0000000   0.0000000
3.1296480    -0.2117441  -0.8410769  -0.0005968   0.0014107   0.0000000   0.0000000   0.0000000   0.0000000
3.1732296    -0.2285520  -0.8325406  -0.0005905   0.0014616   0.0000000   0.0000000   0.0000000   0.0000000
3.2174182    -0.2452134  -0.8235646  -0.0005690   0.0014909   0.0000000   0.0000000   0.0000000   0.0000000
3.2622220    -0.2615182  -0.8140978  -0.0005638   0.0015331   0.0000000   0.0000000   0.0000000   0.0000000
3.3076498    -0.2777148  -0.8044079  -0.0005520   0.0015513   0.0000000   0.0000000   0.0000000   0.0000000
3.3537102    -0.2936766  -0.7939986  -0.0005262   0.0016117   0.0000000   0.0000000   0.0000000   0.0000000
3.4004119    -0.3092500  -0.7832454  -0.0005234   0.0016442   0.0000000   0.0000000   0.0000000   0.0000000
3.4477641    -0.3248220  -0.7722055  -0.0005158   0.0016697   0.0000000   0.0000000   0.0000000   0.0000000
3.4957756    -0.3398062  -0.7605266  -0.0004747   0.0017072   0.0000000   0.0000000   0.0000000   0.0000000
3.5444557    -0.3545326  -0.7485644  -0.0004678   0.0017609   0.0000000   0.0000000   0.0000000   0.0000000
3.5938137    -0.3690654  -0.7362946  -0.0004467   0.0017972   0.0000000   0.0000000   0.0000000   0.0000000
3.6438590    -0.3830585  -0.7236199  -0.0004176   0.0018133   0.0000000   0.0000000   0.0000000   0.0000000
3.6946012    -0.3967387  -0.7105743  -0.0003947   0.0018565   0.0000000   0.0000000   0.0000000   0.0000000
3.7460500    -0.4101839  -0.6971312  -0.0003707   0.0019022   0.0000000   0.0000000   0.0000000   0.0000000
3.7982153    -0.4231379  -0.6832732  -0.0003409   0.0019354   0.0000000   0.0000000   0.0000000   0.0000000
3.8511070    -0.4356979  -0.6690846  -0.0003253   0.0019651   0.0000000   0.0000000   0.0000000   0.0000000
3.9047352    -0.4480957  -0.6547991  -0.0002872   0.0020019   0.0000000   0.0000000   0.0000000   0.0000000
3.9591103    -0.4595406  -0.6400310  -0.0002488   0.0020326   0.0000000   0.0000000   0.0000000   0.0000000
4.0142425    -0.4708241  -0.6250461  -0.0002351   0.0020662   0.0000000   0.0000000   0.0000000   0.0000000
4.0701425    -0.4817617  -0.6098678  -0.0002044   0.0020993   0.0000000   0.0000000   0.0000000   0.0000000
4.1268208    -0.4919774  -0.5943811  -0.0001758   0.0021376   0.0000000   0.0000000   0.0000000   0.0000000
4.1842885    -0.5019854  -0.5785069  -0.0001381   0.0021705   0.0000000   0.0000000   0.0000000   0.0000000
4.2425564    -0.5113614  -0.5626001  -0.0000965   0.0022125   0.0000000   0.0000000   0.0000000   0.0000000
4.3016358    -0.5201076  -0.5465301  -0.0000804   0.0022360   0.0000000   0.0000000   0.0000000   0.0000000
4.3615378    -0.5285138  -0.5303647  -0.0000159   0.0022683   0.0000000   0.0000000   0.0000000   0.0000000
4.4222740    -0.5363862  -0.5138849   0.0000074   0.0023028   0.0000000   0.0000000   0.0000000   0.0000000
4.4838559    -0.5437483  -0.4972508   0.0000454   0.0023345   0.0000000   0.0000000   0.0000000   0.0000000
4.5462955    -0.5506591  -0.4806840   0.0000820   0.0023454   0.0000000   0.0000000   0.0000000   0.0000000
4.6096045    -0.5569848  -0.4640498   0.0001217   0.0023739   0.0000000   0.0000000   0.0000000   0.0000000
4.6737951    -0.5628892  -0.4473935   0.0001617   0.0024266   0.0000000   0.0000000   0.0000000   0.0000000
4.7388796    -0.5681580  -0.4305150   0.0002094   0.0024385   0.0000000   0.0000000   0.0000000   0.0000000
4.8048704    -0.5728729  -0.4136573   0.0002534   0.0024629   0.0000000   0.0000000   0.0000000   0.0000000
4.8717802    -0.5772354  -0.3968287   0.0002918   0.0024824   0.0000000   0.0000000   0.0000000   0.0000000
4.9396217    -0.5809517  -0.3800092   0.0003367   0.0025069   0.0000000   0.0000000   0.0000000   0.0000000
5.0084080    -0.5842309  -0.3632310   0.0003721   0.0025516   0.0000000   0.0000000   0.0000000   0.0000000
5.0781521    -0.5871149  -0.3466353   0.0004123   0.0025558   0.0000000   0.0000000   0.0000000   0.0000000
5.1488675    -0.5894763  -0.3299124   0.0004651   0.0025827   0.0000000   0.0000000   0.0000000   0.0000000
5.2205675    -0.5913011  -0.3134175   0.0004879   0.0025933   0.0000000   0.0000000   0.0000000   0.0000000
5.2932661    -0.5926829  -0.2969718   0.0005450   0.0026179   0.0000000   0.0000000   0.0000000   0.0000000
5.3669769    -0.5934351  -0.2806452   0.0006091   0.0026273   0.0000000   0.0000000   0.0000000   0.0000000
5.4417143    -0.5939285  -0.2644526   0.0006423   0.0026573   0.0000000   0.0000000   0.0000000   0.0000000
5.5174924    -0.5938630  -0.2485252   0.0006879   0.0026660   0.0000000   0.0000000   0.0000000   0.0000000
5.5943257    -0.5933282  -0.2327059   0.0007317   0.0026914   0.0000000   0.0000000   0.0000000   0.0000000
5.6722290    -0.5924964  -0.2170144   0.0007845   0.0026943   0.0000000   0.0000000   0.0000000   0.0000000
5.7512171    -0.5912276  -0.2014885   0.0008316   0.0027063   0.0000000   0.0000000   0.0000000   0.0000000
5.8313051    -0.5894370  -0.1862957   0.0008731   0.0027299   0.0000000   0.0000000   0.0000000   0.0000000
5.9125084    -0.5873290  -0.1712441   0.0009376   0.0027248   0.0000000   0.0000000   0.0000000   0.0000000
5.9948425    -0.5848943  -0.1566423   0.0009793   0.0027328   0.0000000   0.0000000   0.0000000   0.0000000
6.0783231    -0.5820682  -0.1420790   0.0010208   0.0027450   0.0000000   0.0000000   0.0000000   0.0000000
6.1629663    -0.5787664  -0.1278071   0.0010907   0.0027573   0.0000000   0.0000000   0.0000000   0.0000000
6.2487881    -0.5752636  -0.1137400   0.0011312   0.0027669   0.0000000   0.0000000   0.0000000   0.0000000
6.3358050    -0.5713253  -0.1000298   0.0011934   0.0027681   0.0000000   0.0000000   0.0000000   0.0000000
6.4240337    -0.5672118  -0.0867325   0.0012198   0.0027679   0.0000000   0.0000000   0.0000000   0.0000000
6.5134909    -0.5627687  -0.0734516   0.0012873   0.0027536   0.0000000   0.0000000   0.0000000   0.0000000
6.6041940    -0.5580240  -0.0607353   0.0013325   0.0027507   0.0000000   0.0000000   0.0000000   0.0000000
6.6961601    -0.5528770  -0.0482218   0.0013648   0.0027771   0.0000000   0.0000000   0.0000000   0.0000000
6.7894068    -0.5477143  -0.0359401   0.0014092   0.0027741   0.0000000   0.0000000   0.0000000   0.0000000
6.8839521    -0.5422410  -0.0239584   0.0014625   0.0027547   0.0000000   0.0000000   0.0000000   0.0000000
6.9798139    -0.5363535  -0.0122996   0.0015150   0.0027580   0.0000000   0.0000000   0.0000000   0.0000000
7.0770107    -0.5304279  -0.0011024   0.0015469   0.0027551   0.0000000   0.0000000   0.0000000   0.0000000
7.1755609    -0.5241934   0.0099654   0.0016117   0.0027608   0.0000000   0.0000000   0.0000000   0.0000000
7.2754835    -0.5179477   0.0205394   0.0016497   0.0027555   0.0000000   0.0000000   0.0000000   0.0000000
7.3767976    -0.5113690   0.0309406   0.0016963   0.0027389   0.0000000   0.0000000   0.0000000   0.0000000
7.4795225    -0.5046258   0.0408913   0.0017396   0.0027537   0.0000000   0.0000000   0.0000000   0.0000000
7.5836779    -0.4978134   0.0504779   0.0017767   0.0027301   0.0000000   0.0000000   0.0000000   0.0000000
7.6892837    -0.4909415   0.0599618   0.0018259   0.0027234   0.0000000   0.0000000   0.0000000   0.0000000
7.7963601    -0.4839957   0.0688717   0.0018932   0.0027223   0.0000000   0.0000000   0.0000000   0.0000000
7.9049276    -0.4768334   0.0778409   0.0019127   0.0027006   0.0000000   0.0000000   0.0000000   0.0000000
8.0150070    -0.4694336   0.0863433   0.0019693   0.0027063   0.0000000   0.0000000   0.0000000   0.0000000
8.1266192    -0.4621269   0.0943431   0.0019910   0.0026915   0.0000000   0.0000000   0.0000000   0.0000000
8.2397857    -0.4547455   0.1021836   0.0020497   0.0026796   0.0000000   0.0000000   0.0000000   0.0000000
8.3545281    -0.4471749   0.1098919   0.0020973   0.0026626   0.0000000   0.0000000   0.0000000   0.0000000
8.4708683    -0.4396328   0.1171549   0.0021257   0.0026534   0.0000000   0.0000000   0.0000000   0.0000000
8.5888286    -0.4319645   0.1240637   0.0021927   0.0026467   0.0000000   0.0000000   0.0000000   0.0000000
8.7084315    -0.4243925   0.1308060   0.0022013   0.0026130   0.0000000   0.0000000   0.0000000   0.0000000
8.8297000    -0.4166313   0.1371434   0.0022604   0.0026103   0.0000000   0.0000000   0.0000000   0.0000000
8.9526571    -0.4088772   0.1431789   0.0022912   0.0025889   0.0000000   0.0000000   0.0000000   0.0000000
9.0773265    -0.4011849   0.1490506   0.0023316   0.0025853   0.0000000   0.0000000   0.0000000   0.0000000
9.2037320    -0.3933697   0.1546150   0.0023800   0.0025652   0.0000000   0.0000000   0.0000000   0.0000000
9.3318977    -0.3855506   0.1598506   0.0024076   0.0025389   0.0000000   0.0000000   0.0000000   0.0000000
9.4618482    -0.3781078   0.1648856   0.0024456   0.0025111   0.0000000   0.0000000   0.0000000   0.0000000
9.5936083    -0.3703355   0.1696272   0.0024766   0.0025123   0.0000000   0.0000000   0.0000000   0.0000000
9.7272032    -0.3626892   0.1742005   0.0025304   0.0024715   0.0000000   0.0000000   0.0000000   0.0000000
9.8626585    -0.3550441   0.1785216   0.0025490   0.0024721   0.0000000   0.0000000   0.0000000   0.0000000
10.0000000   -0.3474691   0.1825822   0.0025904   0.0024528   0.0000000   0.0000000   0.0000000   0.0000000
10.1392541   -0.3398407   0.1864097   0.0026295   0.0024362   0.0000000   0.0000000   0.0000000   0.0000000
10.2804473   -0.3323318   0.1899877   0.0026558   0.0024150   0.0000000   0.0000000   0.0000000   0.0000000
10.4236067   -0.3248009   0.1932608   0.0026975   0.0023955   0.0000000   0.0000000   0.0000000   0.0000000
10.5687597   -0.3174429   0.1963579   0.0027299   0.0023756   0.0000000   0.0000000   0.0000000   0.0000000
10.7159340   -0.3100615   0.1994395   0.0027665   0.0023533   0.0000000   0.0000000   0.0000000   0.0000000
10.8651577   -0.3028140   0.2021705   0.0027817   0.0023372   0.0000000   0.0000000   0.0000000   0.0000000
11.0164595   -0.2956105   0.2047312   0.0028168   0.0022995   0.0000000   0.0000000   0.0000000   0.0000000
11.1698682   -0.2883354   0.2070680   0.0028448   0.0022910   0.0000000   0.0000000   0.0000000   0.0000000
11.3254132   -0.2813183   0.2092324   0.0028684   0.0022605   0.0000000   0.0000000   0.0000000   0.0000000
11.4831241   -0.2743388   0.2112614   0.0029172   0.0022472   0.0000000   0.0000000   0.0000000   0.0000000
11.6430313   -0.2673547   0.2131395   0.0029420   0.0022266   0.0000000   0.0000000   0.0000000   0.0000000
11.8051653   -0.2605190   0.2147074   0.0029704   0.0022053   0.0000000   0.0000000   0.0000000   0.0000000
11.9695570   -0.2537941   0.2161936   0.0029837   0.0021855   0.0000000   0.0000000   0.0000000   0.0000000
12.1362380   -0.2471157   0.2175231   0.0030162   0.0021550   0.0000000   0.0000000   0.0000000   0.0000000
12.3052400   -0.2405328   0.2187018   0.0030525   0.0021388   0.0000000   0.0000000   0.0000000   0.0000000
12.4765955   -0.2339600   0.2197401   0.0030697   0.0021079   0.0000000   0.0000000   0.0000000   0.0000000
12.6503372   -0.2276289   0.2206885   0.0030829   0.0020957   0.0000000   0.0000000   0.0000000   0.0000000
12.8264983   -0.2213317   0.2214725   0.0031186   0.0020688   0.0000000   0.0000000   0.0000000   0.0000000
13.0051125   -0.2150286   0.2221138   0.0031287   0.0020421   0.0000000   0.0000000   0.0000000   0.0000000
13.1862140   -0.2088702   0.2225855   0.0031680   0.0020160   0.0000000   0.0000000   0.0000000   0.0000000
13.3698374   -0.2027857   0.2230073   0.0031937   0.0019894   0.0000000   0.0000000   0.0000000   0.0000000
13.5560179   -0.1968691   0.2232216   0.0032108   0.0019700   0.0000000   0.0000000   0.0000000   0.0000000
13.7447909   -0.1909715   0.2234446   0.0032333   0.0019594   0.0000000   0.0000000   0.0000000   0.0000000
13.9361927   -0.1852192   0.2234185   0.0032487   0.0019301   0.0000000   0.0000000   0.0000000   0.0000000
14.1302599   -0.1795257   0.2233890   0.0032636   0.0019042   0.0000000   0.0000000   0.0000000   0.0000000
14.3270295   -0.1739536   0.2231854   0.0032964   0.0018842   0.0000000   0.0000000   0.0000000   0.0000000
14.5265393   -0.1685542   0.2230426   0.0033207   0.0018682   0.0000000   0.0000000   0.0000000   0.0000000
14.7288272   -0.1631753   0.2226644   0.0033364   0.0018449   0.0000000   0.0000000   0.0000000   0.0000000
14.9339322   -0.1578502   0.2223061   0.0033507   0.0018320   0.0000000   0.0000000   0.0000000   0.0000000
15.1418933   -0.1526389   0.2218327   0.0033755   0.0017951   0.0000000   0.0000000   0.0000000   0.0000000
15.3527503   -0.1475059   0.2211746   0.0033979   0.0017708   0.0000000   0.0000000   0.0000000   0.0000000
15.5665436   -0.1425430   0.2205809   0.0034172   0.0017583   0.0000000   0.0000000   0.0000000   0.0000000
15.7833141   -0.1375144   0.2197923   0.0034327   0.0017330   0.0000000   0.0000000   0.0000000   0.0000000
16.0031031   -0.1327607   0.2189946   0.0034498   0.0017108   0.0000000   0.0000000   0.0000000   0.0000000
16.2259529   -0.1279914   0.2180481   0.0034580   0.0016792   0.0000000   0.0000000   0.0000000   0.0000000
16.4519059   -0.1233841   0.2172662   0.0034726   0.0016688   0.0000000   0.0000000   0.0000000   0.0000000
16.6810054   -0.1188100   0.2162722   0.0034979   0.0016414   0.0000000   0.0000000   0.0000000   0.0000000
16.9132952   -0.1143997   0.2152196   0.0035164   0.0016263   0.0000000   0.0000000   0.0000000   0.0000000
17.1488197   -0.1099193   0.2141474   0.0035352   0.0016047   0.0000000   0.0000000   0.0000000   0.0000000
17.3876240   -0.1057175   0.2129234   0.0035381   0.0015793   0.0000000   0.0000000   0.0000000   0.0000000
17.6297538   -0.1013742   0.2117326   0.0035532   0.0015552   0.0000000   0.0000000   0.0000000   0.0000000
17.8752553   -0.0973455   0.2104974   0.0035741   0.0015315   0.0000000   0.0000000   0.0000000   0.0000000
18.1241755   -0.0932425   0.2092756   0.0035964   0.0015022   0.0000000   0.0000000   0.0000000   0.0000000
18.3765620   -0.0893414   0.2078976   0.0036032   0.0014742   0.0000000   0.0000000   0.0000000   0.0000000
18.6324631   -0.0854242   0.2064876   0.0036128   0.0014460   0.0000000   0.0000000   0.0000000   0.0000000
18.8919278   -0.0816332   0.2051579   0.0036357   0.0014498   0.0000000   0.0000000   0.0000000   0.0000000
19.1550056   -0.0778502   0.2037917   0.0036585   0.0014161   0.0000000   0.0000000   0.0000000   0.0000000
19.4217468   -0.0742714   0.2022607   0.0036713   0.0013871   0.0000000   0.0000000   0.0000000   0.0000000
19.6922026   -0.0707328   0.2007485   0.0036670   0.0013794   0.0000000   0.0000000   0.0000000   0.0000000
19.9664245   -0.0672389   0.1993102   0.0036810   0.0013564   0.0000000   0.0000000   0.0000000   0.0000000
20.2444651   -0.0637279   0.1976950   0.0036866   0.0013234   0.0000000   0.0000000   0.0000000   0.0000000
20.5263775   -0.0604680   0.1961047   0.0036940   0.0013014   0.0000000   0.0000000   0.0000000   0.0000000
20.8122157   -0.0571976   0.1946010   0.0037028   0.0012784   0.0000000   0.0000000   0.0000000   0.0000000
21.1020343   -0.0539856   0.1929468   0.0037231   0.0012744   0.0000000   0.0000000   0.0000000   0.0000000
21.3958887   -0.0508736   0.1913386   0.0037287   0.0012568   0.0000000   0.0000000   0.0000000   0.0000000
21.6938352   -0.0478485   0.1896853   0.0037544   0.0012177   0.0000000   0.0000000   0.0000000   0.0000000
21.9959307   -0.0449449   0.1880583   0.0037477   0.0012021   0.0000000   0.0000000   0.0000000   0.0000000
22.3022330   -0.0419403   0.1863545   0.0037629   0.0011940   0.0000000   0.0000000   0.0000000   0.0000000
22.6128007   -0.0390738   0.1846879   0.0037874   0.0011562   0.0000000   0.0000000   0.0000000   0.0000000
22.9276931   -0.0362409   0.1831605   0.0037841   0.0011445   0.0000000   0.0000000   0.0000000   0.0000000
23.2469706   -0.0334923   0.1813959   0.0037880   0.0011280   0.0000000   0.0000000   0.0000000   0.0000000
23.5706941   -0.0308646   0.1795177   0.0038113   0.0010972   0.0000000   0.0000000   0.0000000   0.0000000
23.8989257   -0.0282075   0.1779480   0.0038090   0.0010750   0.0000000   0.0000000   0.0000000   0.0000000
24.2317279   -0.0257146   0.1762551   0.0038158   0.0010570   0.0000000   0.0000000   0.0000000   0.0000000
24.5691646   -0.0230835   0.1744811   0.0038252   0.0010358   0.0000000   0.0000000   0.0000000   0.0000000
24.9113003   -0.0207692   0.1727138   0.0038401   0.0010128   0.0000000   0.0000000   0.0000000   0.0000000
25.2582003   -0.0182304   0.1709878   0.0038423   0.0009798   0.0000000   0.0000000   0.0000000   0.0000000
25.6099310   -0.0159712   0.1692387   0.0038457   0.0009864   0.0000000   0.0000000   0.0000000   0.0000000
25.9665597   -0.0136744   0.1674042   0.0038460   0.0009571   0.0000000   0.0000000   0.0000000   0.0000000
26.3281547   -0.0114364   0.1657274   0.0038635   0.0009316   0.0000000   0.0000000   0.0000000   0.0000000
26.6947849   -0.0093329   0.1640044   0.0038685   0.0009254   0.0000000   0.0000000   0.0000000   0.0000000
27.0665207   -0.0072130   0.1622282   0.0038757   0.0009119   0.0000000   0.0000000   0.0000000   0.0000000
27.4434330   -0.0050820   0.1604931   0.0038831   0.0008852   0.0000000   0.0000000   0.0000000   0.0000000
27.8255940   -0.0031409   0.1587687   0.0038894   0.0008583   0.0000000   0.0000000   0.0000000   0.0000000
28.2130768   -0.0011517   0.1571243   0.0038975   0.0008480   0.0000000   0.0000000   0.0000000   0.0000000
28.6059554    0.0008460   0.1552634   0.0039094   0.0008246   0.0000000   0.0000000   0.0000000   0.0000000
29.0043049    0.0027086   0.1535505   0.0039028   0.0008156   0.0000000   0.0000000   0.0000000   0.0000000
29.4082017    0.0044816   0.1518931   0.0039172   0.0007948   0.0000000   0.0000000   0.0000000   0.0000000
29.8177229    0.0062610   0.1500530   0.0039154   0.0007553   0.0000000   0.0000000   0.0000000   0.0000000
30.2329468    0.0081855   0.1483531   0.0039329   0.0007704   0.0000000   0.0000000   0.0000000   0.0000000
30.6539530    0.0098625   0.1466530   0.0039172   0.0007414   0.0000000   0.0000000   0.0000000   0.0000000
31.0808217    0.0115174   0.1450164   0.0039283   0.0007185   0.0000000   0.0000000   0.0000000   0.0000000
31.5136348    0.0131253   0.1432212   0.0039342   0.0007168   0.0000000   0.0000000   0.0000000   0.0000000
31.9524751    0.0147547   0.1415519   0.0039410   0.0006768   0.0000000   0.0000000   0.0000000   0.0000000
32.3974263    0.0162459   0.1399110   0.0039539   0.0006518   0.0000000   0.0000000   0.0000000   0.0000000
32.8485737    0.0178030   0.1382040   0.0039621   0.0006581   0.0000000   0.0000000   0.0000000   0.0000000
33.3060034    0.0192893   0.1365585   0.0039632   0.0006156   0.0000000   0.0000000   0.0000000   0.0000000
33.7698031    0.0207494   0.1348257   0.0039618   0.0006102   0.0000000   0.0000000   0.0000000   0.0000000
34.2400614    0.0221039   0.1332208   0.0039786   0.0005892   0.0000000   0.0000000   0.0000000   0.0000000
34.7168682    0.0235973   0.1315903   0.0039806   0.0005861   0.0000000   0.0000000   0.0000000   0.0000000
35.2003147    0.0249562   0.1300705   0.0039667   0.0005641   0.0000000   0.0000000   0.0000000   0.0000000
35.6904935    0.0262777   0.1283076   0.0039561   0.0005490   0.0000000   0.0000000   0.0000000   0.0000000
36.1874981    0.0275093   0.1268072   0.0039955   0.0005231   0.0000000   0.0000000   0.0000000   0.0000000
36.6914238    0.0289061   0.1251965   0.0039857   0.0005028   0.0000000   0.0000000   0.0000000   0.0000000
37.2023668    0.0299278   0.1236776   0.0039915   0.0004785   0.0000000   0.0000000   0.0000000   0.0000000
37.7204249    0.0312170   0.1219554   0.0040000   0.0004688   0.0000000   0.0000000   0.0000000   0.0000000
38.2456972    0.0323595   0.1205241   0.0039922   0.0004540   0.0000000   0.0000000   0.0000000   0.0000000
38.7782841    0.0335253   0.1189340   0.0040055   0.0004298   0.0000000   0.0000000   0.0000000   0.0000000
39.3182876    0.0347007   0.1173850   0.0040052   0.0004240   0.0000000   0.0000000   0.0000000   0.0000000
39.8658107    0.0357956   0.1158413   0.0040021   0.0004048   0.0000000   0.0000000   0.0000000   0.0000000
40.4209584    0.0368231   0.1142556   0.0040089   0.0003802   0.0000000   0.0000000   0.0000000   0.0000000
40.9838367    0.0378509   0.1127980   0.0040086   0.0003624   0.0000000   0.0000000   0.0000000   0.0000000
41.5545533    0.0388025   0.1112717   0.0040170   0.0003434   0.0000000   0.0000000   0.0000000   0.0000000
42.1332174    0.0399035   0.1098064   0.0039983   0.0003334   0.0000000   0.0000000   0.0000000   0.0000000
42.7199397    0.0408551   0.1083449   0.0040183   0.0003120   0.0000000   0.0000000   0.0000000   0.0000000
43.3148322    0.0418327   0.1069467   0.0040198   0.0003041   0.0000000   0.0000000   0.0000000   0.0000000
43.9180089    0.0427051   0.1053963   0.0040170   0.0002848   0.0000000   0.0000000   0.0000000   0.0000000
44.5295851    0.0437021   0.1039573   0.0040174   0.0002766   0.0000000   0.0000000   0.0000000   0.0000000
45.1496777    0.0445489   0.1025414   0.0040242   0.0002543   0.0000000   0.0000000   0.0000000   0.0000000
45.7784054    0.0453440   0.1010923   0.0040094   0.0002429   0.0000000   0.0000000   0.0000000   0.0000000
46.4158883    0.0462553   0.0997960   0.0040229   0.0002129   0.0000000   0.0000000   0.0000000   0.0000000
47.0622485    0.0471493   0.0983262   0.0040454   0.0001994   0.0000000   0.0000000   0.0000000   0.0000000
47.7176095    0.0479113   0.0969758   0.0040361   0.0001858   0.0000000   0.0000000   0.0000000   0.0000000
48.3820966    0.0487102   0.0955637   0.0040373   0.0001732   0.0000000   0.0000000   0.0000000   0.0000000
49.0558371    0.0495732   0.0941934   0.0040433   0.0001375   0.0000000   0.0000000   0.0000000   0.0000000
49.7389596    0.0502125   0.0929074   0.0040332   0.0001310   0.0000000   0.0000000   0.0000000   0.0000000
50.4315949    0.0509818   0.0914525   0.0040395   0.0001104   0.0000000   0.0000000   0.0000000   0.0000000
51.1338754    0.0517172   0.0902279   0.0040332   0.0000994   0.0000000   0.0000000   0.0000000   0.0000000
51.8459354    0.0524586   0.0889686   0.0040404   0.0000823   0.0000000   0.0000000   0.0000000   0.0000000
52.5679112    0.0532117   0.0875634   0.0040457   0.0000816   0.0000000   0.0000000   0.0000000   0.0000000
53.2999408    0.0539458   0.0863630   0.0040464   0.0000533   0.0000000   0.0000000   0.0000000   0.0000000
54.0421642    0.0545201   0.0850038   0.0040399   0.0000439   0.0000000   0.0000000   0.0000000   0.0000000
54.7947234    0.0552186   0.0837780   0.0040433   0.0000242   0.0000000   0.0000000   0.0000000   0.0000000
55.5577622    0.0558804   0.0824913   0.0040601   0.0000119   0.0000000   0.0000000   0.0000000   0.0000000
56.3314267    0.0565534   0.0812944   0.0040431  -0.0000127   0.0000000   0.0000000   0.0000000   0.0000000
57.1158648    0.0572102   0.0799330   0.0040441  -0.0000279   0.0000000   0.0000000   0.0000000   0.0000000
57.9112265    0.0578153   0.0787430   0.0040448  -0.0000549   0.0000000   0.0000000   0.0000000   0.0000000
58.7176639    0.0582786   0.0775092   0.0040470  -0.0000648   0.0000000   0.0000000   0.0000000   0.0000000
59.5353313    0.0589529   0.0763136   0.0040420  -0.0000816   0.0000000   0.0000000   0.0000000   0.0000000
60.3643851    0.0595629   0.0750549   0.0040337  -0.0000917   0.0000000   0.0000000   0.0000000   0.0000000
61.2049837    0.0601302   0.0738286   0.0040533  -0.0001054   0.0000000   0.0000000   0.0000000   0.0000000
62.0572881    0.0607038   0.0726190   0.0040441  -0.0001334   0.0000000   0.0000000   0.0000000   0.0000000
62.9214611    0.0613298   0.0714199   0.0040515  -0.0001387   0.0000000   0.0000000   0.0000000   0.0000000
63.7976681    0.0618874   0.0701992   0.0040485  -0.0001623   0.0000000   0.0000000   0.0000000   0.0000000
64.6860766    0.0622626   0.0690442   0.0040484  -0.0001801   0.0000000   0.0000000   0.0000000   0.0000000
65.5868566    0.0629504   0.0679068   0.0040515  -0.0002034   0.0000000   0.0000000   0.0000000   0.0000000
66.5001803    0.0634972   0.0667927   0.0040524  -0.0002157   0.0000000   0.0000000   0.0000000   0.0000000
67.4262224    0.0639581   0.0656379   0.0040510  -0.0002332   0.0000000   0.0000000   0.0000000   0.0000000
68.3651600    0.0645844   0.0644893   0.0040468  -0.0002486   0.0000000   0.0000000   0.0000000   0.0000000
69.3171728    0.0649900   0.0632691   0.0040344  -0.0002576   0.0000000   0.0000000   0.0000000   0.0000000
70.2824426    0.0654119   0.0620764   0.0040369  -0.0002892   0.0000000   0.0000000   0.0000000   0.0000000
71.2611543    0.0659482   0.0609055   0.0040390  -0.0003099   0.0000000   0.0000000   0.0000000   0.0000000
72.2534949    0.0663690   0.0597652   0.0040505  -0.0003098   0.0000000   0.0000000   0.0000000   0.0000000
73.2596543    0.0669573   0.0587004   0.0040383  -0.0003327   0.0000000   0.0000000   0.0000000   0.0000000
74.2798248    0.0673563   0.0575377   0.0040613  -0.0003586   0.0000000   0.0000000   0.0000000   0.0000000
75.3142017    0.0678526   0.0565335   0.0040309  -0.0003788   0.0000000   0.0000000   0.0000000   0.0000000
76.3629826    0.0682771   0.0552762   0.0040383  -0.0003763   0.0000000   0.0000000   0.0000000   0.0000000
77.4263683    0.0686318   0.0541396   0.0040413  -0.0003969   0.0000000   0.0000000   0.0000000   0.0000000
78.5045620    0.0691216   0.0530564   0.0040400  -0.0004170   0.0000000   0.0000000   0.0000000   0.0000000
79.5977700    0.0694840   0.0518719   0.0040381  -0.0004340   0.0000000   0.0000000   0.0000000   0.0000000
80.7062014    0.0699376   0.0507738   0.0040364  -0.0004410   0.0000000   0.0000000   0.0000000   0.0000000
81.8300682    0.0702663   0.0496523   0.0040303  -0.0004793   0.0000000   0.0000000   0.0000000   0.0000000
82.9695852    0.0706502   0.0485470   0.0040318  -0.0005014   0.0000000   0.0000000   0.0000000   0.0000000
84.1249705    0.0709886   0.0474137   0.0040313  -0.0005173   0.0000000   0.0000000   0.0000000   0.0000000
85.2964450    0.0713729   0.0462814   0.0040215  -0.0005580   0.0000000   0.0000000   0.0000000   0.0000000
86.4842328    0.0716868   0.0451760   0.0040196  -0.0005556   0.0000000   0.0000000   0.0000000   0.0000000
87.6885609    0.0720346   0.0440189   0.0040157  -0.0005717   0.0000000   0.0000000   0.0000000   0.0000000
88.9096599    0.0724364   0.0428704   0.0040213  -0.0005741   0.0000000   0.0000000   0.0000000   0.0000000
90.1477631    0.0726934   0.0417413   0.0040055  -0.0006041   0.0000000   0.0000000   0.0000000   0.0000000
91.4031075    0.0729858   0.0406205   0.0040149  -0.0006209   0.0000000   0.0000000   0.0000000   0.0000000
92.6759330    0.0732711   0.0394435   0.0040037  -0.0006496   0.0000000   0.0000000   0.0000000   0.0000000
93.9664831    0.0734952   0.0383726   0.0039952  -0.0006683   0.0000000   0.0000000   0.0000000   0.0000000
95.2750047    0.0737126   0.0372546   0.0040027  -0.0006855   0.0000000   0.0000000   0.0000000   0.0000000
96.6017480    0.0738641   0.0362171   0.0040132  -0.0006992   0.0000000   0.0000000   0.0000000   0.0000000
97.9469667    0.0741471   0.0351346   0.0039932  -0.0007273   0.0000000   0.0000000   0.0000000   0.0000000
99.3109181    0.0742833   0.0339513   0.0039982  -0.0007341   0.0000000   0.0000000   0.0000000   0.0000000
100.6938631   0.0743347   0.0329086   0.0039869  -0.0007572   0.0000000   0.0000000   0.0000000   0.0000000
102.0960662   0.0745546   0.0317914   0.0039945  -0.0007720   0.0000000   0.0000000   0.0000000   0.0000000
103.5177956   0.0747106   0.0306828   0.0039892  -0.0007927   0.0000000   0.0000000   0.0000000   0.0000000
104.9593231   0.0747852   0.0296587   0.0039802  -0.0008231   0.0000000   0.0000000   0.0000000   0.0000000
106.4209244   0.0750089   0.0286890   0.0039543  -0.0008538   0.0000000   0.0000000   0.0000000   0.0000000
107.9028792   0.0749970   0.0275480   0.0039886  -0.0008476   0.0000000   0.0000000   0.0000000   0.0000000
109.4054707   0.0750603   0.0263982   0.0039649  -0.0008847   0.0000000   0.0000000   0.0000000   0.0000000
110.9289865   0.0749617   0.0254920   0.0039462  -0.0009194   0.0000000   0.0000000   0.0000000   0.0000000
112.4737178   0.0749071   0.0244178   0.0039708  -0.0009379   0.0000000   0.0000000   0.0000000   0.0000000
114.0399602   0.0749525   0.0234212   0.0039506  -0.0009282   0.0000000   0.0000000   0.0000000   0.0000000
115.6280131   0.0748478   0.0224750   0.0039616  -0.0009880   0.0000000   0.0000000   0.0000000   0.0000000
117.2381803   0.0749086   0.0214819   0.0039103  -0.0009858   0.0000000   0.0000000   0.0000000   0.0000000
118.8707698   0.0748638   0.0204973   0.0039122  -0.0009999   0.0000000   0.0000000   0.0000000   0.0000000
120.5260937   0.0747717   0.0195927   0.0039353  -0.0010416   0.0000000   0.0000000   0.0000000   0.0000000
122.2044687   0.0746810   0.0186561   0.0039226  -0.0010564   0.0000000   0.0000000   0.0000000   0.0000000
123.9062157   0.0745501   0.0177694   0.0038928  -0.0010803   0.0000000   0.0000000   0.0000000   0.0000000
125.6316602   0.0745904   0.0167619   0.0038953  -0.0010942   0.0000000   0.0000000   0.0000000   0.0000000
127.3811323   0.0745448   0.0158798   0.0039005  -0.0010813   0.0000000   0.0000000   0.0000000   0.0000000
129.1549665   0.0741246   0.0150730   0.0038796  -0.0011365   0.0000000   0.0000000   0.0000000   0.0000000
130.9535020   0.0740243   0.0143284   0.0038827  -0.0011700   0.0000000   0.0000000   0.0000000   0.0000000
132.7770829   0.0738592   0.0135326   0.0038832  -0.0012109   0.0000000   0.0000000   0.0000000   0.0000000
134.6260579   0.0736825   0.0127629   0.0038842  -0.0011892   0.0000000   0.0000000   0.0000000   0.0000000
136.5007807   0.0735851   0.0119300   0.0038472  -0.0012252   0.0000000   0.0000000   0.0000000   0.0000000
138.4016097   0.0730860   0.0111497   0.0038490  -0.0012601   0.0000000   0.0000000   0.0000000   0.0000000
140.3289085   0.0729209   0.0104635   0.0038470  -0.0012721   0.0000000   0.0000000   0.0000000   0.0000000
142.2830457   0.0728959   0.0099770   0.0038256  -0.0012922   0.0000000   0.0000000   0.0000000   0.0000000
144.2643951   0.0725558   0.0092933   0.0038304  -0.0013274   0.0000000   0.0000000   0.0000000   0.0000000
146.2733356   0.0726531   0.0084638   0.0038156  -0.0013326   0.0000000   0.0000000   0.0000000   0.0000000
148.3102514   0.0723038   0.0077384   0.0038255  -0.0013453   0.0000000   0.0000000   0.0000000   0.0000000
150.3755321   0.0719841   0.0073085   0.0038064  -0.0013866   0.0000000   0.0000000   0.0000000   0.0000000
152.4695727   0.0716148   0.0067359   0.0037978  -0.0014030   0.0000000   0.0000000   0.0000000   0.0000000
154.5927736   0.0714894   0.0062022   0.0037509  -0.0014512   0.0000000   0.0000000   0.0000000   0.0000000
156.7455410   0.0712667   0.0055345   0.0037928  -0.0014420   0.0000000   0.0000000   0.0000000   0.0000000
158.9282866   0.0711623   0.0050623   0.0037945  -0.0014493   0.0000000   0.0000000   0.0000000   0.0000000
161.1414277   0.0707687   0.0045259   0.0037331  -0.0015046   0.0000000   0.0000000   0.0000000   0.0000000
163.3853878   0.0704458   0.0041001   0.0037173  -0.0015055   0.0000000   0.0000000   0.0000000   0.0000000
165.6605959   0.0701788   0.0036384   0.0037188  -0.0015522   0.0000000   0.0000000   0.0000000   0.0000000
167.9674872   0.0703029   0.0032511   0.0037187  -0.0015546   0.0000000   0.0000000   0.0000000   0.0000000
170.3065029   0.0698703   0.0028782   0.0037274  -0.0016431   0.0000000   0.0000000   0.0000000   0.0000000
172.6780904   0.0696373   0.0022234   0.0037313  -0.0016130   0.0000000   0.0000000   0.0000000   0.0000000
175.0827032   0.0693708   0.0020971   0.0036803  -0.0016647   0.0000000   0.0000000   0.0000000   0.0000000
177.5208012   0.0691401   0.0014793   0.0036605  -0.0016652   0.0000000   0.0000000   0.0000000   0.0000000
179.9928507   0.0688543   0.0011619   0.0036721  -0.0017192   0.0000000   0.0000000   0.0000000   0.0000000
182.4993245   0.0687238   0.0007516   0.0036685  -0.0017162   0.0000000   0.0000000   0.0000000   0.0000000
185.0407020   0.0686231   0.0003943   0.0036170  -0.0017677   0.0000000   0.0000000   0.0000000   0.0000000
187.6174691   0.0683319   0.0001313   0.0036085  -0.0018071   0.0000000   0.0000000   0.0000000   0.0000000
190.2301189   0.0684994  -0.0002491   0.0036009  -0.0018251   0.0000000   0.0000000   0.0000000   0.0000000
192.8791508   0.0682687  -0.0005185   0.0036230  -0.0018761   0.0000000   0.0000000   0.0000000   0.0000000
195.5650716   0.0675404  -0.0010489   0.0035508  -0.0018878   0.0000000   0.0000000   0.0000000   0.0000000
198.2883949   0.0678352  -0.0014955   0.0035246  -0.0019381   0.0000000   0.0000000   0.0000000   0.0000000
201.0496416   0.0675552  -0.0018338   0.0034604  -0.0019076   0.0000000   0.0000000   0.0000000   0.0000000
203.8493398   0.0674914  -0.0020237   0.0034472  -0.0019159   0.0000000   0.0000000   0.0000000   0.0000000
206.6880250   0.0673449  -0.0023623   0.0034802  -0.0019772   0.0000000   0.0000000   0.0000000   0.0000000
209.5662399   0.0669147  -0.0027402   0.0034740  -0.0019793   0.0000000   0.0000000   0.0000000   0.0000000
212.4845352   0.0668315  -0.0026582   0.0034599  -0.0020040   0.0000000   0.0000000   0.0000000   0.0000000
215.4434690   0.0665914  -0.0034486   0.0035305  -0.0019996   0.0000000   0.0000000   0.0000000   0.0000000
218.4436071   0.0668119  -0.0034444   0.0034365  -0.0020920   0.0000000   0.0000000   0.0000000   0.0000000
221.4855234   0.0667276  -0.0035953   0.0033874  -0.0020350   0.0000000   0.0000000   0.0000000   0.0000000
224.5697996   0.0663457  -0.0041642   0.0034066  -0.0020729   0.0000000   0.0000000   0.0000000   0.0000000
227.6970255   0.0665143  -0.0040223   0.0033173  -0.0021767   0.0000000   0.0000000   0.0000000   0.0000000
230.8677994   0.0663444  -0.0045866   0.0034919  -0.0022467   0.0000000   0.0000000   0.0000000   0.0000000
234.0827276   0.0660584  -0.0050159   0.0033004  -0.0021968   0.0000000   0.0000000   0.0000000   0.0000000
237.3424250   0.0664945  -0.0050002   0.0033374  -0.0023237   0.0000000   0.0000000   0.0000000   0.0000000
240.6475150   0.0662172  -0.0054127   0.0033587  -0.0022794   0.0000000   0.0000000   0.0000000   0.0000000
243.9986297   0.0663606  -0.0053730   0.0033052  -0.0023581   0.0000000   0.0000000   0.0000000   0.0000000
247.3964101   0.0655578  -0.0065564   0.0032384  -0.0023428   0.0000000   0.0000000   0.0000000   0.0000000
250.8415059   0.0643934  -0.0069844   0.0031761  -0.0023287   0.0000000   0.0000000   0.0000000   0.0000000
254.3345761   0.0656803  -0.0066091   0.0032957  -0.0024353   0.0000000   0.0000000   0.0000000   0.0000000
257.8762888   0.0650355  -0.0074351   0.0030951  -0.0022697   0.0000000   0.0000000   0.0000000   0.0000000
261.4673212   0.0657639  -0.0072897   0.0030329  -0.0024873   0.0000000   0.0000000   0.0000000   0.0000000
265.1083602   0.0638201  -0.0074668   0.0029094  -0.0024004   0.0000000   0.0000000   0.0000000   0.0000000
268.8001022   0.0648433  -0.0089421   0.0030469  -0.0024199   0.0000000   0.0000000   0.0000000   0.0000000
272.5432531   0.0638300  -0.0092898   0.0032908  -0.0025425   0.0000000   0.0000000   0.0000000   0.0000000
276.3385290   0.0638260  -0.0081536   0.0030373  -0.0025363   0.0000000   0.0000000   0.0000000   0.0000000
280.1866556   0.0644314  -0.0097880   0.0028766  -0.0025334   0.0000000   0.0000000   0.0000000   0.0000000
284.0883690   0.0638980  -0.0107876   0.0029231  -0.0024630   0.0000000   0.0000000   0.0000000   0.0000000
288.0444153   0.0631536  -0.0119931   0.0032003  -0.0025257   0.0000000   0.0000000   0.0000000   0.0000000
292.0555512   0.0619762  -0.0110000   0.0034380  -0.0033107   0.0000000   0.0000000   0.0000000   0.0000000
296.1225438   0.0652503  -0.0115433   0.0029660  -0.0022490   0.0000000   0.0000000   0.0000000   0.0000000
300.2461709   0.0595121  -0.0129194   0.0026018  -0.0022632   0.0000000   0.0000000   0.0000000   0.0000000
304.4272212   0.0652329  -0.0145107   0.0023465  -0.0035147   0.0000000   0.0000000   0.0000000   0.0000000
308.6664943   0.0639466  -0.0158009   0.0032620  -0.0033348   0.0000000   0.0000000   0.0000000   0.0000000
312.9648011   0.0653051  -0.0132239   0.0032894  -0.0029437   0.0000000   0.0000000   0.0000000   0.0000000
317.3229635   0.0609532  -0.0183938   0.0023189  -0.0010814   0.0000000   0.0000000   0.0000000   0.0000000
321.7418151   0.0493928   0.0186132   0.0061929   0.0000440   0.0000000   0.0000000   0.0000000   0.0000000
326.2222010   0.0863485   0.0661790  -0.0065851   0.0002363   0.0000000   0.0000000   0.0000000   0.0000000
330.7649781   0.0858257  -0.0315964   0.0078736   0.0008079   0.0000000   0.0000000   0.0000000   0.0000000
335.3710152   0.0566600  -0.0136330   0.0011886  -0.0015419   0.0000000   0.0000000   0.0000000   0.0000000
340.0411933   0.0653919  -0.0155501   0.0030712   0.0018427   0.0000000   0.0000000   0.0000000   0.0000000
344.7764055   0.0559939  -0.0419192   0.0057191  -0.0055254   0.0000000   0.0000000   0.0000000   0.0000000
349.5775574   0.0574337  -0.0214722   0.0036847  -0.0021525   0.0000000   0.0000000   0.0000000   0.0000000
354.4455674   0.0562927  -0.0190717  -0.0008909   0.0007354   0.0000000   0.0000000   0.0000000   0.0000000
359.3813664   0.0243563  -0.0373249  -0.0032248  -0.0027356   0.0000000   0.0000000   0.0000000   0.0000000
364.3858984   0.0262464  -0.0296414   0.0058662   0.0041253   0.0000000   0.0000000   0.0000000   0.0000000
369.4601205   0.0750197  -0.0390069   0.0004682  -0.0018186   0.0000000   0.0000000   0.0000000   0.0000000
374.6050033   0.0609345  -0.0234303  -0.0024865  -0.0041447   0.0000000   0.0000000   0.0000000   0.0000000
379.8215306   0.0559895  -0.0277863   0.0001515  -0.0006975   0.0000000   0.0000000   0.0000000   0.0000000
385.1107002   0.0613960  -0.0264559   0.0031612  -0.0021771   0.0000000   0.0000000   0.0000000   0.0000000
390.4735237   0.0582770  -0.0338495   0.0018024  -0.0037643   0.0000000   0.0000000   0.0000000   0.0000000
395.9110266   0.0637304  -0.0333121   0.0020214  -0.0034311   0.0000000   0.0000000   0.0000000   0.0000000
401.4242490   0.0603160  -0.0351349   0.0017786  -0.0033328   0.0000000   0.0000000   0.0000000   0.0000000
407.0142453   0.0580107  -0.0330304   0.0012514  -0.0042637   0.0000000   0.0000000   0.0000000   0.0000000
412.6820846   0.0607548  -0.0355666   0.0015613  -0.0032379   0.0000000   0.0000000   0.0000000   0.0000000
418.4288508   0.0600242  -0.0380957   0.0013503  -0.0038530   0.0000000   0.0000000   0.0000000   0.0000000
424.2556431   0.0562160  -0.0382063   0.0016048  -0.0038965   0.0000000   0.0000000   0.0000000   0.0000000
430.1635758   0.0588947  -0.0391626   0.0014100  -0.0036960   0.0000000   0.0000000   0.0000000   0.0000000
436.1537789   0.0608077  -0.0389973   0.0014796  -0.0039403   0.0000000   0.0000000   0.0000000   0.0000000
442.2273981   0.0597902  -0.0413289   0.0014137  -0.0034822   0.0000000   0.0000000   0.0000000   0.0000000
448.3855948   0.0621473  -0.0430660   0.0014398  -0.0038087   0.0000000   0.0000000   0.0000000   0.0000000
454.6295470   0.0612491  -0.0460138   0.0015800  -0.0033398   0.0000000   0.0000000   0.0000000   0.0000000
460.9604487   0.0595962  -0.0463539   0.0012349  -0.0034991   0.0000000   0.0000000   0.0000000   0.0000000
467.3795108   0.0588090  -0.0490504   0.0011426  -0.0040489   0.0000000   0.0000000   0.0000000   0.0000000
473.8879610   0.0576861  -0.0512923   0.0014373  -0.0035103   0.0000000   0.0000000   0.0000000   0.0000000
480.4870440   0.0592522  -0.0516508   0.0013129  -0.0038651   0.0000000   0.0000000   0.0000000   0.0000000
487.1780219   0.0573841  -0.0533114   0.0011101  -0.0039767   0.0000000   0.0000000   0.0000000   0.0000000
493.9621744   0.0591176  -0.0546903   0.0009535  -0.0035962   0.0000000   0.0000000   0.0000000   0.0000000
500.8407990   0.0583726  -0.0569423   0.0007983  -0.0036926   0.0000000   0.0000000   0.0000000   0.0000000
507.8152112   0.0589431  -0.0579105   0.0010771  -0.0036526   0.0000000   0.0000000   0.0000000   0.0000000
514.8867450   0.0589807  -0.0591618   0.0012021  -0.0036222   0.0000000   0.0000000   0.0000000   0.0000000
522.0567528   0.0576718  -0.0616489   0.0006862  -0.0038855   0.0000000   0.0000000   0.0000000   0.0000000
529.3266058   0.0594692  -0.0638315   0.0010386  -0.0036311   0.0000000   0.0000000   0.0000000   0.0000000
536.6976946   0.0597274  -0.0623020   0.0008341  -0.0037104   0.0000000   0.0000000   0.0000000   0.0000000
544.1714287   0.0588242  -0.0644977   0.0012230  -0.0040770   0.0000000   0.0000000   0.0000000   0.0000000
551.7492376   0.0571180  -0.0669632   0.0010420  -0.0041560   0.0000000   0.0000000   0.0000000   0.0000000
559.4325706   0.0568353  -0.0651952   0.0002046  -0.0045363   0.0000000   0.0000000   0.0000000   0.0000000
567.2228972   0.0571046  -0.0637865   0.0006145  -0.0042175   0.0000000   0.0000000   0.0000000   0.0000000
575.1217072   0.0603036  -0.0665507  -0.0000480  -0.0045886   0.0000000   0.0000000   0.0000000   0.0000000
583.1305114   0.0569013  -0.0656707  -0.0000510  -0.0039543   0.0000000   0.0000000   0.0000000   0.0000000
591.2508414   0.0590980  -0.0667479   0.0003233  -0.0041100   0.0000000   0.0000000   0.0000000   0.0000000
599.4842503   0.0551629  -0.0779600  -0.0007866  -0.0054727   0.0000000   0.0000000   0.0000000   0.0000000
607.8323128   0.0439634  -0.0713523  -0.0017657  -0.0049706   0.0000000   0.0000000   0.0000000   0.0000000
616.2966255   0.0536586  -0.0727543   0.0017090  -0.0042246   0.0000000   0.0000000   0.0000000   0.0000000
624.8788072   0.0446985  -0.0646551   0.0000932  -0.0040502   0.0000000   0.0000000   0.0000000   0.0000000
633.5804993   0.0573614  -0.0725966  -0.0039163  -0.0015413   0.0000000   0.0000000   0.0000000   0.0000000
642.4033659   0.0670860   0.0076306  -0.0039877  -0.0043633   0.0000000   0.0000000   0.0000000   0.0000000
651.3490946   0.0331406  -0.0267085   0.0103305   0.0475781   0.0000000   0.0000000   0.0000000   0.0000000
660.4193962   0.0391183   0.0213331   0.0049029  -0.0043865   0.0000000   0.0000000   0.0000000   0.0000000
669.6160055   0.0473675  -0.0712699   0.0015951  -0.0038152   0.0000000   0.0000000   0.0000000   0.0000000
678.9406813   0.0223672  -0.0441375  -0.0046234  -0.0048666   0.0000000   0.0000000   0.0000000   0.0000000
688.3952070   0.0024857  -0.0491332   0.0016635  -0.0009388   0.0000000   0.0000000   0.0000000   0.0000000
697.9813908   0.0174145  -0.0477890  -0.0067346  -0.0140898   0.0000000   0.0000000   0.0000000   0.0000000
707.7010661   0.0253026   0.0029863  -0.0022885  -0.0049694   0.0000000   0.0000000   0.0000000   0.0000000
717.5560919   0.0064870   0.0864164  -0.0108181  -0.0111838   0.0000000   0.0000000   0.0000000   0.0000000
727.5483529   0.1157837  -0.0071679  -0.0081793   0.0023954   0.0000000   0.0000000   0.0000000   0.0000000
737.6797603   0.1057083  -0.0515806  -0.0001317  -0.0023271   0.0000000   0.0000000   0.0000000   0.0000000
747.9522516   0.0285995  -0.0530876  -0.0018334  -0.0044036   0.0000000   0.0000000   0.0000000   0.0000000
758.3677915   0.0541207  -0.0843410  -0.0049600  -0.0008581   0.0000000   0.0000000   0.0000000   0.0000000
768.9283721   0.0278546  -0.0883996  -0.0036058  -0.0021091   0.0000000   0.0000000   0.0000000   0.0000000
779.6360130   0.0300777  -0.0790130  -0.0021792  -0.0025211   0.0000000   0.0000000   0.0000000   0.0000000
790.4927623   0.0276231  -0.0794162  -0.0015890  -0.0025521   0.0000000   0.0000000   0.0000000   0.0000000
801.5006962   0.0242434  -0.0941071  -0.0036508  -0.0032965   0.0000000   0.0000000   0.0000000   0.0000000
812.6619200   0.0232769  -0.0936249  -0.0022108  -0.0039860   0.0000000   0.0000000   0.0000000   0.0000000
823.9785685   0.0217048  -0.1035224  -0.0017484  -0.0035052   0.0000000   0.0000000   0.0000000   0.0000000
835.4528058   0.0217188  -0.0940374  -0.0026656  -0.0043808   0.0000000   0.0000000   0.0000000   0.0000000
847.0868267   0.0083533  -0.0831764  -0.0029981  -0.0039700   0.0000000   0.0000000   0.0000000   0.0000000
858.8828560   0.0056266  -0.1025482  -0.0024626  -0.0042524   0.0000000   0.0000000   0.0000000   0.0000000
870.8431498   0.0062674  -0.0932676  -0.0056056  -0.0035719   0.0000000   0.0000000   0.0000000   0.0000000
882.9699955  -0.0029439  -0.1003954  -0.0040152  -0.0040622   0.0000000   0.0000000   0.0000000   0.0000000
895.2657126   0.0012917  -0.1013874  -0.0043125  -0.0032782   0.0000000   0.0000000   0.0000000   0.0000000
907.7326525  -0.0141484  -0.1158687  -0.0018805  -0.0014217   0.0000000   0.0000000   0.0000000   0.0000000
920.3731997  -0.0125177  -0.1205087  -0.0030562  -0.0024866   0.0000000   0.0000000   0.0000000   0.0000000
933.1897716   0.0155570  -0.1169405  -0.0071393  -0.0030944   0.0000000   0.0000000   0.0000000   0.0000000
946.1848195  -0.0292026  -0.0683178  -0.0016790   0.0032849   0.0000000   0.0000000   0.0000000   0.0000000
959.3608287  -0.0005522  -0.1652143  -0.0075367  -0.0002791   0.0000000   0.0000000   0.0000000   0.0000000
972.7203192  -0.0787046  -0.1225648  -0.0017716  -0.0062648   0.0000000   0.0000000   0.0000000   0.0000000
986.2658461  -0.0293790  -0.3229278  -0.0011659  -0.0039408   0.0000000   0.0000000   0.0000000   0.0000000
1000.0000000  -0.1035401  -0.1512999  -0.0010714   0.0015046   0.0000000   0.0000000   0.0000000   0.0000000
