! ListType=Log
# MHZ S RI R 50
0.0010000     0.9994005  -0.0000094  -0.0000157  -0.0000030   0.0000000   0.0000000   0.0000000   0.0000000
0.0010139     0.9987544   0.0006607   0.0000464   0.0000157   0.0000000   0.0000000   0.0000000   0.0000000
0.0010280     0.9989157  -0.0009783  -0.0000178   0.0000021   0.0000000   0.0000000   0.0000000   0.0000000
0.0010424     0.9995863   0.0003548   0.0000350   0.0000009   0.0000000   0.0000000   0.0000000   0.0000000
0.0010569     0.9985249  -0.0010683  -0.0000603   0.0000399   0.0000000   0.0000000   0.0000000   0.0000000
0.0010716     0.9991191   0.0000139   0.0000407   0.0000130   0.0000000   0.0000000   0.0000000   0.0000000
0.0010865     0.9997062  -0.0009452  -0.0000330  -0.0000367   0.0000000   0.0000000   0.0000000   0.0000000
0.0011016     0.9993638  -0.0000903   0.0000188  -0.0000186   0.0000000   0.0000000   0.0000000   0.0000000
0.0011170     0.9991411   0.0007351   0.0000636  -0.0000085   0.0000000   0.0000000   0.0000000   0.0000000
0.0011325     0.9986667  -0.0000878  -0.0000227   0.0000194   0.0000000   0.0000000   0.0000000   0.0000000
0.0011483     0.9993781  -0.0008863  -0.0000745  -0.0000321   0.0000000   0.0000000   0.0000000   0.0000000
0.0011643     0.9995047   0.0000952   0.0000130   0.0000227   0.0000000   0.0000000   0.0000000   0.0000000
0.0011805     0.9986329  -0.0000971  -0.0000034   0.0000246   0.0000000   0.0000000   0.0000000   0.0000000
0.0011970     0.9993559  -0.0009610  -0.0000418  -0.0000001   0.0000000   0.0000000   0.0000000   0.0000000
0.0012136     0.9996145   0.0001434   0.0000309   0.0000024   0.0000000   0.0000000   0.0000000   0.0000000
0.0012305     0.9987249  -0.0000123   0.0000106   0.0000200   0.0000000   0.0000000   0.0000000   0.0000000
0.0012477     0.9993169  -0.0009212  -0.0000265  -0.0000371   0.0000000   0.0000000   0.0000000   0.0000000
0.0012650     0.9995833  -0.0001451   0.0000224  -0.0000127   0.0000000   0.0000000   0.0000000   0.0000000
0.0012826     0.9987209   0.0000693   0.0000145   0.0000151   0.0000000   0.0000000   0.0000000   0.0000000
0.0013005     0.9992359  -0.0006392  -0.0000201   0.0000239   0.0000000   0.0000000   0.0000000   0.0000000
0.0013186     0.9997580  -0.0008045  -0.0000249  -0.0000149   0.0000000   0.0000000   0.0000000   0.0000000
0.0013370     0.9991520  -0.0005198  -0.0000113   0.0000096   0.0000000   0.0000000   0.0000000   0.0000000
0.0013556     0.9995216   0.0000401   0.0000276  -0.0000093   0.0000000   0.0000000   0.0000000   0.0000000
0.0013745     0.9990514  -0.0005231  -0.0000338   0.0000167   0.0000000   0.0000000   0.0000000   0.0000000
0.0013936     0.9992926  -0.0001576   0.0000165  -0.0000035   0.0000000   0.0000000   0.0000000   0.0000000
0.0014130     0.9991449  -0.0005197  -0.0000220   0.0000239   0.0000000   0.0000000   0.0000000   0.0000000
0.0014327     0.9996080  -0.0005452  -0.0000056  -0.0000280   0.0000000   0.0000000   0.0000000   0.0000000
0.0014527     0.9995687  -0.0001439   0.0000711  -0.0000185   0.0000000   0.0000000   0.0000000   0.0000000
0.0014729     0.9991965  -0.0007184  -0.0000062  -0.0000177   0.0000000   0.0000000   0.0000000   0.0000000
0.0014934     0.9991395  -0.0000720   0.0000083   0.0000259   0.0000000   0.0000000   0.0000000   0.0000000
0.0015142     0.9992477  -0.0007766  -0.0000262  -0.0000055   0.0000000   0.0000000   0.0000000   0.0000000
0.0015353     0.9994661  -0.0006146   0.0000185  -0.0000074   0.0000000   0.0000000   0.0000000   0.0000000
0.0015567     0.9997746  -0.0005923   0.0000359  -0.0000032   0.0000000   0.0000000   0.0000000   0.0000000
0.0015783     0.9992145  -0.0004788  -0.0000146   0.0000303   0.0000000   0.0000000   0.0000000   0.0000000
0.0016003     0.9994480  -0.0009369   0.0000193  -0.0000163   0.0000000   0.0000000   0.0000000   0.0000000
0.0016226     0.9996613  -0.0009502   0.0000102  -0.0000444   0.0000000   0.0000000   0.0000000   0.0000000
0.0016452     0.9992143  -0.0007738  -0.0000207   0.0000335   0.0000000   0.0000000   0.0000000   0.0000000
0.0016681     0.9994114  -0.0007710  -0.0000057  -0.0000122   0.0000000   0.0000000   0.0000000   0.0000000
0.0016913     0.9997667  -0.0010089  -0.0000118  -0.0000104   0.0000000   0.0000000   0.0000000   0.0000000
0.0017149     0.9991643  -0.0007981  -0.0000039  -0.0000081   0.0000000   0.0000000   0.0000000   0.0000000
0.0017388     0.9992263  -0.0008055   0.0000099  -0.0000197   0.0000000   0.0000000   0.0000000   0.0000000
0.0017630     0.9990872  -0.0009194  -0.0000187   0.0000279   0.0000000   0.0000000   0.0000000   0.0000000
0.0017875     0.9994010  -0.0012850  -0.0000111  -0.0000093   0.0000000   0.0000000   0.0000000   0.0000000
0.0018124     0.9992447  -0.0008077   0.0000011  -0.0000078   0.0000000   0.0000000   0.0000000   0.0000000
0.0018377     0.9994363  -0.0009788  -0.0000120  -0.0000013   0.0000000   0.0000000   0.0000000   0.0000000
0.0018632     0.9990696  -0.0008920   0.0000026   0.0000176   0.0000000   0.0000000   0.0000000   0.0000000
0.0018892     0.9989839  -0.0013381   0.0000014  -0.0000010   0.0000000   0.0000000   0.0000000   0.0000000
0.0019155     0.9996125  -0.0008454   0.0000074  -0.0000196   0.0000000   0.0000000   0.0000000   0.0000000
0.0019422     0.9993057  -0.0009882   0.0000047  -0.0000114   0.0000000   0.0000000   0.0000000   0.0000000
0.0019692     0.9993206  -0.0010859   0.0000132  -0.0000146   0.0000000   0.0000000   0.0000000   0.0000000
0.0019966     0.9993192  -0.0010885   0.0000169   0.0000070   0.0000000   0.0000000   0.0000000   0.0000000
0.0020244     0.9991378  -0.0007342   0.0000235   0.0000217   0.0000000   0.0000000   0.0000000   0.0000000
0.0020526     0.9990053  -0.0013064  -0.0000342  -0.0000128   0.0000000   0.0000000   0.0000000   0.0000000
0.0020812     0.9996230  -0.0009177   0.0000175  -0.0000095   0.0000000   0.0000000   0.0000000   0.0000000
0.0021102     0.9992807  -0.0012628  -0.0000032   0.0000125   0.0000000   0.0000000   0.0000000   0.0000000
0.0021396     0.9991973  -0.0012397  -0.0000047   0.0000078   0.0000000   0.0000000   0.0000000   0.0000000
0.0021694     0.9994628  -0.0012482  -0.0000015  -0.0000028   0.0000000   0.0000000   0.0000000   0.0000000
0.0021996     0.9995873  -0.0012778  -0.0000075  -0.0000092   0.0000000   0.0000000   0.0000000   0.0000000
0.0022302     0.9997970  -0.0012302   0.0000107   0.0000007   0.0000000   0.0000000   0.0000000   0.0000000
0.0022613     0.9994925  -0.0013929   0.0000025  -0.0000252   0.0000000   0.0000000   0.0000000   0.0000000
0.0022928     0.9992339  -0.0012012   0.0000246   0.0000090   0.0000000   0.0000000   0.0000000   0.0000000
0.0023247     0.9989334  -0.0012961  -0.0000177   0.0000056   0.0000000   0.0000000   0.0000000   0.0000000
0.0023571     0.9993372  -0.0016411  -0.0000068  -0.0000137   0.0000000   0.0000000   0.0000000   0.0000000
0.0023899     0.9995405  -0.0012859   0.0000005  -0.0000122   0.0000000   0.0000000   0.0000000   0.0000000
0.0024232     0.9992377  -0.0012063   0.0000206   0.0000071   0.0000000   0.0000000   0.0000000   0.0000000
0.0024569     0.9990121  -0.0015487  -0.0000195   0.0000078   0.0000000   0.0000000   0.0000000   0.0000000
0.0024911     0.9994983  -0.0016882   0.0000083  -0.0000224   0.0000000   0.0000000   0.0000000   0.0000000
0.0025258     0.9993016  -0.0014526   0.0000061  -0.0000163   0.0000000   0.0000000   0.0000000   0.0000000
0.0025610     0.9992427  -0.0013092   0.0000151   0.0000006   0.0000000   0.0000000   0.0000000   0.0000000
0.0025967     0.9991305  -0.0015734  -0.0000178   0.0000118   0.0000000   0.0000000   0.0000000   0.0000000
0.0026328     0.9991806  -0.0017431  -0.0000030   0.0000119   0.0000000   0.0000000   0.0000000   0.0000000
0.0026695     0.9991249  -0.0016986  -0.0000069   0.0000138   0.0000000   0.0000000   0.0000000   0.0000000
0.0027067     0.9992940  -0.0016889  -0.0000064   0.0000064   0.0000000   0.0000000   0.0000000   0.0000000
0.0027443     0.9993141  -0.0017643  -0.0000122   0.0000027   0.0000000   0.0000000   0.0000000   0.0000000
0.0027826     0.9991118  -0.0013615   0.0000019   0.0000062   0.0000000   0.0000000   0.0000000   0.0000000
0.0028213     0.9991536  -0.0017758   0.0000056  -0.0000014   0.0000000   0.0000000   0.0000000   0.0000000
0.0028606     0.9993541  -0.0018608   0.0000066   0.0000028   0.0000000   0.0000000   0.0000000   0.0000000
0.0029004     0.9991520  -0.0015683   0.0000070  -0.0000037   0.0000000   0.0000000   0.0000000   0.0000000
0.0029408     0.9992281  -0.0018533   0.0000021  -0.0000060   0.0000000   0.0000000   0.0000000   0.0000000
0.0029818     0.9993347  -0.0019273   0.0000080   0.0000036   0.0000000   0.0000000   0.0000000   0.0000000
0.0030233     0.9991251  -0.0020162   0.0000100  -0.0000127   0.0000000   0.0000000   0.0000000   0.0000000
0.0030654     0.9992894  -0.0021272  -0.0000028   0.0000093   0.0000000   0.0000000   0.0000000   0.0000000
0.0031081     0.9991998  -0.0019860   0.0000163   0.0000121   0.0000000   0.0000000   0.0000000   0.0000000
0.0031514     0.9991644  -0.0020773  -0.0000163  -0.0000141   0.0000000   0.0000000   0.0000000   0.0000000
0.0031952     0.9991946  -0.0019582   0.0000076   0.0000057   0.0000000   0.0000000   0.0000000   0.0000000
0.0032397     0.9991244  -0.0020786  -0.0000137   0.0000052   0.0000000   0.0000000   0.0000000   0.0000000
0.0032849     0.9993046  -0.0019779   0.0000032  -0.0000051   0.0000000   0.0000000   0.0000000   0.0000000
0.0033306     0.9990947  -0.0020957   0.0000121   0.0000063   0.0000000   0.0000000   0.0000000   0.0000000
0.0033770     0.9992308  -0.0020920   0.0000039   0.0000013   0.0000000   0.0000000   0.0000000   0.0000000
0.0034240     0.9990868  -0.0018294   0.0000101  -0.0000017   0.0000000   0.0000000   0.0000000   0.0000000
0.0034717     0.9993015  -0.0023927  -0.0000030   0.0000188   0.0000000   0.0000000   0.0000000   0.0000000
0.0035200     0.9991558  -0.0021746   0.0000109   0.0000214   0.0000000   0.0000000   0.0000000   0.0000000
0.0035690     0.9991083  -0.0021716  -0.0000068   0.0000077   0.0000000   0.0000000   0.0000000   0.0000000
0.0036187     0.9991894  -0.0022440  -0.0000132  -0.0000085   0.0000000   0.0000000   0.0000000   0.0000000
0.0036691     0.9990901  -0.0020959  -0.0000019   0.0000135   0.0000000   0.0000000   0.0000000   0.0000000
0.0037202     0.9993714  -0.0023833   0.0000068   0.0000016   0.0000000   0.0000000   0.0000000   0.0000000
0.0037720     0.9993443  -0.0024122   0.0000145  -0.0000078   0.0000000   0.0000000   0.0000000   0.0000000
0.0038246     0.9990211  -0.0022080   0.0000187  -0.0000055   0.0000000   0.0000000   0.0000000   0.0000000
0.0038778     0.9992047  -0.0024627   0.0000058  -0.0000041   0.0000000   0.0000000   0.0000000   0.0000000
0.0039318     0.9992351  -0.0023981   0.0000036   0.0000092   0.0000000   0.0000000   0.0000000   0.0000000
0.0039866     0.9990708  -0.0022954   0.0000002  -0.0000064   0.0000000   0.0000000   0.0000000   0.0000000
0.0040421     0.9990715  -0.0024661  -0.0000123   0.0000011   0.0000000   0.0000000   0.0000000   0.0000000
0.0040984     0.9991607  -0.0025343  -0.0000005   0.0000095   0.0000000   0.0000000   0.0000000   0.0000000
0.0041555     0.9991964  -0.0027168  -0.0000061   0.0000210   0.0000000   0.0000000   0.0000000   0.0000000
0.0042133     0.9992444  -0.0026906   0.0000086  -0.0000053   0.0000000   0.0000000   0.0000000   0.0000000
0.0042720     0.9991962  -0.0025837   0.0000098   0.0000055   0.0000000   0.0000000   0.0000000   0.0000000
0.0043315     0.9992293  -0.0024839  -0.0000057  -0.0000005   0.0000000   0.0000000   0.0000000   0.0000000
0.0043918     0.9991188  -0.0026449   0.0000037   0.0000219   0.0000000   0.0000000   0.0000000   0.0000000
0.0044530     0.9991473  -0.0030978  -0.0000084   0.0000037   0.0000000   0.0000000   0.0000000   0.0000000
0.0045150     0.9991489  -0.0029225  -0.0000101   0.0000014   0.0000000   0.0000000   0.0000000   0.0000000
0.0045778     0.9991547  -0.0028403   0.0000113  -0.0000092   0.0000000   0.0000000   0.0000000   0.0000000
0.0046416     0.9991324  -0.0031330  -0.0000115  -0.0000033   0.0000000   0.0000000   0.0000000   0.0000000
0.0047062     0.9991600  -0.0029901   0.0000123   0.0000020   0.0000000   0.0000000   0.0000000   0.0000000
0.0047718     0.9989516  -0.0030512   0.0000023   0.0000122   0.0000000   0.0000000   0.0000000   0.0000000
0.0048382     0.9991428  -0.0029078  -0.0000100   0.0000018   0.0000000   0.0000000   0.0000000   0.0000000
0.0049056     0.9991522  -0.0029530  -0.0000047   0.0000081   0.0000000   0.0000000   0.0000000   0.0000000
0.0049739     0.9991476  -0.0031630  -0.0000008   0.0000059   0.0000000   0.0000000   0.0000000   0.0000000
0.0050432     0.9992463  -0.0033136   0.0000046  -0.0000035   0.0000000   0.0000000   0.0000000   0.0000000
0.0051134     0.9989694  -0.0031378  -0.0000083  -0.0000035   0.0000000   0.0000000   0.0000000   0.0000000
0.0051846     0.9991456  -0.0033566   0.0000050  -0.0000053   0.0000000   0.0000000   0.0000000   0.0000000
0.0052568     0.9991576  -0.0033955   0.0000033   0.0000045   0.0000000   0.0000000   0.0000000   0.0000000
0.0053300     0.9992134  -0.0034496  -0.0000132  -0.0000147   0.0000000   0.0000000   0.0000000   0.0000000
0.0054042     0.9990782  -0.0034304  -0.0000085  -0.0000152   0.0000000   0.0000000   0.0000000   0.0000000
0.0054795     0.9990702  -0.0035137  -0.0000047   0.0000075   0.0000000   0.0000000   0.0000000   0.0000000
0.0055558     0.9992637  -0.0035349  -0.0000069  -0.0000079   0.0000000   0.0000000   0.0000000   0.0000000
0.0056331     0.9991906  -0.0035910  -0.0000055  -0.0000136   0.0000000   0.0000000   0.0000000   0.0000000
0.0057116     0.9991964  -0.0036728  -0.0000096   0.0000202   0.0000000   0.0000000   0.0000000   0.0000000
0.0057911     0.9991129  -0.0036380  -0.0000069  -0.0000049   0.0000000   0.0000000   0.0000000   0.0000000
0.0058718     0.9991711  -0.0036486  -0.0000029   0.0000039   0.0000000   0.0000000   0.0000000   0.0000000
0.0059535     0.9991264  -0.0037108   0.0000086  -0.0000175   0.0000000   0.0000000   0.0000000   0.0000000
0.0060364     0.9992458  -0.0037950   0.0000043  -0.0000016   0.0000000   0.0000000   0.0000000   0.0000000
0.0061205     0.9990427  -0.0039136  -0.0000135   0.0000036   0.0000000   0.0000000   0.0000000   0.0000000
0.0062057     0.9989666  -0.0039490   0.0000100   0.0000081   0.0000000   0.0000000   0.0000000   0.0000000
0.0062921     0.9990563  -0.0039417   0.0000067  -0.0000090   0.0000000   0.0000000   0.0000000   0.0000000
0.0063798     0.9990517  -0.0040666  -0.0000036   0.0000000   0.0000000   0.0000000   0.0000000   0.0000000
0.0064686     0.9990866  -0.0040160   0.0000071  -0.0000109   0.0000000   0.0000000   0.0000000   0.0000000
0.0065587     0.9991426  -0.0040480   0.0000040   0.0000086   0.0000000   0.0000000   0.0000000   0.0000000
0.0066500     0.9991665  -0.0042115   0.0000131   0.0000068   0.0000000   0.0000000   0.0000000   0.0000000
0.0067426     0.9989707  -0.0041896  -0.0000074   0.0000111   0.0000000   0.0000000   0.0000000   0.0000000
0.0068365     0.9988695  -0.0043760  -0.0000071   0.0000039   0.0000000   0.0000000   0.0000000   0.0000000
0.0069317     0.9990498  -0.0042672  -0.0000141  -0.0000145   0.0000000   0.0000000   0.0000000   0.0000000
0.0070282     0.9989809  -0.0044320  -0.0000183  -0.0000022   0.0000000   0.0000000   0.0000000   0.0000000
0.0071261     0.9990837  -0.0045319   0.0000003   0.0000011   0.0000000   0.0000000   0.0000000   0.0000000
0.0072253     0.9989860  -0.0046293  -0.0000022   0.0000156   0.0000000   0.0000000   0.0000000   0.0000000
0.0073260     0.9991321  -0.0046091   0.0000094  -0.0000067   0.0000000   0.0000000   0.0000000   0.0000000
0.0074280     0.9989796  -0.0046845   0.0000149   0.0000210   0.0000000   0.0000000   0.0000000   0.0000000
0.0075314     0.9989036  -0.0047773   0.0000112   0.0000070   0.0000000   0.0000000   0.0000000   0.0000000
0.0076363     0.9989106  -0.0049149  -0.0000159  -0.0000040   0.0000000   0.0000000   0.0000000   0.0000000
0.0077426     0.9990702  -0.0048827   0.0000072  -0.0000068   0.0000000   0.0000000   0.0000000   0.0000000
0.0078505     0.9989550  -0.0048701   0.0000030  -0.0000076   0.0000000   0.0000000   0.0000000   0.0000000
0.0079598     0.9990019  -0.0049906  -0.0000136   0.0000062   0.0000000   0.0000000   0.0000000   0.0000000
0.0080706     0.9990830  -0.0050055  -0.0000116   0.0000006   0.0000000   0.0000000   0.0000000   0.0000000
0.0081830     0.9988762  -0.0051249   0.0000059  -0.0000068   0.0000000   0.0000000   0.0000000   0.0000000
0.0082970     0.9991892  -0.0052772   0.0000183  -0.0000015   0.0000000   0.0000000   0.0000000   0.0000000
0.0084125     0.9991944  -0.0052721  -0.0000099   0.0000167   0.0000000   0.0000000   0.0000000   0.0000000
0.0085296     0.9990016  -0.0053073  -0.0000014   0.0000005   0.0000000   0.0000000   0.0000000   0.0000000
0.0086484     0.9990207  -0.0053688  -0.0000016  -0.0000138   0.0000000   0.0000000   0.0000000   0.0000000
0.0087689     0.9989845  -0.0053460  -0.0000060   0.0000040   0.0000000   0.0000000   0.0000000   0.0000000
0.0088910     0.9989319  -0.0055899  -0.0000044  -0.0000061   0.0000000   0.0000000   0.0000000   0.0000000
0.0090148     0.9990654  -0.0057728  -0.0000032   0.0000043   0.0000000   0.0000000   0.0000000   0.0000000
0.0091403     0.9990323  -0.0057782   0.0000024  -0.0000062   0.0000000   0.0000000   0.0000000   0.0000000
0.0092676     0.9990367  -0.0058459   0.0000183  -0.0000010   0.0000000   0.0000000   0.0000000   0.0000000
0.0093966     0.9991196  -0.0059090  -0.0000082  -0.0000089   0.0000000   0.0000000   0.0000000   0.0000000
0.0095275     0.9990360  -0.0059517  -0.0000058  -0.0000081   0.0000000   0.0000000   0.0000000   0.0000000
0.0096602     0.9990522  -0.0060522  -0.0000112  -0.0000051   0.0000000   0.0000000   0.0000000   0.0000000
0.0097947     0.9990458  -0.0060923   0.0000104  -0.0000058   0.0000000   0.0000000   0.0000000   0.0000000
0.0099311     0.9990192  -0.0061930   0.0000056   0.0000127   0.0000000   0.0000000   0.0000000   0.0000000
0.0100694     0.9991237  -0.0061884   0.0000146   0.0000071   0.0000000   0.0000000   0.0000000   0.0000000
0.0102096     0.9989527  -0.0063006   0.0000161  -0.0000039   0.0000000   0.0000000   0.0000000   0.0000000
0.0103518     0.9989326  -0.0064172   0.0000053   0.0000034   0.0000000   0.0000000   0.0000000   0.0000000
0.0104959     0.9990183  -0.0065277   0.0000022  -0.0000048   0.0000000   0.0000000   0.0000000   0.0000000
0.0106421     0.9990468  -0.0065867   0.0000007   0.0000080   0.0000000   0.0000000   0.0000000   0.0000000
0.0107903     0.9990683  -0.0068469  -0.0000025  -0.0000108   0.0000000   0.0000000   0.0000000   0.0000000
0.0109405     0.9989880  -0.0068265  -0.0000013  -0.0000178   0.0000000   0.0000000   0.0000000   0.0000000
0.0110929     0.9989598  -0.0069117  -0.0000090   0.0000121   0.0000000   0.0000000   0.0000000   0.0000000
0.0112474     0.9989566  -0.0069676   0.0000051   0.0000004   0.0000000   0.0000000   0.0000000   0.0000000
0.0114040     0.9991799  -0.0071263   0.0000079  -0.0000074   0.0000000   0.0000000   0.0000000   0.0000000
0.0115628     0.9989497  -0.0072113   0.0000018  -0.0000036   0.0000000   0.0000000   0.0000000   0.0000000
0.0117238     0.9989266  -0.0074477  -0.0000112   0.0000003   0.0000000   0.0000000   0.0000000   0.0000000
0.0118871     0.9992075  -0.0074496  -0.0000007  -0.0000052   0.0000000   0.0000000   0.0000000   0.0000000
0.0120526     0.9964374  -0.0049917   0.0000132  -0.0000093   0.0000000   0.0000000   0.0000000   0.0000000
0.0122204     0.9989523  -0.0072729  -0.0000105   0.0000186   0.0000000   0.0000000   0.0000000   0.0000000
0.0123906     0.9990253  -0.0078439  -0.0000094  -0.0000026   0.0000000   0.0000000   0.0000000   0.0000000
0.0125632     0.9990167  -0.0077743   0.0000086  -0.0000051   0.0000000   0.0000000   0.0000000   0.0000000
0.0127381     0.9989247  -0.0079791  -0.0000001  -0.0000085   0.0000000   0.0000000   0.0000000   0.0000000
0.0129155     0.9991295  -0.0080723  -0.0000133   0.0000058   0.0000000   0.0000000   0.0000000   0.0000000
0.0130954     0.9989399  -0.0081577   0.0000057  -0.0000043   0.0000000   0.0000000   0.0000000   0.0000000
0.0132777     0.9989252  -0.0083571   0.0000086   0.0000010   0.0000000   0.0000000   0.0000000   0.0000000
0.0134626     0.9989775  -0.0084572  -0.0000060   0.0000000   0.0000000   0.0000000   0.0000000   0.0000000
0.0136501     0.9989634  -0.0084333   0.0000068  -0.0000030   0.0000000   0.0000000   0.0000000   0.0000000
0.0138402     0.9990128  -0.0086598  -0.0000050  -0.0000015   0.0000000   0.0000000   0.0000000   0.0000000
0.0140329     0.9989980  -0.0087410  -0.0000022   0.0000125   0.0000000   0.0000000   0.0000000   0.0000000
0.0142283     0.9990851  -0.0088430  -0.0000225   0.0000017   0.0000000   0.0000000   0.0000000   0.0000000
0.0144264     0.9990928  -0.0089746   0.0000012  -0.0000009   0.0000000   0.0000000   0.0000000   0.0000000
0.0146273     0.9989642  -0.0091858  -0.0000023   0.0000143   0.0000000   0.0000000   0.0000000   0.0000000
0.0148310     0.9990382  -0.0092693   0.0000089   0.0000060   0.0000000   0.0000000   0.0000000   0.0000000
0.0150376     0.9989995  -0.0093306   0.0000093   0.0000022   0.0000000   0.0000000   0.0000000   0.0000000
0.0152470     0.9988991  -0.0094339   0.0000048  -0.0000175   0.0000000   0.0000000   0.0000000   0.0000000
0.0154593     0.9988811  -0.0096371   0.0000057   0.0000021   0.0000000   0.0000000   0.0000000   0.0000000
0.0156746     0.9988710  -0.0097779  -0.0000066  -0.0000061   0.0000000   0.0000000   0.0000000   0.0000000
0.0158928     0.9990047  -0.0097916   0.0000029   0.0000163   0.0000000   0.0000000   0.0000000   0.0000000
0.0161141     0.9989295  -0.0101162  -0.0000012  -0.0000006   0.0000000   0.0000000   0.0000000   0.0000000
0.0163385     0.9989750  -0.0101631  -0.0000037   0.0000028   0.0000000   0.0000000   0.0000000   0.0000000
0.0165661     0.9988558  -0.0103598  -0.0000024  -0.0000062   0.0000000   0.0000000   0.0000000   0.0000000
0.0167967     0.9989591  -0.0105503  -0.0000067   0.0000138   0.0000000   0.0000000   0.0000000   0.0000000
0.0170307     0.9989585  -0.0105910   0.0000108  -0.0000025   0.0000000   0.0000000   0.0000000   0.0000000
0.0172678     0.9989211  -0.0107487  -0.0000037  -0.0000040   0.0000000   0.0000000   0.0000000   0.0000000
0.0175083     0.9988449  -0.0107876  -0.0000013  -0.0000049   0.0000000   0.0000000   0.0000000   0.0000000
0.0177521     0.9988679  -0.0110415  -0.0000136   0.0000162   0.0000000   0.0000000   0.0000000   0.0000000
0.0179993     0.9989428  -0.0111626   0.0000066  -0.0000002   0.0000000   0.0000000   0.0000000   0.0000000
0.0182499     0.9989163  -0.0113950   0.0000008  -0.0000043   0.0000000   0.0000000   0.0000000   0.0000000
0.0185041     0.9989798  -0.0115252   0.0000050  -0.0000096   0.0000000   0.0000000   0.0000000   0.0000000
0.0187617     0.9989906  -0.0117399   0.0000044   0.0000102   0.0000000   0.0000000   0.0000000   0.0000000
0.0190230     0.9990022  -0.0118949  -0.0000204  -0.0000048   0.0000000   0.0000000   0.0000000   0.0000000
0.0192879     0.9989850  -0.0119750   0.0000054  -0.0000041   0.0000000   0.0000000   0.0000000   0.0000000
0.0195565     0.9989650  -0.0121700   0.0000223  -0.0000081   0.0000000   0.0000000   0.0000000   0.0000000
0.0198288     0.9989921  -0.0122791  -0.0000110   0.0000145   0.0000000   0.0000000   0.0000000   0.0000000
0.0201050     0.9987800  -0.0125017   0.0000032  -0.0000122   0.0000000   0.0000000   0.0000000   0.0000000
0.0203849     0.9989115  -0.0127294  -0.0000088   0.0000069   0.0000000   0.0000000   0.0000000   0.0000000
0.0206688     0.9988876  -0.0128523  -0.0000007   0.0000119   0.0000000   0.0000000   0.0000000   0.0000000
0.0209566     0.9988717  -0.0129694   0.0000038   0.0000002   0.0000000   0.0000000   0.0000000   0.0000000
0.0212485     0.9989510  -0.0132495  -0.0000101   0.0000193   0.0000000   0.0000000   0.0000000   0.0000000
0.0215443     0.9990272  -0.0133711   0.0000000   0.0000025   0.0000000   0.0000000   0.0000000   0.0000000
0.0218444     0.9988984  -0.0135673  -0.0000120   0.0000134   0.0000000   0.0000000   0.0000000   0.0000000
0.0221486     0.9988223  -0.0137080   0.0000059   0.0000097   0.0000000   0.0000000   0.0000000   0.0000000
0.0224570     0.9990210  -0.0139830   0.0000044  -0.0000008   0.0000000   0.0000000   0.0000000   0.0000000
0.0227697     0.9989171  -0.0141637  -0.0000065   0.0000140   0.0000000   0.0000000   0.0000000   0.0000000
0.0230868     0.9989580  -0.0143014  -0.0000049   0.0000131   0.0000000   0.0000000   0.0000000   0.0000000
0.0234083     0.9988550  -0.0145766   0.0000113   0.0000000   0.0000000   0.0000000   0.0000000   0.0000000
0.0237342     0.9989234  -0.0148028   0.0000144   0.0000039   0.0000000   0.0000000   0.0000000   0.0000000
0.0240648     0.9989748  -0.0148986  -0.0000067  -0.0000022   0.0000000   0.0000000   0.0000000   0.0000000
0.0243999     0.9989109  -0.0152407   0.0000023   0.0000103   0.0000000   0.0000000   0.0000000   0.0000000
0.0247396     0.9988676  -0.0152858   0.0000073   0.0000090   0.0000000   0.0000000   0.0000000   0.0000000
0.0250842     0.9989720  -0.0155506  -0.0000006  -0.0000022   0.0000000   0.0000000   0.0000000   0.0000000
0.0254335     0.9987255  -0.0157825   0.0000077   0.0000108   0.0000000   0.0000000   0.0000000   0.0000000
0.0257876     0.9988585  -0.0159573  -0.0000158   0.0000119   0.0000000   0.0000000   0.0000000   0.0000000
0.0261467     0.9988816  -0.0162253   0.0000041   0.0000149   0.0000000   0.0000000   0.0000000   0.0000000
0.0265108     0.9989436  -0.0164749   0.0000141   0.0000026   0.0000000   0.0000000   0.0000000   0.0000000
0.0268800     0.9989787  -0.0166938   0.0000030  -0.0000146   0.0000000   0.0000000   0.0000000   0.0000000
0.0272543     0.9989197  -0.0170480   0.0000078   0.0000153   0.0000000   0.0000000   0.0000000   0.0000000
0.0276339     0.9988192  -0.0171457  -0.0000135  -0.0000020   0.0000000   0.0000000   0.0000000   0.0000000
0.0280187     0.9988783  -0.0174061  -0.0000109   0.0000012   0.0000000   0.0000000   0.0000000   0.0000000
0.0284088     0.9988841  -0.0176489   0.0000012   0.0000072   0.0000000   0.0000000   0.0000000   0.0000000
0.0288044     0.9988554  -0.0179331  -0.0000189  -0.0000032   0.0000000   0.0000000   0.0000000   0.0000000
0.0292056     0.9988572  -0.0180616   0.0000107  -0.0000034   0.0000000   0.0000000   0.0000000   0.0000000
0.0296123     0.9989734  -0.0183463  -0.0000003   0.0000100   0.0000000   0.0000000   0.0000000   0.0000000
0.0300246     0.9988519  -0.0186422   0.0000013   0.0000033   0.0000000   0.0000000   0.0000000   0.0000000
0.0304427     0.9987661  -0.0189419  -0.0000105   0.0000035   0.0000000   0.0000000   0.0000000   0.0000000
0.0308666     0.9988092  -0.0191140  -0.0000098  -0.0000062   0.0000000   0.0000000   0.0000000   0.0000000
0.0312965     0.9988334  -0.0194149  -0.0000034   0.0000001   0.0000000   0.0000000   0.0000000   0.0000000
0.0317323     0.9987717  -0.0197342  -0.0000099   0.0000113   0.0000000   0.0000000   0.0000000   0.0000000
0.0321742     0.9988365  -0.0200399   0.0000004   0.0000003   0.0000000   0.0000000   0.0000000   0.0000000
0.0326222     0.9987257  -0.0203816  -0.0000023   0.0000089   0.0000000   0.0000000   0.0000000   0.0000000
0.0330765     0.9988262  -0.0205000  -0.0000008  -0.0000122   0.0000000   0.0000000   0.0000000   0.0000000
0.0335371     0.9987330  -0.0208374   0.0000114   0.0000036   0.0000000   0.0000000   0.0000000   0.0000000
0.0340041     0.9987259  -0.0211331  -0.0000158   0.0000285   0.0000000   0.0000000   0.0000000   0.0000000
0.0344776     0.9987566  -0.0214669  -0.0000212  -0.0000074   0.0000000   0.0000000   0.0000000   0.0000000
0.0349578     0.9988394  -0.0217031   0.0000069   0.0000073   0.0000000   0.0000000   0.0000000   0.0000000
0.0354446     0.9988698  -0.0219597   0.0000009  -0.0000053   0.0000000   0.0000000   0.0000000   0.0000000
0.0359381     0.9987249  -0.0222650  -0.0000043   0.0000108   0.0000000   0.0000000   0.0000000   0.0000000
0.0364386     0.9987340  -0.0226399   0.0000084   0.0000048   0.0000000   0.0000000   0.0000000   0.0000000
0.0369460     0.9987546  -0.0229259  -0.0000099   0.0000028   0.0000000   0.0000000   0.0000000   0.0000000
0.0374605     0.9987241  -0.0233040  -0.0000082  -0.0000012   0.0000000   0.0000000   0.0000000   0.0000000
0.0379822     0.9988277  -0.0236808  -0.0000015  -0.0000037   0.0000000   0.0000000   0.0000000   0.0000000
0.0385111     0.9986576  -0.0239170   0.0000022  -0.0000120   0.0000000   0.0000000   0.0000000   0.0000000
0.0390474     0.9986632  -0.0243220   0.0000131  -0.0000008   0.0000000   0.0000000   0.0000000   0.0000000
0.0395911     0.9986908  -0.0246314  -0.0000051   0.0000000   0.0000000   0.0000000   0.0000000   0.0000000
0.0401424     0.9987527  -0.0248890  -0.0000062  -0.0000001   0.0000000   0.0000000   0.0000000   0.0000000
0.0407014     0.9986569  -0.0251816  -0.0000008   0.0000074   0.0000000   0.0000000   0.0000000   0.0000000
0.0412682     0.9986981  -0.0256617  -0.0000080  -0.0000056   0.0000000   0.0000000   0.0000000   0.0000000
0.0418429     0.9987692  -0.0259434  -0.0000068   0.0000009   0.0000000   0.0000000   0.0000000   0.0000000
0.0424256     0.9986636  -0.0262581  -0.0000038   0.0000075   0.0000000   0.0000000   0.0000000   0.0000000
0.0430164     0.9986455  -0.0266081   0.0000115  -0.0000046   0.0000000   0.0000000   0.0000000   0.0000000
0.0436154     0.9986413  -0.0270405   0.0000147  -0.0000078   0.0000000   0.0000000   0.0000000   0.0000000
0.0442227     0.9986505  -0.0274567  -0.0000039  -0.0000033   0.0000000   0.0000000   0.0000000   0.0000000
0.0448386     0.9986511  -0.0278135   0.0000015   0.0000014   0.0000000   0.0000000   0.0000000   0.0000000
0.0454630     0.9985390  -0.0281246   0.0000095   0.0000062   0.0000000   0.0000000   0.0000000   0.0000000
0.0460960     0.9985426  -0.0285914  -0.0000057   0.0000004   0.0000000   0.0000000   0.0000000   0.0000000
0.0467380     0.9986372  -0.0289543  -0.0000019   0.0000051   0.0000000   0.0000000   0.0000000   0.0000000
0.0473888     0.9986335  -0.0294439  -0.0000028  -0.0000017   0.0000000   0.0000000   0.0000000   0.0000000
0.0480487     0.9986305  -0.0297821   0.0000031  -0.0000051   0.0000000   0.0000000   0.0000000   0.0000000
0.0487178     0.9985505  -0.0301919  -0.0000064   0.0000054   0.0000000   0.0000000   0.0000000   0.0000000
0.0493962     0.9985557  -0.0306416  -0.0000060  -0.0000021   0.0000000   0.0000000   0.0000000   0.0000000
0.0500841     0.9985940  -0.0311000   0.0000146  -0.0000068   0.0000000   0.0000000   0.0000000   0.0000000
0.0507815     0.9984834  -0.0315547   0.0000039  -0.0000004   0.0000000   0.0000000   0.0000000   0.0000000
0.0514887     0.9984406  -0.0318901   0.0000123   0.0000089   0.0000000   0.0000000   0.0000000   0.0000000
0.0522057     0.9984775  -0.0323678  -0.0000051  -0.0000027   0.0000000   0.0000000   0.0000000   0.0000000
0.0529327     0.9983891  -0.0328165  -0.0000048   0.0000037   0.0000000   0.0000000   0.0000000   0.0000000
0.0536698     0.9984459  -0.0333383  -0.0000028   0.0000002   0.0000000   0.0000000   0.0000000   0.0000000
0.0544171     0.9983928  -0.0336969   0.0000091   0.0000013   0.0000000   0.0000000   0.0000000   0.0000000
0.0551749     0.9984148  -0.0343249  -0.0000021   0.0000007   0.0000000   0.0000000   0.0000000   0.0000000
0.0559433     0.9983858  -0.0346495   0.0000019   0.0000052   0.0000000   0.0000000   0.0000000   0.0000000
0.0567223     0.9985145  -0.0351959  -0.0000041   0.0000010   0.0000000   0.0000000   0.0000000   0.0000000
0.0575122     0.9984000  -0.0356307   0.0000049   0.0000049   0.0000000   0.0000000   0.0000000   0.0000000
0.0583131     0.9983959  -0.0362034  -0.0000097  -0.0000085   0.0000000   0.0000000   0.0000000   0.0000000
0.0591251     0.9983327  -0.0366954  -0.0000063   0.0000078   0.0000000   0.0000000   0.0000000   0.0000000
0.0599484     0.9983127  -0.0371500   0.0000008  -0.0000008   0.0000000   0.0000000   0.0000000   0.0000000
0.0607832     0.9982582  -0.0376922  -0.0000079  -0.0000066   0.0000000   0.0000000   0.0000000   0.0000000
0.0616297     0.9982724  -0.0381830   0.0000004   0.0000055   0.0000000   0.0000000   0.0000000   0.0000000
0.0624879     0.9982653  -0.0387413  -0.0000047  -0.0000012   0.0000000   0.0000000   0.0000000   0.0000000
0.0633580     0.9981696  -0.0392393   0.0000083  -0.0000028   0.0000000   0.0000000   0.0000000   0.0000000
0.0642403     0.9983029  -0.0396972  -0.0000066   0.0000013   0.0000000   0.0000000   0.0000000   0.0000000
0.0651349     0.9982176  -0.0404331  -0.0000011  -0.0000145   0.0000000   0.0000000   0.0000000   0.0000000
0.0660419     0.9981374  -0.0408894   0.0000031  -0.0000025   0.0000000   0.0000000   0.0000000   0.0000000
0.0669616     0.9981392  -0.0415279   0.0000028  -0.0000061   0.0000000   0.0000000   0.0000000   0.0000000
0.0678941     0.9981466  -0.0420255  -0.0000004  -0.0000083   0.0000000   0.0000000   0.0000000   0.0000000
0.0688395     0.9980416  -0.0426166  -0.0000025  -0.0000061   0.0000000   0.0000000   0.0000000   0.0000000
0.0697981     0.9981939  -0.0432953  -0.0000033   0.0000152   0.0000000   0.0000000   0.0000000   0.0000000
0.0707701     0.9980049  -0.0438541   0.0000032  -0.0000027   0.0000000   0.0000000   0.0000000   0.0000000
0.0717556     0.9980096  -0.0445254   0.0000028   0.0000052   0.0000000   0.0000000   0.0000000   0.0000000
0.0727548     0.9981026  -0.0451373  -0.0000082  -0.0000074   0.0000000   0.0000000   0.0000000   0.0000000
0.0737680     0.9980646  -0.0455807  -0.0000143  -0.0000004   0.0000000   0.0000000   0.0000000   0.0000000
0.0747952     0.9979004  -0.0463501   0.0000143  -0.0000080   0.0000000   0.0000000   0.0000000   0.0000000
0.0758368     0.9978850  -0.0470450   0.0000007  -0.0000029   0.0000000   0.0000000   0.0000000   0.0000000
0.0768928     0.9979523  -0.0475882  -0.0000099  -0.0000030   0.0000000   0.0000000   0.0000000   0.0000000
0.0779636     0.9980175  -0.0483387  -0.0000031  -0.0000009   0.0000000   0.0000000   0.0000000   0.0000000
0.0790493     0.9978352  -0.0489615  -0.0000028  -0.0000142   0.0000000   0.0000000   0.0000000   0.0000000
0.0801501     0.9977895  -0.0496843  -0.0000055   0.0000099   0.0000000   0.0000000   0.0000000   0.0000000
0.0812662     0.9977419  -0.0503271  -0.0000022   0.0000071   0.0000000   0.0000000   0.0000000   0.0000000
0.0823979     0.9977309  -0.0510382  -0.0000098  -0.0000018   0.0000000   0.0000000   0.0000000   0.0000000
0.0835453     0.9976823  -0.0517440  -0.0000102  -0.0000008   0.0000000   0.0000000   0.0000000   0.0000000
0.0847087     0.9976091  -0.0524739   0.0000025   0.0000065   0.0000000   0.0000000   0.0000000   0.0000000
0.0858883     0.9974731  -0.0532448  -0.0000058  -0.0000014   0.0000000   0.0000000   0.0000000   0.0000000
0.0870843     0.9976481  -0.0539976   0.0000074   0.0000137   0.0000000   0.0000000   0.0000000   0.0000000
0.0882970     0.9974862  -0.0546862   0.0000055  -0.0000188   0.0000000   0.0000000   0.0000000   0.0000000
0.0895266     0.9974345  -0.0555182   0.0000032   0.0000050   0.0000000   0.0000000   0.0000000   0.0000000
0.0907733     0.9974984  -0.0563340  -0.0000116  -0.0000029   0.0000000   0.0000000   0.0000000   0.0000000
0.0920373     0.9974067  -0.0569810  -0.0000047   0.0000142   0.0000000   0.0000000   0.0000000   0.0000000
0.0933190     0.9974304  -0.0579405   0.0000073  -0.0000001   0.0000000   0.0000000   0.0000000   0.0000000
0.0946185     0.9972924  -0.0586256  -0.0000051  -0.0000039   0.0000000   0.0000000   0.0000000   0.0000000
0.0959361     0.9973120  -0.0594239  -0.0000040   0.0000074   0.0000000   0.0000000   0.0000000   0.0000000
0.0972720     0.9972969  -0.0604499   0.0000060   0.0000035   0.0000000   0.0000000   0.0000000   0.0000000
0.0986266     0.9972004  -0.0611913   0.0000068  -0.0000127   0.0000000   0.0000000   0.0000000   0.0000000
0.1000000     0.9970834  -0.0621188  -0.0000128   0.0000140   0.0000000   0.0000000   0.0000000   0.0000000
0.1013925     0.9970273  -0.0629328  -0.0000022  -0.0000047   0.0000000   0.0000000   0.0000000   0.0000000
0.1028045     0.9970367  -0.0637279  -0.0000091  -0.0000053   0.0000000   0.0000000   0.0000000   0.0000000
0.1042361     0.9969180  -0.0647106   0.0000014   0.0000172   0.0000000   0.0000000   0.0000000   0.0000000
0.1056876     0.9968235  -0.0655732  -0.0000121   0.0000100   0.0000000   0.0000000   0.0000000   0.0000000
0.1071593     0.9967230  -0.0664685   0.0000028  -0.0000100   0.0000000   0.0000000   0.0000000   0.0000000
0.1086516     0.9966081  -0.0674841   0.0000090   0.0000034   0.0000000   0.0000000   0.0000000   0.0000000
0.1101646     0.9966076  -0.0682983   0.0000077  -0.0000016   0.0000000   0.0000000   0.0000000   0.0000000
0.1116987     0.9964575  -0.0691880   0.0000016   0.0000026   0.0000000   0.0000000   0.0000000   0.0000000
0.1132541     0.9964120  -0.0701361   0.0000050   0.0000153   0.0000000   0.0000000   0.0000000   0.0000000
0.1148312     0.9963327  -0.0711626   0.0000045  -0.0000060   0.0000000   0.0000000   0.0000000   0.0000000
0.1164303     0.9963453  -0.0721727  -0.0000075  -0.0000041   0.0000000   0.0000000   0.0000000   0.0000000
0.1180517     0.9962190  -0.0730018   0.0000019  -0.0000041   0.0000000   0.0000000   0.0000000   0.0000000
0.1196956     0.9962108  -0.0740687  -0.0000071   0.0000010   0.0000000   0.0000000   0.0000000   0.0000000
0.1213624     0.9960147  -0.0751582  -0.0000011  -0.0000145   0.0000000   0.0000000   0.0000000   0.0000000
0.1230524     0.9959312  -0.0761758  -0.0000046   0.0000117   0.0000000   0.0000000   0.0000000   0.0000000
0.1247660     0.9959319  -0.0772273  -0.0000133   0.0000067   0.0000000   0.0000000   0.0000000   0.0000000
0.1265034     0.9958542  -0.0782794   0.0000108   0.0000015   0.0000000   0.0000000   0.0000000   0.0000000
0.1282650     0.9957017  -0.0794188  -0.0000047   0.0000100   0.0000000   0.0000000   0.0000000   0.0000000
0.1300511     0.9957134  -0.0805108  -0.0000024  -0.0000043   0.0000000   0.0000000   0.0000000   0.0000000
0.1318621     0.9954647  -0.0815354   0.0000085   0.0000040   0.0000000   0.0000000   0.0000000   0.0000000
0.1336984     0.9954913  -0.0827256  -0.0000047  -0.0000037   0.0000000   0.0000000   0.0000000   0.0000000
0.1355602     0.9953092  -0.0839273  -0.0000092   0.0000079   0.0000000   0.0000000   0.0000000   0.0000000
0.1374479     0.9951567  -0.0850295  -0.0000010   0.0000019   0.0000000   0.0000000   0.0000000   0.0000000
0.1393619     0.9951942  -0.0863038  -0.0000022  -0.0000045   0.0000000   0.0000000   0.0000000   0.0000000
0.1413026     0.9949863  -0.0872975  -0.0000033  -0.0000155   0.0000000   0.0000000   0.0000000   0.0000000
0.1432703     0.9949411  -0.0885973   0.0000079  -0.0000016   0.0000000   0.0000000   0.0000000   0.0000000
0.1452654     0.9947526  -0.0899485   0.0000078  -0.0000064   0.0000000   0.0000000   0.0000000   0.0000000
0.1472883     0.9947842  -0.0910983  -0.0000088  -0.0000051   0.0000000   0.0000000   0.0000000   0.0000000
0.1493393     0.9945674  -0.0923873   0.0000005   0.0000044   0.0000000   0.0000000   0.0000000   0.0000000
0.1514189     0.9944449  -0.0936312  -0.0000095   0.0000045   0.0000000   0.0000000   0.0000000   0.0000000
0.1535275     0.9943201  -0.0949701  -0.0000015   0.0000123   0.0000000   0.0000000   0.0000000   0.0000000
0.1556654     0.9942711  -0.0962666   0.0000023  -0.0000039   0.0000000   0.0000000   0.0000000   0.0000000
0.1578331     0.9941173  -0.0975948   0.0000028  -0.0000011   0.0000000   0.0000000   0.0000000   0.0000000
0.1600310     0.9938868  -0.0990311  -0.0000042  -0.0000014   0.0000000   0.0000000   0.0000000   0.0000000
0.1622595     0.9937133  -0.1003829  -0.0000127  -0.0000050   0.0000000   0.0000000   0.0000000   0.0000000
0.1645191     0.9936785  -0.1017406   0.0000014  -0.0000083   0.0000000   0.0000000   0.0000000   0.0000000
0.1668101     0.9936579  -0.1032163   0.0000013   0.0000101   0.0000000   0.0000000   0.0000000   0.0000000
0.1691330     0.9933779  -0.1045683  -0.0000040   0.0000052   0.0000000   0.0000000   0.0000000   0.0000000
0.1714882     0.9932100  -0.1059862  -0.0000202   0.0000040   0.0000000   0.0000000   0.0000000   0.0000000
0.1738762     0.9930061  -0.1075158  -0.0000045  -0.0000013   0.0000000   0.0000000   0.0000000   0.0000000
0.1762975     0.9928504  -0.1090182  -0.0000097  -0.0000051   0.0000000   0.0000000   0.0000000   0.0000000
0.1787526     0.9926757  -0.1105190  -0.0000029  -0.0000112   0.0000000   0.0000000   0.0000000   0.0000000
0.1812418     0.9924594  -0.1121395   0.0000149   0.0000006   0.0000000   0.0000000   0.0000000   0.0000000
0.1837656     0.9922950  -0.1136097  -0.0000004  -0.0000044   0.0000000   0.0000000   0.0000000   0.0000000
0.1863246     0.9921451  -0.1152967  -0.0000016   0.0000034   0.0000000   0.0000000   0.0000000   0.0000000
0.1889193     0.9920830  -0.1168424   0.0000038   0.0000045   0.0000000   0.0000000   0.0000000   0.0000000
0.1915501     0.9917283  -0.1183103   0.0000002   0.0000069   0.0000000   0.0000000   0.0000000   0.0000000
0.1942175     0.9915336  -0.1200436   0.0000005   0.0000009   0.0000000   0.0000000   0.0000000   0.0000000
0.1969220     0.9913620  -0.1217273   0.0000003   0.0000097   0.0000000   0.0000000   0.0000000   0.0000000
0.1996642     0.9910178  -0.1233307  -0.0000080   0.0000051   0.0000000   0.0000000   0.0000000   0.0000000
0.2024447     0.9908632  -0.1250991   0.0000176  -0.0000001   0.0000000   0.0000000   0.0000000   0.0000000
0.2052638     0.9906965  -0.1267952  -0.0000166   0.0000102   0.0000000   0.0000000   0.0000000   0.0000000
0.2081222     0.9903296  -0.1285456   0.0000008  -0.0000052   0.0000000   0.0000000   0.0000000   0.0000000
0.2110203     0.9902023  -0.1304096  -0.0000027   0.0000076   0.0000000   0.0000000   0.0000000   0.0000000
0.2139589     0.9899960  -0.1320907  -0.0000074   0.0000129   0.0000000   0.0000000   0.0000000   0.0000000
0.2169384     0.9896627  -0.1339329  -0.0000148   0.0000127   0.0000000   0.0000000   0.0000000   0.0000000
0.2199593     0.9894677  -0.1359010  -0.0000166   0.0000122   0.0000000   0.0000000   0.0000000   0.0000000
0.2230223     0.9891410  -0.1376609  -0.0000006  -0.0000125   0.0000000   0.0000000   0.0000000   0.0000000
0.2261280     0.9889073  -0.1395938   0.0000059  -0.0000072   0.0000000   0.0000000   0.0000000   0.0000000
0.2292769     0.9885692  -0.1415288   0.0000010   0.0000062   0.0000000   0.0000000   0.0000000   0.0000000
0.2324697     0.9883206  -0.1435210  -0.0000088   0.0000007   0.0000000   0.0000000   0.0000000   0.0000000
0.2357069     0.9879579  -0.1454560  -0.0000119  -0.0000141   0.0000000   0.0000000   0.0000000   0.0000000
0.2389893     0.9877370  -0.1475222  -0.0000083   0.0000073   0.0000000   0.0000000   0.0000000   0.0000000
0.2423173     0.9874114  -0.1494664  -0.0000119   0.0000017   0.0000000   0.0000000   0.0000000   0.0000000
0.2456916     0.9870452  -0.1515759  -0.0000171   0.0000020   0.0000000   0.0000000   0.0000000   0.0000000
0.2491130     0.9866590  -0.1536852   0.0000037   0.0000005   0.0000000   0.0000000   0.0000000   0.0000000
0.2525820     0.9863634  -0.1557997  -0.0000062   0.0000046   0.0000000   0.0000000   0.0000000   0.0000000
0.2560993     0.9861353  -0.1578895  -0.0000054   0.0000066   0.0000000   0.0000000   0.0000000   0.0000000
0.2596656     0.9857273  -0.1600714  -0.0000180  -0.0000075   0.0000000   0.0000000   0.0000000   0.0000000
0.2632815     0.9852624  -0.1623528  -0.0000135   0.0000069   0.0000000   0.0000000   0.0000000   0.0000000
0.2669478     0.9849229  -0.1645647  -0.0000046  -0.0000033   0.0000000   0.0000000   0.0000000   0.0000000
0.2706652     0.9844501  -0.1667957   0.0000001   0.0000085   0.0000000   0.0000000   0.0000000   0.0000000
0.2744343     0.9841349  -0.1690670  -0.0000069   0.0000115   0.0000000   0.0000000   0.0000000   0.0000000
0.2782559     0.9836798  -0.1714050  -0.0000080  -0.0000048   0.0000000   0.0000000   0.0000000   0.0000000
0.2821308     0.9832195  -0.1737632  -0.0000052   0.0000041   0.0000000   0.0000000   0.0000000   0.0000000
0.2860596     0.9828073  -0.1761333  -0.0000126   0.0000071   0.0000000   0.0000000   0.0000000   0.0000000
0.2900430     0.9824056  -0.1787287  -0.0000146   0.0000048   0.0000000   0.0000000   0.0000000   0.0000000
0.2940820     0.9818395  -0.1810347  -0.0000043   0.0000104   0.0000000   0.0000000   0.0000000   0.0000000
0.2981772     0.9813430  -0.1836223  -0.0000036  -0.0000005   0.0000000   0.0000000   0.0000000   0.0000000
0.3023295     0.9808502  -0.1861156  -0.0000202   0.0000046   0.0000000   0.0000000   0.0000000   0.0000000
0.3065395     0.9803729  -0.1886396  -0.0000055  -0.0000092   0.0000000   0.0000000   0.0000000   0.0000000
0.3108082     0.9799379  -0.1913089  -0.0000157   0.0000047   0.0000000   0.0000000   0.0000000   0.0000000
0.3151363     0.9793022  -0.1938755   0.0000039   0.0000021   0.0000000   0.0000000   0.0000000   0.0000000
0.3195248     0.9787299  -0.1965940  -0.0000083   0.0000020   0.0000000   0.0000000   0.0000000   0.0000000
0.3239743     0.9781861  -0.1991698  -0.0000081   0.0000030   0.0000000   0.0000000   0.0000000   0.0000000
0.3284857     0.9776338  -0.2018984  -0.0000097   0.0000047   0.0000000   0.0000000   0.0000000   0.0000000
0.3330600     0.9770555  -0.2046793  -0.0000191  -0.0000016   0.0000000   0.0000000   0.0000000   0.0000000
0.3376980     0.9764970  -0.2075450  -0.0000212  -0.0000003   0.0000000   0.0000000   0.0000000   0.0000000
0.3424006     0.9758776  -0.2103894  -0.0000078   0.0000029   0.0000000   0.0000000   0.0000000   0.0000000
0.3471687     0.9751532  -0.2132812  -0.0000103   0.0000094   0.0000000   0.0000000   0.0000000   0.0000000
0.3520031     0.9745588  -0.2161086  -0.0000172  -0.0000035   0.0000000   0.0000000   0.0000000   0.0000000
0.3569049     0.9739102  -0.2191268  -0.0000179  -0.0000022   0.0000000   0.0000000   0.0000000   0.0000000
0.3618750     0.9729536  -0.2220874  -0.0000186  -0.0000038   0.0000000   0.0000000   0.0000000   0.0000000
0.3669142     0.9724336  -0.2251298  -0.0000143   0.0000001   0.0000000   0.0000000   0.0000000   0.0000000
0.3720237     0.9717263  -0.2281780  -0.0000206  -0.0000008   0.0000000   0.0000000   0.0000000   0.0000000
0.3772042     0.9708464  -0.2313595  -0.0000186  -0.0000003   0.0000000   0.0000000   0.0000000   0.0000000
0.3824570     0.9701377  -0.2344201  -0.0000189  -0.0000038   0.0000000   0.0000000   0.0000000   0.0000000
0.3877828     0.9692896  -0.2377237  -0.0000226   0.0000042   0.0000000   0.0000000   0.0000000   0.0000000
0.3931829     0.9684406  -0.2408314  -0.0000275   0.0000014   0.0000000   0.0000000   0.0000000   0.0000000
0.3986581     0.9676014  -0.2441632  -0.0000099  -0.0000020   0.0000000   0.0000000   0.0000000   0.0000000
0.4042096     0.9667175  -0.2474976  -0.0000180   0.0000019   0.0000000   0.0000000   0.0000000   0.0000000
0.4098384     0.9658504  -0.2507475  -0.0000170  -0.0000056   0.0000000   0.0000000   0.0000000   0.0000000
0.4155455     0.9649811  -0.2541915  -0.0000222  -0.0000131   0.0000000   0.0000000   0.0000000   0.0000000
0.4213322     0.9639550  -0.2577077  -0.0000263  -0.0000073   0.0000000   0.0000000   0.0000000   0.0000000
0.4271994     0.9630753  -0.2611951  -0.0000364   0.0000070   0.0000000   0.0000000   0.0000000   0.0000000
0.4331483     0.9619503  -0.2646947  -0.0000190  -0.0000073   0.0000000   0.0000000   0.0000000   0.0000000
0.4391801     0.9609349  -0.2682353  -0.0000390  -0.0000108   0.0000000   0.0000000   0.0000000   0.0000000
0.4452959     0.9597729  -0.2719832  -0.0000267  -0.0000094   0.0000000   0.0000000   0.0000000   0.0000000
0.4514968     0.9586886  -0.2755112  -0.0000309  -0.0000127   0.0000000   0.0000000   0.0000000   0.0000000
0.4577841     0.9576200  -0.2792317  -0.0000282  -0.0000098   0.0000000   0.0000000   0.0000000   0.0000000
0.4641589     0.9563693  -0.2830316  -0.0000203   0.0000042   0.0000000   0.0000000   0.0000000   0.0000000
0.4706225     0.9552851  -0.2868978  -0.0000294  -0.0000034   0.0000000   0.0000000   0.0000000   0.0000000
0.4771761     0.9540790  -0.2906769  -0.0000375  -0.0000091   0.0000000   0.0000000   0.0000000   0.0000000
0.4838210     0.9528367  -0.2946011  -0.0000207   0.0000026   0.0000000   0.0000000   0.0000000   0.0000000
0.4905584     0.9516318  -0.2986916  -0.0000324   0.0000012   0.0000000   0.0000000   0.0000000   0.0000000
0.4973896     0.9501975  -0.3026444  -0.0000307  -0.0000006   0.0000000   0.0000000   0.0000000   0.0000000
0.5043159     0.9487998  -0.3065724  -0.0000303  -0.0000045   0.0000000   0.0000000   0.0000000   0.0000000
0.5113388     0.9475361  -0.3107280  -0.0000289   0.0000002   0.0000000   0.0000000   0.0000000   0.0000000
0.5184594     0.9460583  -0.3148464  -0.0000534   0.0000000   0.0000000   0.0000000   0.0000000   0.0000000
0.5256791     0.9445405  -0.3191134  -0.0000395  -0.0000008   0.0000000   0.0000000   0.0000000   0.0000000
0.5329994     0.9429991  -0.3233361  -0.0000511   0.0000098   0.0000000   0.0000000   0.0000000   0.0000000
0.5404216     0.9415274  -0.3275690  -0.0000532  -0.0000035   0.0000000   0.0000000   0.0000000   0.0000000
0.5479472     0.9399064  -0.3320037  -0.0000474   0.0000002   0.0000000   0.0000000   0.0000000   0.0000000
0.5555776     0.9382624  -0.3364115  -0.0000413  -0.0000014   0.0000000   0.0000000   0.0000000   0.0000000
0.5633143     0.9365270  -0.3408331  -0.0000496   0.0000091   0.0000000   0.0000000   0.0000000   0.0000000
0.5711586     0.9348908  -0.3452695  -0.0000525  -0.0000067   0.0000000   0.0000000   0.0000000   0.0000000
0.5791123     0.9330134  -0.3499108  -0.0000560  -0.0000015   0.0000000   0.0000000   0.0000000   0.0000000
0.5871766     0.9312292  -0.3545312  -0.0000617  -0.0000029   0.0000000   0.0000000   0.0000000   0.0000000
0.5953533     0.9294182  -0.3590812  -0.0000472   0.0000059   0.0000000   0.0000000   0.0000000   0.0000000
0.6036439     0.9274067  -0.3638829  -0.0000682  -0.0000096   0.0000000   0.0000000   0.0000000   0.0000000
0.6120498     0.9253774  -0.3685039  -0.0000550   0.0000107   0.0000000   0.0000000   0.0000000   0.0000000
0.6205729     0.9234024  -0.3733965  -0.0000580  -0.0000045   0.0000000   0.0000000   0.0000000   0.0000000
0.6292146     0.9213598  -0.3783131  -0.0000561   0.0000012   0.0000000   0.0000000   0.0000000   0.0000000
0.6379767     0.9192066  -0.3833442  -0.0000593   0.0000023   0.0000000   0.0000000   0.0000000   0.0000000
0.6468608     0.9169813  -0.3881898  -0.0000624   0.0000088   0.0000000   0.0000000   0.0000000   0.0000000
0.6558686     0.9147971  -0.3934266  -0.0000678  -0.0000022   0.0000000   0.0000000   0.0000000   0.0000000
0.6650018     0.9124492  -0.3985233  -0.0000700   0.0000038   0.0000000   0.0000000   0.0000000   0.0000000
0.6742622     0.9100392  -0.4036331  -0.0000766   0.0000133   0.0000000   0.0000000   0.0000000   0.0000000
0.6836516     0.9075131  -0.4087951  -0.0000737   0.0000153   0.0000000   0.0000000   0.0000000   0.0000000
0.6931717     0.9051812  -0.4141395  -0.0000770  -0.0000051   0.0000000   0.0000000   0.0000000   0.0000000
0.7028244     0.9022955  -0.4193223  -0.0000868   0.0000120   0.0000000   0.0000000   0.0000000   0.0000000
0.7126115     0.8998090  -0.4246958  -0.0000857   0.0000016   0.0000000   0.0000000   0.0000000   0.0000000
0.7225349     0.8970983  -0.4301475  -0.0000974   0.0000014   0.0000000   0.0000000   0.0000000   0.0000000
0.7325965     0.8942944  -0.4357101  -0.0000898   0.0000055   0.0000000   0.0000000   0.0000000   0.0000000
0.7427982     0.8914436  -0.4411799  -0.0001049   0.0000007   0.0000000   0.0000000   0.0000000   0.0000000
0.7531420     0.8883924  -0.4467456  -0.0000962   0.0000084   0.0000000   0.0000000   0.0000000   0.0000000
0.7636298     0.8853710  -0.4525520  -0.0001073   0.0000098   0.0000000   0.0000000   0.0000000   0.0000000
0.7742637     0.8821491  -0.4581970  -0.0001156   0.0000048   0.0000000   0.0000000   0.0000000   0.0000000
0.7850456     0.8791010  -0.4639488  -0.0001163  -0.0000026   0.0000000   0.0000000   0.0000000   0.0000000
0.7959777     0.8757648  -0.4697464  -0.0000999   0.0000174   0.0000000   0.0000000   0.0000000   0.0000000
0.8070620     0.8725404  -0.4756111  -0.0001138   0.0000165   0.0000000   0.0000000   0.0000000   0.0000000
0.8183007     0.8690687  -0.4815724  -0.0001252   0.0000101   0.0000000   0.0000000   0.0000000   0.0000000
0.8296959     0.8655173  -0.4875429  -0.0001216   0.0000143   0.0000000   0.0000000   0.0000000   0.0000000
0.8412497     0.8619461  -0.4935617  -0.0001323   0.0000180   0.0000000   0.0000000   0.0000000   0.0000000
0.8529644     0.8580483  -0.4995560  -0.0001377   0.0000268   0.0000000   0.0000000   0.0000000   0.0000000
0.8648423     0.8542460  -0.5057089  -0.0001362   0.0000098   0.0000000   0.0000000   0.0000000   0.0000000
0.8768856     0.8502414  -0.5118691  -0.0001267   0.0000351   0.0000000   0.0000000   0.0000000   0.0000000
0.8890966     0.8462847  -0.5181237  -0.0001430   0.0000162   0.0000000   0.0000000   0.0000000   0.0000000
0.9014776     0.8421021  -0.5244482  -0.0001437   0.0000175   0.0000000   0.0000000   0.0000000   0.0000000
0.9140311     0.8378771  -0.5306329  -0.0001479   0.0000195   0.0000000   0.0000000   0.0000000   0.0000000
0.9267593     0.8335308  -0.5370963  -0.0001642   0.0000358   0.0000000   0.0000000   0.0000000   0.0000000
0.9396648     0.8289944  -0.5435270  -0.0001485   0.0000443   0.0000000   0.0000000   0.0000000   0.0000000
0.9527500     0.8245308  -0.5500228  -0.0001724   0.0000339   0.0000000   0.0000000   0.0000000   0.0000000
0.9660175     0.8197927  -0.5564877  -0.0001642   0.0000263   0.0000000   0.0000000   0.0000000   0.0000000
0.9794697     0.8151109  -0.5630660  -0.0001831   0.0000437   0.0000000   0.0000000   0.0000000   0.0000000
0.9931092     0.8100961  -0.5697700  -0.0001886   0.0000440   0.0000000   0.0000000   0.0000000   0.0000000
1.0069386     0.8049005  -0.5762823  -0.0001800   0.0000471   0.0000000   0.0000000   0.0000000   0.0000000
1.0209607     0.7997406  -0.5830284  -0.0001941   0.0000395   0.0000000   0.0000000   0.0000000   0.0000000
1.0351780     0.7945737  -0.5896618  -0.0001994   0.0000422   0.0000000   0.0000000   0.0000000   0.0000000
1.0495932     0.7890708  -0.5963618  -0.0002047   0.0000519   0.0000000   0.0000000   0.0000000   0.0000000
1.0642092     0.7834428  -0.6032754  -0.0002058   0.0000571   0.0000000   0.0000000   0.0000000   0.0000000
1.0790288     0.7777686  -0.6100774  -0.0001947   0.0000555   0.0000000   0.0000000   0.0000000   0.0000000
1.0940547     0.7720642  -0.6167290  -0.0002139   0.0000531   0.0000000   0.0000000   0.0000000   0.0000000
1.1092899     0.7658361  -0.6236502  -0.0001944   0.0000660   0.0000000   0.0000000   0.0000000   0.0000000
1.1247372     0.7596550  -0.6306522  -0.0002360   0.0000569   0.0000000   0.0000000   0.0000000   0.0000000
1.1403996     0.7532941  -0.6374421  -0.0002289   0.0000665   0.0000000   0.0000000   0.0000000   0.0000000
1.1562801     0.7468697  -0.6445420  -0.0002355   0.0000891   0.0000000   0.0000000   0.0000000   0.0000000
1.1723818     0.7403190  -0.6513613  -0.0002422   0.0000841   0.0000000   0.0000000   0.0000000   0.0000000
1.1887077     0.7334791  -0.6582830  -0.0002435   0.0000921   0.0000000   0.0000000   0.0000000   0.0000000
1.2052609     0.7265919  -0.6653353  -0.0002631   0.0001041   0.0000000   0.0000000   0.0000000   0.0000000
1.2220447     0.7194748  -0.6723597  -0.0002615   0.0000952   0.0000000   0.0000000   0.0000000   0.0000000
1.2390622     0.7122597  -0.6792927  -0.0002715   0.0000984   0.0000000   0.0000000   0.0000000   0.0000000
1.2563166     0.7048581  -0.6864191  -0.0002817   0.0001133   0.0000000   0.0000000   0.0000000   0.0000000
1.2738113     0.6972394  -0.6933577  -0.0002947   0.0001098   0.0000000   0.0000000   0.0000000   0.0000000
1.2915497     0.6893494  -0.7002382  -0.0002975   0.0001156   0.0000000   0.0000000   0.0000000   0.0000000
1.3095350     0.6813908  -0.7073284  -0.0003131   0.0001282   0.0000000   0.0000000   0.0000000   0.0000000
1.3277708     0.6732981  -0.7142022  -0.0003048   0.0001427   0.0000000   0.0000000   0.0000000   0.0000000
1.3462606     0.6649791  -0.7212788  -0.0003088   0.0001395   0.0000000   0.0000000   0.0000000   0.0000000
1.3650078     0.6564757  -0.7281277  -0.0003191   0.0001443   0.0000000   0.0000000   0.0000000   0.0000000
1.3840161     0.6477311  -0.7350534  -0.0003221   0.0001508   0.0000000   0.0000000   0.0000000   0.0000000
1.4032891     0.6389777  -0.7417994  -0.0003314   0.0001557   0.0000000   0.0000000   0.0000000   0.0000000
1.4228305     0.6297757  -0.7486838  -0.0003311   0.0001669   0.0000000   0.0000000   0.0000000   0.0000000
1.4426440     0.6205219  -0.7557239  -0.0003409   0.0001727   0.0000000   0.0000000   0.0000000   0.0000000
1.4627334     0.6110653  -0.7622928  -0.0003493   0.0001905   0.0000000   0.0000000   0.0000000   0.0000000
1.4831025     0.6013522  -0.7690328  -0.0003619   0.0002046   0.0000000   0.0000000   0.0000000   0.0000000
1.5037553     0.5913246  -0.7756355  -0.0003637   0.0001882   0.0000000   0.0000000   0.0000000   0.0000000
1.5246957     0.5813152  -0.7822840  -0.0003746   0.0002233   0.0000000   0.0000000   0.0000000   0.0000000
1.5459277     0.5708865  -0.7887673  -0.0003833   0.0002262   0.0000000   0.0000000   0.0000000   0.0000000
1.5674554     0.5603536  -0.7951791  -0.0003941   0.0002272   0.0000000   0.0000000   0.0000000   0.0000000
1.5892829     0.5497688  -0.8016077  -0.0003967   0.0002469   0.0000000   0.0000000   0.0000000   0.0000000
1.6114143     0.5386715  -0.8077802  -0.0004006   0.0002413   0.0000000   0.0000000   0.0000000   0.0000000
1.6338539     0.5276467  -0.8139433  -0.0004200   0.0002609   0.0000000   0.0000000   0.0000000   0.0000000
1.6566060     0.5162280  -0.8200738  -0.0004038   0.0002980   0.0000000   0.0000000   0.0000000   0.0000000
1.6796749     0.5048365  -0.8261677  -0.0004312   0.0002960   0.0000000   0.0000000   0.0000000   0.0000000
1.7030650     0.4928939  -0.8319854  -0.0004335   0.0003029   0.0000000   0.0000000   0.0000000   0.0000000
1.7267809     0.4809098  -0.8376865  -0.0004375   0.0003107   0.0000000   0.0000000   0.0000000   0.0000000
1.7508270     0.4685865  -0.8433271  -0.0004520   0.0003360   0.0000000   0.0000000   0.0000000   0.0000000
1.7752080     0.4560834  -0.8486664  -0.0004727   0.0003392   0.0000000   0.0000000   0.0000000   0.0000000
1.7999285     0.4434581  -0.8540609  -0.0004757   0.0003553   0.0000000   0.0000000   0.0000000   0.0000000
1.8249932     0.4306987  -0.8592841  -0.0004725   0.0003805   0.0000000   0.0000000   0.0000000   0.0000000
1.8504070     0.4175062  -0.8643131  -0.0004834   0.0003807   0.0000000   0.0000000   0.0000000   0.0000000
1.8761747     0.4043214  -0.8689863  -0.0004872   0.0003992   0.0000000   0.0000000   0.0000000   0.0000000
1.9023012     0.3907619  -0.8736786  -0.0004886   0.0004141   0.0000000   0.0000000   0.0000000   0.0000000
1.9287915     0.3768266  -0.8779965  -0.0005018   0.0004340   0.0000000   0.0000000   0.0000000   0.0000000
1.9556507     0.3630925  -0.8824579  -0.0005165   0.0004438   0.0000000   0.0000000   0.0000000   0.0000000
1.9828839     0.3490385  -0.8865033  -0.0005175   0.0004654   0.0000000   0.0000000   0.0000000   0.0000000
2.0104964     0.3345801  -0.8902821  -0.0005149   0.0004765   0.0000000   0.0000000   0.0000000   0.0000000
2.0384934     0.3200697  -0.8937661  -0.0005328   0.0005090   0.0000000   0.0000000   0.0000000   0.0000000
2.0668802     0.3055140  -0.8971426  -0.0005413   0.0005261   0.0000000   0.0000000   0.0000000   0.0000000
2.0956624     0.2904387  -0.9000284  -0.0005334   0.0005527   0.0000000   0.0000000   0.0000000   0.0000000
2.1248454     0.2752873  -0.9030921  -0.0005646   0.0005678   0.0000000   0.0000000   0.0000000   0.0000000
2.1544347     0.2600119  -0.9056804  -0.0005405   0.0005753   0.0000000   0.0000000   0.0000000   0.0000000
2.1844361     0.2446477  -0.9080771  -0.0005646   0.0006061   0.0000000   0.0000000   0.0000000   0.0000000
2.2148552     0.2290445  -0.9100734  -0.0005696   0.0006279   0.0000000   0.0000000   0.0000000   0.0000000
2.2456980     0.2132685  -0.9119490  -0.0005633   0.0006411   0.0000000   0.0000000   0.0000000   0.0000000
2.2769703     0.1973925  -0.9133914  -0.0005738   0.0006710   0.0000000   0.0000000   0.0000000   0.0000000
2.3086780     0.1812433  -0.9143907  -0.0005539   0.0006965   0.0000000   0.0000000   0.0000000   0.0000000
2.3408273     0.1649161  -0.9152538  -0.0005858   0.0007272   0.0000000   0.0000000   0.0000000   0.0000000
2.3734243     0.1485094  -0.9156218  -0.0005839   0.0007455   0.0000000   0.0000000   0.0000000   0.0000000
2.4064752     0.1319896  -0.9159753  -0.0005841   0.0007602   0.0000000   0.0000000   0.0000000   0.0000000
2.4399863     0.1155294  -0.9156762  -0.0005661   0.0007924   0.0000000   0.0000000   0.0000000   0.0000000
2.4739641     0.0987597  -0.9151186  -0.0005923   0.0008247   0.0000000   0.0000000   0.0000000   0.0000000
2.5084151     0.0820864  -0.9140344  -0.0005899   0.0008373   0.0000000   0.0000000   0.0000000   0.0000000
2.5433458     0.0652935  -0.9128692  -0.0005958   0.0008797   0.0000000   0.0000000   0.0000000   0.0000000
2.5787629     0.0484105  -0.9111456  -0.0005784   0.0009037   0.0000000   0.0000000   0.0000000   0.0000000
2.6146732     0.0315232  -0.9092196  -0.0005910   0.0009234   0.0000000   0.0000000   0.0000000   0.0000000
2.6510836     0.0144924  -0.9066642  -0.0005892   0.0009490   0.0000000   0.0000000   0.0000000   0.0000000
2.6880010    -0.0023689  -0.9037220  -0.0005798   0.0009726   0.0000000   0.0000000   0.0000000   0.0000000
2.7254325    -0.0195076  -0.9005650  -0.0005859   0.0010243   0.0000000   0.0000000   0.0000000   0.0000000
2.7633853    -0.0366387  -0.8970380  -0.0005606   0.0010466   0.0000000   0.0000000   0.0000000   0.0000000
2.8018666    -0.0537344  -0.8929495  -0.0005698   0.0010747   0.0000000   0.0000000   0.0000000   0.0000000
2.8408837    -0.0706764  -0.8884575  -0.0005775   0.0010999   0.0000000   0.0000000   0.0000000   0.0000000
2.8804442    -0.0877406  -0.8834987  -0.0005552   0.0011167   0.0000000   0.0000000   0.0000000   0.0000000
2.9205555    -0.1044422  -0.8782888  -0.0005513   0.0011676   0.0000000   0.0000000   0.0000000   0.0000000
2.9612254    -0.1213667  -0.8726814  -0.0005438   0.0012054   0.0000000   0.0000000   0.0000000   0.0000000
3.0024617    -0.1381394  -0.8663604  -0.0005495   0.0012329   0.0000000   0.0000000   0.0000000   0.0000000
3.0442722    -0.1548253  -0.8598901  -0.0005270   0.0012556   0.0000000   0.0000000   0.0000000   0.0000000
3.0866649    -0.1711852  -0.8528059  -0.0005206   0.0012893   0.0000000   0.0000000   0.0000000   0.0000000
3.1296480    -0.1876121  -0.8456100  -0.0005131   0.0013243   0.0000000   0.0000000   0.0000000   0.0000000
3.1732296    -0.2037988  -0.8376440  -0.0005003   0.0013597   0.0000000   0.0000000   0.0000000   0.0000000
3.2174182    -0.2198000  -0.8294741  -0.0004810   0.0013904   0.0000000   0.0000000   0.0000000   0.0000000
3.2622220    -0.2356401  -0.8208157  -0.0004663   0.0014143   0.0000000   0.0000000   0.0000000   0.0000000
3.3076498    -0.2512439  -0.8119152  -0.0004513   0.0014407   0.0000000   0.0000000   0.0000000   0.0000000
3.3537102    -0.2666051  -0.8022959  -0.0004286   0.0014850   0.0000000   0.0000000   0.0000000   0.0000000
3.4004119    -0.2817144  -0.7925125  -0.0004447   0.0015162   0.0000000   0.0000000   0.0000000   0.0000000
3.4477641    -0.2966983  -0.7823009  -0.0004191   0.0015451   0.0000000   0.0000000   0.0000000   0.0000000
3.4957756    -0.3110860  -0.7716836  -0.0003986   0.0015853   0.0000000   0.0000000   0.0000000   0.0000000
3.5444557    -0.3253762  -0.7606331  -0.0003759   0.0016216   0.0000000   0.0000000   0.0000000   0.0000000
3.5938137    -0.3394752  -0.7494458  -0.0003481   0.0016594   0.0000000   0.0000000   0.0000000   0.0000000
3.6438590    -0.3530864  -0.7377755  -0.0003210   0.0016958   0.0000000   0.0000000   0.0000000   0.0000000
3.6946012    -0.3664329  -0.7257548  -0.0003031   0.0017073   0.0000000   0.0000000   0.0000000   0.0000000
3.7460500    -0.3795358  -0.7135112  -0.0002850   0.0017514   0.0000000   0.0000000   0.0000000   0.0000000
3.7982153    -0.3920473  -0.7008405  -0.0002520   0.0017665   0.0000000   0.0000000   0.0000000   0.0000000
3.8511070    -0.4042855  -0.6877185  -0.0002491   0.0018173   0.0000000   0.0000000   0.0000000   0.0000000
3.9047352    -0.4163724  -0.6747175  -0.0002047   0.0018448   0.0000000   0.0000000   0.0000000   0.0000000
3.9591103    -0.4275795  -0.6613508  -0.0001862   0.0018636   0.0000000   0.0000000   0.0000000   0.0000000
4.0142425    -0.4387524  -0.6475519  -0.0001534   0.0019067   0.0000000   0.0000000   0.0000000   0.0000000
4.0701425    -0.4494605  -0.6336630  -0.0001206   0.0019302   0.0000000   0.0000000   0.0000000   0.0000000
4.1268208    -0.4596340  -0.6195370  -0.0001009   0.0019608   0.0000000   0.0000000   0.0000000   0.0000000
4.1842885    -0.4695113  -0.6049377  -0.0000760   0.0019900   0.0000000   0.0000000   0.0000000   0.0000000
4.2425564    -0.4788054  -0.5905781  -0.0000306   0.0020227   0.0000000   0.0000000   0.0000000   0.0000000
4.3016358    -0.4876342  -0.5757894   0.0000024   0.0020425   0.0000000   0.0000000   0.0000000   0.0000000
4.3615378    -0.4960630  -0.5610537   0.0000402   0.0020645   0.0000000   0.0000000   0.0000000   0.0000000
4.4222740    -0.5039498  -0.5460559   0.0000738   0.0021080   0.0000000   0.0000000   0.0000000   0.0000000
4.4838559    -0.5116159  -0.5308782   0.0001159   0.0021266   0.0000000   0.0000000   0.0000000   0.0000000
4.5462955    -0.5185981  -0.5157059   0.0001288   0.0021490   0.0000000   0.0000000   0.0000000   0.0000000
4.6096045    -0.5251977  -0.5004777   0.0001716   0.0021631   0.0000000   0.0000000   0.0000000   0.0000000
4.6737951    -0.5313669  -0.4852722   0.0002100   0.0022072   0.0000000   0.0000000   0.0000000   0.0000000
4.7388796    -0.5371591  -0.4698514   0.0002572   0.0022150   0.0000000   0.0000000   0.0000000   0.0000000
4.8048704    -0.5422959  -0.4545842   0.0002881   0.0022203   0.0000000   0.0000000   0.0000000   0.0000000
4.8717802    -0.5470834  -0.4391026   0.0003223   0.0022539   0.0000000   0.0000000   0.0000000   0.0000000
4.9396217    -0.5513443  -0.4237002   0.0003707   0.0022804   0.0000000   0.0000000   0.0000000   0.0000000
5.0084080    -0.5551552  -0.4085381   0.0003895   0.0023092   0.0000000   0.0000000   0.0000000   0.0000000
5.0781521    -0.5585898  -0.3932414   0.0004309   0.0023253   0.0000000   0.0000000   0.0000000   0.0000000
5.1488675    -0.5616593  -0.3780009   0.0004750   0.0023466   0.0000000   0.0000000   0.0000000   0.0000000
5.2205675    -0.5642580  -0.3629194   0.0005170   0.0023543   0.0000000   0.0000000   0.0000000   0.0000000
5.2932661    -0.5663905  -0.3479234   0.0005702   0.0023739   0.0000000   0.0000000   0.0000000   0.0000000
5.3669769    -0.5679294  -0.3328655   0.0006056   0.0023901   0.0000000   0.0000000   0.0000000   0.0000000
5.4417143    -0.5692101  -0.3181484   0.0006418   0.0023914   0.0000000   0.0000000   0.0000000   0.0000000
5.5174924    -0.5700573  -0.3035116   0.0006829   0.0024101   0.0000000   0.0000000   0.0000000   0.0000000
5.5943257    -0.5704441  -0.2889876   0.0007285   0.0024205   0.0000000   0.0000000   0.0000000   0.0000000
5.6722290    -0.5705744  -0.2746067   0.0007661   0.0024412   0.0000000   0.0000000   0.0000000   0.0000000
5.7512171    -0.5703349  -0.2604734   0.0008207   0.0024419   0.0000000   0.0000000   0.0000000   0.0000000
5.8313051    -0.5696987  -0.2465706   0.0008622   0.0024550   0.0000000   0.0000000   0.0000000   0.0000000
5.9125084    -0.5687313  -0.2326318   0.0009155   0.0024470   0.0000000   0.0000000   0.0000000   0.0000000
5.9948425    -0.5673853  -0.2191497   0.0009453   0.0024653   0.0000000   0.0000000   0.0000000   0.0000000
6.0783231    -0.5657312  -0.2057774   0.0009809   0.0024711   0.0000000   0.0000000   0.0000000   0.0000000
6.1629663    -0.5637172  -0.1926328   0.0010406   0.0024837   0.0000000   0.0000000   0.0000000   0.0000000
6.2487881    -0.5614179  -0.1796434   0.0010824   0.0024845   0.0000000   0.0000000   0.0000000   0.0000000
6.3358050    -0.5586704  -0.1669210   0.0011327   0.0024925   0.0000000   0.0000000   0.0000000   0.0000000
6.4240337    -0.5558976  -0.1546769   0.0011640   0.0024868   0.0000000   0.0000000   0.0000000   0.0000000
6.5134909    -0.5527773  -0.1424749   0.0011998   0.0024735   0.0000000   0.0000000   0.0000000   0.0000000
6.6041940    -0.5494005  -0.1305442   0.0012530   0.0024721   0.0000000   0.0000000   0.0000000   0.0000000
6.6961601    -0.5456741  -0.1189306   0.0012910   0.0024893   0.0000000   0.0000000   0.0000000   0.0000000
6.7894068    -0.5418530  -0.1074999   0.0013282   0.0024968   0.0000000   0.0000000   0.0000000   0.0000000
6.8839521    -0.5378426  -0.0964051   0.0013799   0.0024834   0.0000000   0.0000000   0.0000000   0.0000000
6.9798139    -0.5333736  -0.0855246   0.0014132   0.0024671   0.0000000   0.0000000   0.0000000   0.0000000
7.0770107    -0.5289139  -0.0749375   0.0014494   0.0024678   0.0000000   0.0000000   0.0000000   0.0000000
7.1755609    -0.5241309  -0.0646301   0.0015181   0.0024759   0.0000000   0.0000000   0.0000000   0.0000000
7.2754835    -0.5193673  -0.0546827   0.0015539   0.0024685   0.0000000   0.0000000   0.0000000   0.0000000
7.3767976    -0.5141763  -0.0450229   0.0015896   0.0024573   0.0000000   0.0000000   0.0000000   0.0000000
7.4795225    -0.5090890  -0.0355140   0.0016200   0.0024678   0.0000000   0.0000000   0.0000000   0.0000000
7.5836779    -0.5038020  -0.0264141   0.0016460   0.0024406   0.0000000   0.0000000   0.0000000   0.0000000
7.6892837    -0.4983989  -0.0175279   0.0017000   0.0024284   0.0000000   0.0000000   0.0000000   0.0000000
7.7963601    -0.4929886  -0.0089389   0.0017340   0.0024346   0.0000000   0.0000000   0.0000000   0.0000000
7.9049276    -0.4873075  -0.0004224   0.0017844   0.0024152   0.0000000   0.0000000   0.0000000   0.0000000
8.0150070    -0.4814882   0.0075032   0.0018255   0.0024115   0.0000000   0.0000000   0.0000000   0.0000000
8.1266192    -0.4756677   0.0153181   0.0018468   0.0024037   0.0000000   0.0000000   0.0000000   0.0000000
8.2397857    -0.4697363   0.0229201   0.0019011   0.0023903   0.0000000   0.0000000   0.0000000   0.0000000
8.3545281    -0.4637306   0.0302851   0.0019361   0.0023732   0.0000000   0.0000000   0.0000000   0.0000000
8.4708683    -0.4577327   0.0372832   0.0019581   0.0023664   0.0000000   0.0000000   0.0000000   0.0000000
8.5888286    -0.4516675   0.0440434   0.0020085   0.0023620   0.0000000   0.0000000   0.0000000   0.0000000
8.7084315    -0.4454607   0.0506054   0.0020378   0.0023308   0.0000000   0.0000000   0.0000000   0.0000000
8.8297000    -0.4392520   0.0567969   0.0020747   0.0023295   0.0000000   0.0000000   0.0000000   0.0000000
8.9526571    -0.4330032   0.0629029   0.0021008   0.0022954   0.0000000   0.0000000   0.0000000   0.0000000
9.0773265    -0.4268011   0.0686012   0.0021446   0.0022930   0.0000000   0.0000000   0.0000000   0.0000000
9.2037320    -0.4205685   0.0741233   0.0021823   0.0022864   0.0000000   0.0000000   0.0000000   0.0000000
9.3318977    -0.4142322   0.0793754   0.0022137   0.0022574   0.0000000   0.0000000   0.0000000   0.0000000
9.4618482    -0.4080745   0.0844894   0.0022362   0.0022403   0.0000000   0.0000000   0.0000000   0.0000000
9.5936083    -0.4017943   0.0893299   0.0022648   0.0022387   0.0000000   0.0000000   0.0000000   0.0000000
9.7272032    -0.3955556   0.0939194   0.0023056   0.0022113   0.0000000   0.0000000   0.0000000   0.0000000
9.8626585    -0.3893207   0.0983641   0.0023354   0.0022058   0.0000000   0.0000000   0.0000000   0.0000000
10.0000000   -0.3831691   0.1025542   0.0023637   0.0021834   0.0000000   0.0000000   0.0000000   0.0000000
10.1392541   -0.3769244   0.1065959   0.0024151   0.0021784   0.0000000   0.0000000   0.0000000   0.0000000
10.2804473   -0.3707812   0.1103723   0.0024241   0.0021490   0.0000000   0.0000000   0.0000000   0.0000000
10.4236067   -0.3646369   0.1139361   0.0024614   0.0021353   0.0000000   0.0000000   0.0000000   0.0000000
10.5687597   -0.3586117   0.1172420   0.0024856   0.0021201   0.0000000   0.0000000   0.0000000   0.0000000
10.7159340   -0.3525591   0.1205045   0.0025203   0.0020915   0.0000000   0.0000000   0.0000000   0.0000000
10.8651577   -0.3465891   0.1235593   0.0025368   0.0020849   0.0000000   0.0000000   0.0000000   0.0000000
11.0164595   -0.3406574   0.1264129   0.0025804   0.0020523   0.0000000   0.0000000   0.0000000   0.0000000
11.1698682   -0.3347197   0.1290783   0.0026082   0.0020361   0.0000000   0.0000000   0.0000000   0.0000000
11.3254132   -0.3289544   0.1316073   0.0026148   0.0020045   0.0000000   0.0000000   0.0000000   0.0000000
11.4831241   -0.3232551   0.1339263   0.0026503   0.0019958   0.0000000   0.0000000   0.0000000   0.0000000
11.6430313   -0.3174515   0.1362158   0.0026820   0.0019837   0.0000000   0.0000000   0.0000000   0.0000000
11.8051653   -0.3118080   0.1381977   0.0027074   0.0019613   0.0000000   0.0000000   0.0000000   0.0000000
11.9695570   -0.3062732   0.1400842   0.0027223   0.0019384   0.0000000   0.0000000   0.0000000   0.0000000
12.1362380   -0.3007854   0.1418527   0.0027495   0.0019261   0.0000000   0.0000000   0.0000000   0.0000000
12.3052400   -0.2952567   0.1435225   0.0027732   0.0019082   0.0000000   0.0000000   0.0000000   0.0000000
12.4765955   -0.2899026   0.1450255   0.0027959   0.0018765   0.0000000   0.0000000   0.0000000   0.0000000
12.6503372   -0.2846588   0.1464039   0.0028139   0.0018590   0.0000000   0.0000000   0.0000000   0.0000000
12.8264983   -0.2793974   0.1476992   0.0028376   0.0018405   0.0000000   0.0000000   0.0000000   0.0000000
13.0051125   -0.2742712   0.1488025   0.0028511   0.0018245   0.0000000   0.0000000   0.0000000   0.0000000
13.1862140   -0.2691729   0.1497799   0.0028808   0.0017926   0.0000000   0.0000000   0.0000000   0.0000000
13.3698374   -0.2641003   0.1506443   0.0029037   0.0017635   0.0000000   0.0000000   0.0000000   0.0000000
13.5560179   -0.2592668   0.1514807   0.0029267   0.0017527   0.0000000   0.0000000   0.0000000   0.0000000
13.7447909   -0.2544044   0.1521817   0.0029528   0.0017453   0.0000000   0.0000000   0.0000000   0.0000000
13.9361927   -0.2495572   0.1527320   0.0029470   0.0017060   0.0000000   0.0000000   0.0000000   0.0000000
14.1302599   -0.2448345   0.1531650   0.0029760   0.0016962   0.0000000   0.0000000   0.0000000   0.0000000
14.3270295   -0.2402217   0.1535825   0.0030004   0.0016713   0.0000000   0.0000000   0.0000000   0.0000000
14.5265393   -0.2357667   0.1539917   0.0030242   0.0016577   0.0000000   0.0000000   0.0000000   0.0000000
14.7288272   -0.2312942   0.1541005   0.0030301   0.0016336   0.0000000   0.0000000   0.0000000   0.0000000
14.9339322   -0.2269683   0.1544443   0.0030421   0.0016031   0.0000000   0.0000000   0.0000000   0.0000000
15.1418933   -0.2224727   0.1544816   0.0030668   0.0015836   0.0000000   0.0000000   0.0000000   0.0000000
15.3527503   -0.2183503   0.1545420   0.0030913   0.0015703   0.0000000   0.0000000   0.0000000   0.0000000
15.5665436   -0.2141581   0.1544329   0.0030958   0.0015518   0.0000000   0.0000000   0.0000000   0.0000000
15.7833141   -0.2101255   0.1542812   0.0031214   0.0015366   0.0000000   0.0000000   0.0000000   0.0000000
16.0031031   -0.2060645   0.1540800   0.0031266   0.0015191   0.0000000   0.0000000   0.0000000   0.0000000
16.2259529   -0.2021789   0.1537783   0.0031362   0.0014842   0.0000000   0.0000000   0.0000000   0.0000000
16.4519059   -0.1983164   0.1535501   0.0031562   0.0014844   0.0000000   0.0000000   0.0000000   0.0000000
16.6810054   -0.1944298   0.1531171   0.0031735   0.0014616   0.0000000   0.0000000   0.0000000   0.0000000
16.9132952   -0.1909375   0.1527070   0.0031831   0.0014314   0.0000000   0.0000000   0.0000000   0.0000000
17.1488197   -0.1870777   0.1522154   0.0031954   0.0014151   0.0000000   0.0000000   0.0000000   0.0000000
17.3876240   -0.1836307   0.1517115   0.0032005   0.0013840   0.0000000   0.0000000   0.0000000   0.0000000
17.6297538   -0.1800616   0.1510780   0.0032174   0.0013678   0.0000000   0.0000000   0.0000000   0.0000000
17.8752553   -0.1766966   0.1505304   0.0032366   0.0013494   0.0000000   0.0000000   0.0000000   0.0000000
18.1241755   -0.1732933   0.1498568   0.0032519   0.0013327   0.0000000   0.0000000   0.0000000   0.0000000
18.3765620   -0.1700035   0.1491393   0.0032782   0.0013096   0.0000000   0.0000000   0.0000000   0.0000000
18.6324631   -0.1667876   0.1484008   0.0032765   0.0012902   0.0000000   0.0000000   0.0000000   0.0000000
18.8919278   -0.1636764   0.1475913   0.0032939   0.0012647   0.0000000   0.0000000   0.0000000   0.0000000
19.1550056   -0.1605304   0.1468139   0.0033095   0.0012479   0.0000000   0.0000000   0.0000000   0.0000000
19.4217468   -0.1576324   0.1459599   0.0033257   0.0012319   0.0000000   0.0000000   0.0000000   0.0000000
19.6922026   -0.1546073   0.1451532   0.0033247   0.0012109   0.0000000   0.0000000   0.0000000   0.0000000
19.9664245   -0.1517230   0.1441651   0.0033377   0.0011975   0.0000000   0.0000000   0.0000000   0.0000000
20.2444651   -0.1488282   0.1432474   0.0033443   0.0011582   0.0000000   0.0000000   0.0000000   0.0000000
20.5263775   -0.1461952   0.1422752   0.0033530   0.0011570   0.0000000   0.0000000   0.0000000   0.0000000
20.8122157   -0.1434460   0.1413037   0.0033529   0.0011323   0.0000000   0.0000000   0.0000000   0.0000000
21.1020343   -0.1407026   0.1403685   0.0033724   0.0011208   0.0000000   0.0000000   0.0000000   0.0000000
21.3958887   -0.1382540   0.1394033   0.0033720   0.0011104   0.0000000   0.0000000   0.0000000   0.0000000
21.6938352   -0.1355943   0.1383920   0.0033944   0.0010715   0.0000000   0.0000000   0.0000000   0.0000000
21.9959307   -0.1332979   0.1373694   0.0033942   0.0010612   0.0000000   0.0000000   0.0000000   0.0000000
22.3022330   -0.1308313   0.1362480   0.0034058   0.0010472   0.0000000   0.0000000   0.0000000   0.0000000
22.6128007   -0.1284098   0.1352000   0.0034237   0.0010058   0.0000000   0.0000000   0.0000000   0.0000000
22.9276931   -0.1260327   0.1342606   0.0034139   0.0010032   0.0000000   0.0000000   0.0000000   0.0000000
23.2469706   -0.1237563   0.1330440   0.0034178   0.0009974   0.0000000   0.0000000   0.0000000   0.0000000
23.5706941   -0.1216265   0.1318688   0.0034456   0.0009752   0.0000000   0.0000000   0.0000000   0.0000000
23.8989257   -0.1194408   0.1308066   0.0034536   0.0009425   0.0000000   0.0000000   0.0000000   0.0000000
24.2317279   -0.1173272   0.1297302   0.0034422   0.0009275   0.0000000   0.0000000   0.0000000   0.0000000
24.5691646   -0.1152732   0.1285883   0.0034670   0.0009207   0.0000000   0.0000000   0.0000000   0.0000000
24.9113003   -0.1132667   0.1274357   0.0034704   0.0008929   0.0000000   0.0000000   0.0000000   0.0000000
25.2582003   -0.1111953   0.1262439   0.0034711   0.0008659   0.0000000   0.0000000   0.0000000   0.0000000
25.6099310   -0.1093424   0.1251758   0.0034761   0.0008546   0.0000000   0.0000000   0.0000000   0.0000000
25.9665597   -0.1074310   0.1238668   0.0034707   0.0008379   0.0000000   0.0000000   0.0000000   0.0000000
26.3281547   -0.1055840   0.1227740   0.0034894   0.0008278   0.0000000   0.0000000   0.0000000   0.0000000
26.6947849   -0.1037907   0.1215908   0.0034958   0.0008123   0.0000000   0.0000000   0.0000000   0.0000000
27.0665207   -0.1021274   0.1204663   0.0035073   0.0008017   0.0000000   0.0000000   0.0000000   0.0000000
27.4434330   -0.1004072   0.1193197   0.0035001   0.0007769   0.0000000   0.0000000   0.0000000   0.0000000
27.8255940   -0.0987956   0.1181638   0.0035153   0.0007440   0.0000000   0.0000000   0.0000000   0.0000000
28.2130768   -0.0971461   0.1169774   0.0035166   0.0007470   0.0000000   0.0000000   0.0000000   0.0000000
28.6059554   -0.0955011   0.1157577   0.0035359   0.0007218   0.0000000   0.0000000   0.0000000   0.0000000
29.0043049   -0.0939412   0.1146948   0.0035141   0.0007087   0.0000000   0.0000000   0.0000000   0.0000000
29.4082017   -0.0924474   0.1135053   0.0035419   0.0006914   0.0000000   0.0000000   0.0000000   0.0000000
29.8177229   -0.0909906   0.1122789   0.0035422   0.0006709   0.0000000   0.0000000   0.0000000   0.0000000
30.2329468   -0.0895676   0.1111016   0.0035448   0.0006614   0.0000000   0.0000000   0.0000000   0.0000000
30.6539530   -0.0880633   0.1099297   0.0035429   0.0006411   0.0000000   0.0000000   0.0000000   0.0000000
31.0808217   -0.0867476   0.1087934   0.0035520   0.0006267   0.0000000   0.0000000   0.0000000   0.0000000
31.5136348   -0.0854353   0.1076177   0.0035571   0.0006195   0.0000000   0.0000000   0.0000000   0.0000000
31.9524751   -0.0841359   0.1064112   0.0035543   0.0005848   0.0000000   0.0000000   0.0000000   0.0000000
32.3974263   -0.0828931   0.1053135   0.0035641   0.0005659   0.0000000   0.0000000   0.0000000   0.0000000
32.8485737   -0.0816838   0.1041616   0.0035677   0.0005716   0.0000000   0.0000000   0.0000000   0.0000000
33.3060034   -0.0804110   0.1030570   0.0035744   0.0005342   0.0000000   0.0000000   0.0000000   0.0000000
33.7698031   -0.0792668   0.1018798   0.0035861   0.0005209   0.0000000   0.0000000   0.0000000   0.0000000
34.2400614   -0.0780703   0.1007677   0.0035847   0.0005114   0.0000000   0.0000000   0.0000000   0.0000000
34.7168682   -0.0769161   0.0996585   0.0035938   0.0005074   0.0000000   0.0000000   0.0000000   0.0000000
35.2003147   -0.0758450   0.0986099   0.0035922   0.0004844   0.0000000   0.0000000   0.0000000   0.0000000
35.6904935   -0.0747210   0.0975008   0.0035931   0.0004719   0.0000000   0.0000000   0.0000000   0.0000000
36.1874981   -0.0737252   0.0963887   0.0036047   0.0004546   0.0000000   0.0000000   0.0000000   0.0000000
36.6914238   -0.0726836   0.0952738   0.0035929   0.0004399   0.0000000   0.0000000   0.0000000   0.0000000
37.2023668   -0.0717616   0.0942235   0.0035978   0.0004146   0.0000000   0.0000000   0.0000000   0.0000000
37.7204249   -0.0707925   0.0931392   0.0036028   0.0003947   0.0000000   0.0000000   0.0000000   0.0000000
38.2456972   -0.0698096   0.0920153   0.0035996   0.0003924   0.0000000   0.0000000   0.0000000   0.0000000
38.7782841   -0.0689002   0.0910227   0.0036160   0.0003755   0.0000000   0.0000000   0.0000000   0.0000000
39.3182876   -0.0679477   0.0899395   0.0036140   0.0003569   0.0000000   0.0000000   0.0000000   0.0000000
39.8658107   -0.0671068   0.0888472   0.0036110   0.0003473   0.0000000   0.0000000   0.0000000   0.0000000
40.4209584   -0.0661791   0.0878432   0.0036173   0.0003209   0.0000000   0.0000000   0.0000000   0.0000000
40.9838367   -0.0654562   0.0868027   0.0036145   0.0003093   0.0000000   0.0000000   0.0000000   0.0000000
41.5545533   -0.0645624   0.0857201   0.0036222   0.0002950   0.0000000   0.0000000   0.0000000   0.0000000
42.1332174   -0.0637358   0.0847997   0.0036186   0.0002709   0.0000000   0.0000000   0.0000000   0.0000000
42.7199397   -0.0630477   0.0837090   0.0036273   0.0002618   0.0000000   0.0000000   0.0000000   0.0000000
43.3148322   -0.0621839   0.0828398   0.0036156   0.0002491   0.0000000   0.0000000   0.0000000   0.0000000
43.9180089   -0.0614892   0.0817668   0.0036166   0.0002338   0.0000000   0.0000000   0.0000000   0.0000000
44.5295851   -0.0606966   0.0807482   0.0036236   0.0002334   0.0000000   0.0000000   0.0000000   0.0000000
45.1496777   -0.0601421   0.0797753   0.0036405   0.0002149   0.0000000   0.0000000   0.0000000   0.0000000
45.7784054   -0.0594624   0.0788409   0.0036220   0.0001940   0.0000000   0.0000000   0.0000000   0.0000000
46.4158883   -0.0586588   0.0778529   0.0036350   0.0001697   0.0000000   0.0000000   0.0000000   0.0000000
47.0622485   -0.0580007   0.0769151   0.0036467   0.0001644   0.0000000   0.0000000   0.0000000   0.0000000
47.7176095   -0.0574191   0.0760600   0.0036387   0.0001494   0.0000000   0.0000000   0.0000000   0.0000000
48.3820966   -0.0567953   0.0750429   0.0036381   0.0001320   0.0000000   0.0000000   0.0000000   0.0000000
49.0558371   -0.0561207   0.0741616   0.0036334   0.0001181   0.0000000   0.0000000   0.0000000   0.0000000
49.7389596   -0.0556035   0.0732772   0.0036431   0.0001066   0.0000000   0.0000000   0.0000000   0.0000000
50.4315949   -0.0549832   0.0722962   0.0036466   0.0000790   0.0000000   0.0000000   0.0000000   0.0000000
51.1338754   -0.0543841   0.0713966   0.0036354   0.0000781   0.0000000   0.0000000   0.0000000   0.0000000
51.8459354   -0.0537629   0.0706282   0.0036578   0.0000598   0.0000000   0.0000000   0.0000000   0.0000000
52.5679112   -0.0532241   0.0697001   0.0036482   0.0000531   0.0000000   0.0000000   0.0000000   0.0000000
53.2999408   -0.0527031   0.0688268   0.0036399   0.0000195   0.0000000   0.0000000   0.0000000   0.0000000
54.0421642   -0.0522160   0.0679053   0.0036401   0.0000196   0.0000000   0.0000000   0.0000000   0.0000000
54.7947234   -0.0517157   0.0671518   0.0036525  -0.0000042   0.0000000   0.0000000   0.0000000   0.0000000
55.5577622   -0.0512219   0.0662509   0.0036633  -0.0000137   0.0000000   0.0000000   0.0000000   0.0000000
56.3314267   -0.0506564   0.0654762   0.0036425  -0.0000414   0.0000000   0.0000000   0.0000000   0.0000000
57.1158648   -0.0502097   0.0645334   0.0036551  -0.0000404   0.0000000   0.0000000   0.0000000   0.0000000
57.9112265   -0.0496968   0.0637339   0.0036439  -0.0000576   0.0000000   0.0000000   0.0000000   0.0000000
58.7176639   -0.0494187   0.0629006   0.0036445  -0.0000746   0.0000000   0.0000000   0.0000000   0.0000000
59.5353313   -0.0489084   0.0621700   0.0036496  -0.0000774   0.0000000   0.0000000   0.0000000   0.0000000
60.3643851   -0.0484034   0.0612391   0.0036392  -0.0001046   0.0000000   0.0000000   0.0000000   0.0000000
61.2049837   -0.0479720   0.0604692   0.0036509  -0.0001216   0.0000000   0.0000000   0.0000000   0.0000000
62.0572881   -0.0475644   0.0596706   0.0036493  -0.0001191   0.0000000   0.0000000   0.0000000   0.0000000
62.9214611   -0.0470732   0.0588950   0.0036535  -0.0001384   0.0000000   0.0000000   0.0000000   0.0000000
63.7976681   -0.0466127   0.0580078   0.0036458  -0.0001729   0.0000000   0.0000000   0.0000000   0.0000000
64.6860766   -0.0464032   0.0572321   0.0036541  -0.0001846   0.0000000   0.0000000   0.0000000   0.0000000
65.5868566   -0.0458646   0.0564464   0.0036488  -0.0001960   0.0000000   0.0000000   0.0000000   0.0000000
66.5001803   -0.0455280   0.0557245   0.0036439  -0.0002164   0.0000000   0.0000000   0.0000000   0.0000000
67.4262224   -0.0451773   0.0549317   0.0036450  -0.0002222   0.0000000   0.0000000   0.0000000   0.0000000
68.3651600   -0.0447623   0.0541885   0.0036428  -0.0002467   0.0000000   0.0000000   0.0000000   0.0000000
69.3171728   -0.0443548   0.0534342   0.0036382  -0.0002526   0.0000000   0.0000000   0.0000000   0.0000000
70.2824426   -0.0440861   0.0525514   0.0036453  -0.0002830   0.0000000   0.0000000   0.0000000   0.0000000
71.2611543   -0.0436921   0.0517681   0.0036312  -0.0002907   0.0000000   0.0000000   0.0000000   0.0000000
72.2534949   -0.0434430   0.0510240   0.0036576  -0.0002932   0.0000000   0.0000000   0.0000000   0.0000000
73.2596543   -0.0430197   0.0503519   0.0036342  -0.0003296   0.0000000   0.0000000   0.0000000   0.0000000
74.2798248   -0.0427073   0.0495647   0.0036451  -0.0003502   0.0000000   0.0000000   0.0000000   0.0000000
75.3142017   -0.0424185   0.0488957   0.0036317  -0.0003534   0.0000000   0.0000000   0.0000000   0.0000000
76.3629826   -0.0421433   0.0480262   0.0036403  -0.0003627   0.0000000   0.0000000   0.0000000   0.0000000
77.4263683   -0.0418962   0.0472662   0.0036316  -0.0003702   0.0000000   0.0000000   0.0000000   0.0000000
78.5045620   -0.0415203   0.0465302   0.0036322  -0.0004003   0.0000000   0.0000000   0.0000000   0.0000000
79.5977700   -0.0412983   0.0458405   0.0036347  -0.0004098   0.0000000   0.0000000   0.0000000   0.0000000
80.7062014   -0.0410196   0.0450689   0.0036360  -0.0004171   0.0000000   0.0000000   0.0000000   0.0000000
81.8300682   -0.0407638   0.0443016   0.0036362  -0.0004634   0.0000000   0.0000000   0.0000000   0.0000000
82.9695852   -0.0405489   0.0435128   0.0036235  -0.0004832   0.0000000   0.0000000   0.0000000   0.0000000
84.1249705   -0.0402905   0.0426988   0.0036398  -0.0004783   0.0000000   0.0000000   0.0000000   0.0000000
85.2964450   -0.0400841   0.0419728   0.0036299  -0.0005160   0.0000000   0.0000000   0.0000000   0.0000000
86.4842328   -0.0399409   0.0413123   0.0036149  -0.0005243   0.0000000   0.0000000   0.0000000   0.0000000
87.6885609   -0.0397456   0.0405816   0.0036255  -0.0005183   0.0000000   0.0000000   0.0000000   0.0000000
88.9096599   -0.0394568   0.0397759   0.0036084  -0.0005423   0.0000000   0.0000000   0.0000000   0.0000000
90.1477631   -0.0393940   0.0390485   0.0036080  -0.0005540   0.0000000   0.0000000   0.0000000   0.0000000
91.4031075   -0.0391683   0.0383121   0.0036010  -0.0005649   0.0000000   0.0000000   0.0000000   0.0000000
92.6759330   -0.0391009   0.0374363   0.0035904  -0.0005979   0.0000000   0.0000000   0.0000000   0.0000000
93.9664831   -0.0390046   0.0368801   0.0036045  -0.0006183   0.0000000   0.0000000   0.0000000   0.0000000
95.2750047   -0.0389130   0.0360041   0.0035922  -0.0006410   0.0000000   0.0000000   0.0000000   0.0000000
96.6017480   -0.0387563   0.0353609   0.0035986  -0.0006471   0.0000000   0.0000000   0.0000000   0.0000000
97.9469667   -0.0386725   0.0345449   0.0035893  -0.0006496   0.0000000   0.0000000   0.0000000   0.0000000
99.3109181   -0.0386170   0.0338952   0.0035993  -0.0006833   0.0000000   0.0000000   0.0000000   0.0000000
100.6938631  -0.0387116   0.0331542   0.0035807  -0.0006899   0.0000000   0.0000000   0.0000000   0.0000000
102.0960662  -0.0386197   0.0324602   0.0035962  -0.0007203   0.0000000   0.0000000   0.0000000   0.0000000
103.5177956  -0.0384871   0.0317274   0.0035808  -0.0007409   0.0000000   0.0000000   0.0000000   0.0000000
104.9593231  -0.0386037   0.0310576   0.0035741  -0.0007668   0.0000000   0.0000000   0.0000000   0.0000000
106.4209244  -0.0387348   0.0304698   0.0035673  -0.0007806   0.0000000   0.0000000   0.0000000   0.0000000
107.9028792  -0.0385991   0.0296455   0.0035703  -0.0007465   0.0000000   0.0000000   0.0000000   0.0000000
109.4054707  -0.0385990   0.0289478   0.0035595  -0.0008076   0.0000000   0.0000000   0.0000000   0.0000000
110.9289865  -0.0387504   0.0283671   0.0035397  -0.0008149   0.0000000   0.0000000   0.0000000   0.0000000
112.4737178  -0.0389214   0.0277119   0.0035517  -0.0008491   0.0000000   0.0000000   0.0000000   0.0000000
114.0399602  -0.0389580   0.0271194   0.0035366  -0.0008512   0.0000000   0.0000000   0.0000000   0.0000000
115.6280131  -0.0390605   0.0265638   0.0035559  -0.0009083   0.0000000   0.0000000   0.0000000   0.0000000
117.2381803  -0.0390433   0.0259554   0.0035302  -0.0009118   0.0000000   0.0000000   0.0000000   0.0000000
118.8707698  -0.0391919   0.0253252   0.0035242  -0.0009076   0.0000000   0.0000000   0.0000000   0.0000000
120.5260937  -0.0394247   0.0247655   0.0035374  -0.0009440   0.0000000   0.0000000   0.0000000   0.0000000
122.2044687  -0.0394298   0.0242479   0.0035190  -0.0009621   0.0000000   0.0000000   0.0000000   0.0000000
123.9062157  -0.0396450   0.0237215   0.0035016  -0.0009901   0.0000000   0.0000000   0.0000000   0.0000000
125.6316602  -0.0397230   0.0230473   0.0035019  -0.0010087   0.0000000   0.0000000   0.0000000   0.0000000
127.3811323  -0.0397925   0.0225593   0.0035046  -0.0009834   0.0000000   0.0000000   0.0000000   0.0000000
129.1549665  -0.0401109   0.0220011   0.0034838  -0.0010593   0.0000000   0.0000000   0.0000000   0.0000000
130.9535020  -0.0401371   0.0216988   0.0034935  -0.0010806   0.0000000   0.0000000   0.0000000   0.0000000
132.7770829  -0.0404512   0.0212879   0.0034929  -0.0010907   0.0000000   0.0000000   0.0000000   0.0000000
134.6260579  -0.0406645   0.0208180   0.0034685  -0.0010678   0.0000000   0.0000000   0.0000000   0.0000000
136.5007807  -0.0406610   0.0203371   0.0034552  -0.0011249   0.0000000   0.0000000   0.0000000   0.0000000
138.4016097  -0.0410300   0.0199916   0.0034658  -0.0011491   0.0000000   0.0000000   0.0000000   0.0000000
140.3289085  -0.0413086   0.0195538   0.0034425  -0.0011732   0.0000000   0.0000000   0.0000000   0.0000000
142.2830457  -0.0412662   0.0192441   0.0034307  -0.0011637   0.0000000   0.0000000   0.0000000   0.0000000
144.2643951  -0.0415610   0.0189782   0.0034538  -0.0011922   0.0000000   0.0000000   0.0000000   0.0000000
146.2733356  -0.0417407   0.0183232   0.0034202  -0.0012135   0.0000000   0.0000000   0.0000000   0.0000000
148.3102514  -0.0418868   0.0181529   0.0034221  -0.0012397   0.0000000   0.0000000   0.0000000   0.0000000
150.3755321  -0.0422005   0.0178516   0.0034075  -0.0012555   0.0000000   0.0000000   0.0000000   0.0000000
152.4695727  -0.0423531   0.0176423   0.0033654  -0.0012776   0.0000000   0.0000000   0.0000000   0.0000000
154.5927736  -0.0425627   0.0173658   0.0033603  -0.0013242   0.0000000   0.0000000   0.0000000   0.0000000
156.7455410  -0.0426559   0.0169414   0.0033891  -0.0013351   0.0000000   0.0000000   0.0000000   0.0000000
158.9282866  -0.0428097   0.0167395   0.0033807  -0.0013477   0.0000000   0.0000000   0.0000000   0.0000000
161.1414277  -0.0432038   0.0166286   0.0033476  -0.0013749   0.0000000   0.0000000   0.0000000   0.0000000
163.3853878  -0.0433112   0.0162091   0.0033071  -0.0013822   0.0000000   0.0000000   0.0000000   0.0000000
165.6605959  -0.0434742   0.0162693   0.0033267  -0.0014382   0.0000000   0.0000000   0.0000000   0.0000000
167.9674872  -0.0432567   0.0159033   0.0033230  -0.0014129   0.0000000   0.0000000   0.0000000   0.0000000
170.3065029  -0.0437331   0.0160373   0.0033002  -0.0014603   0.0000000   0.0000000   0.0000000   0.0000000
172.6780904  -0.0437936   0.0155159   0.0033201  -0.0014968   0.0000000   0.0000000   0.0000000   0.0000000
175.0827032  -0.0439724   0.0156001   0.0032801  -0.0014947   0.0000000   0.0000000   0.0000000   0.0000000
177.5208012  -0.0440891   0.0154068   0.0032717  -0.0015112   0.0000000   0.0000000   0.0000000   0.0000000
179.9928507  -0.0442847   0.0153358   0.0032714  -0.0015528   0.0000000   0.0000000   0.0000000   0.0000000
182.4993245  -0.0443433   0.0149787   0.0032511  -0.0015605   0.0000000   0.0000000   0.0000000   0.0000000
185.0407020  -0.0443092   0.0151815   0.0032037  -0.0016402   0.0000000   0.0000000   0.0000000   0.0000000
187.6174691  -0.0445883   0.0151168   0.0032325  -0.0016335   0.0000000   0.0000000   0.0000000   0.0000000
190.2301189  -0.0442562   0.0149475   0.0032297  -0.0016699   0.0000000   0.0000000   0.0000000   0.0000000
192.8791508  -0.0445108   0.0147026   0.0032016  -0.0017273   0.0000000   0.0000000   0.0000000   0.0000000
195.5650716  -0.0449293   0.0146616   0.0031361  -0.0017355   0.0000000   0.0000000   0.0000000   0.0000000
198.2883949  -0.0446731   0.0146536   0.0031677  -0.0017350   0.0000000   0.0000000   0.0000000   0.0000000
201.0496416  -0.0449028   0.0145584   0.0030390  -0.0017037   0.0000000   0.0000000   0.0000000   0.0000000
203.8493398  -0.0449002   0.0146377   0.0031395  -0.0016779   0.0000000   0.0000000   0.0000000   0.0000000
206.6880250  -0.0448649   0.0147570   0.0030921  -0.0017917   0.0000000   0.0000000   0.0000000   0.0000000
209.5662399  -0.0448902   0.0147451   0.0030755  -0.0017882   0.0000000   0.0000000   0.0000000   0.0000000
212.4845352  -0.0446790   0.0149789   0.0030649  -0.0017545   0.0000000   0.0000000   0.0000000   0.0000000
215.4434690  -0.0453056   0.0150644   0.0030784  -0.0017960   0.0000000   0.0000000   0.0000000   0.0000000
218.4436071  -0.0447985   0.0148902   0.0030231  -0.0018620   0.0000000   0.0000000   0.0000000   0.0000000
221.4855234  -0.0448875   0.0150686   0.0030453  -0.0017790   0.0000000   0.0000000   0.0000000   0.0000000
224.5697996  -0.0448957   0.0152519   0.0030622  -0.0018846   0.0000000   0.0000000   0.0000000   0.0000000
227.6970255  -0.0449667   0.0154263   0.0029574  -0.0019114   0.0000000   0.0000000   0.0000000   0.0000000
230.8677994  -0.0443486   0.0153316   0.0030697  -0.0019755   0.0000000   0.0000000   0.0000000   0.0000000
234.0827276  -0.0447423   0.0157741   0.0029900  -0.0020207   0.0000000   0.0000000   0.0000000   0.0000000
237.3424250  -0.0442806   0.0164526   0.0030719  -0.0020712   0.0000000   0.0000000   0.0000000   0.0000000
240.6475150  -0.0440989   0.0159420   0.0029562  -0.0021050   0.0000000   0.0000000   0.0000000   0.0000000
243.9986297  -0.0438269   0.0165054   0.0030222  -0.0019714   0.0000000   0.0000000   0.0000000   0.0000000
247.3964101  -0.0438044   0.0165150   0.0028626  -0.0019740   0.0000000   0.0000000   0.0000000   0.0000000
250.8415059  -0.0443919   0.0168435   0.0029179  -0.0020049   0.0000000   0.0000000   0.0000000   0.0000000
254.3345761  -0.0434003   0.0176958   0.0027675  -0.0021615   0.0000000   0.0000000   0.0000000   0.0000000
257.8762888  -0.0438469   0.0172430   0.0027690  -0.0019427   0.0000000   0.0000000   0.0000000   0.0000000
261.4673212  -0.0433434   0.0177802   0.0026507  -0.0021434   0.0000000   0.0000000   0.0000000   0.0000000
265.1083602  -0.0446549   0.0186777   0.0027123  -0.0020115   0.0000000   0.0000000   0.0000000   0.0000000
268.8001022  -0.0433877   0.0188737   0.0028600  -0.0023253   0.0000000   0.0000000   0.0000000   0.0000000
272.5432531  -0.0429395   0.0188097   0.0029636  -0.0022315   0.0000000   0.0000000   0.0000000   0.0000000
276.3385290  -0.0427211   0.0198744   0.0026977  -0.0025559   0.0000000   0.0000000   0.0000000   0.0000000
280.1866556  -0.0432172   0.0189710   0.0026134  -0.0021027   0.0000000   0.0000000   0.0000000   0.0000000
284.0883690  -0.0418477   0.0200507   0.0030162  -0.0021761   0.0000000   0.0000000   0.0000000   0.0000000
288.0444153  -0.0414750   0.0184244   0.0023738  -0.0021759   0.0000000   0.0000000   0.0000000   0.0000000
292.0555512  -0.0442149   0.0192452   0.0032633  -0.0025152   0.0000000   0.0000000   0.0000000   0.0000000
296.1225438  -0.0409813   0.0218016   0.0030143  -0.0023747   0.0000000   0.0000000   0.0000000   0.0000000
300.2461709  -0.0457183   0.0252130   0.0018984  -0.0028484   0.0000000   0.0000000   0.0000000   0.0000000
304.4272212  -0.0401882   0.0194855   0.0023864  -0.0029599   0.0000000   0.0000000   0.0000000   0.0000000
308.6664943  -0.0431382   0.0244594   0.0026613  -0.0025245   0.0000000   0.0000000   0.0000000   0.0000000
312.9648011  -0.0337772   0.0230954   0.0016199  -0.0008942   0.0000000   0.0000000   0.0000000   0.0000000
317.3229635  -0.0497404   0.0244694   0.0062714   0.0014128   0.0000000   0.0000000   0.0000000   0.0000000
321.7418151  -0.0687804  -0.0043993   0.0101784  -0.0032597   0.0000000   0.0000000   0.0000000   0.0000000
326.2222010  -0.0366967   0.0889093  -0.0024104   0.0055200   0.0000000   0.0000000   0.0000000   0.0000000
330.7649781  -0.0344475  -0.0101339   0.0026414  -0.0040223   0.0000000   0.0000000   0.0000000   0.0000000
335.3710152  -0.0194968   0.0274594   0.0045275  -0.0074307   0.0000000   0.0000000   0.0000000   0.0000000
340.0411933  -0.0430221   0.0131140   0.0069655  -0.0042572   0.0000000   0.0000000   0.0000000   0.0000000
344.7764055  -0.0358989  -0.0008226   0.0040641  -0.0053581   0.0000000   0.0000000   0.0000000   0.0000000
349.5775574  -0.0222209   0.0259141   0.0036408  -0.0027851   0.0000000   0.0000000   0.0000000   0.0000000
354.4455674  -0.0642345   0.0402629  -0.0037740   0.0040512   0.0000000   0.0000000   0.0000000   0.0000000
359.3813664  -0.0072944   0.0320747  -0.0096781  -0.0042279   0.0000000   0.0000000   0.0000000   0.0000000
364.3858984  -0.0518914   0.0665371   0.0013313  -0.0024034   0.0000000   0.0000000   0.0000000   0.0000000
369.4601205  -0.0129076   0.0181256  -0.0013293   0.0027813   0.0000000   0.0000000   0.0000000   0.0000000
374.6050033  -0.0341764   0.0268456   0.0003610  -0.0043063   0.0000000   0.0000000   0.0000000   0.0000000
379.8215306  -0.0401733   0.0254905   0.0020436  -0.0005641   0.0000000   0.0000000   0.0000000   0.0000000
385.1107002  -0.0379020   0.0215386   0.0026913  -0.0019497   0.0000000   0.0000000   0.0000000   0.0000000
390.4735237  -0.0418860   0.0239301   0.0016409  -0.0030334   0.0000000   0.0000000   0.0000000   0.0000000
395.9110266  -0.0390778   0.0224808   0.0017528  -0.0026846   0.0000000   0.0000000   0.0000000   0.0000000
401.4242490  -0.0420050   0.0234009   0.0020342  -0.0032263   0.0000000   0.0000000   0.0000000   0.0000000
407.0142453  -0.0390624   0.0228033   0.0020308  -0.0041530   0.0000000   0.0000000   0.0000000   0.0000000
412.6820846  -0.0377573   0.0257272   0.0016526  -0.0031433   0.0000000   0.0000000   0.0000000   0.0000000
418.4288508  -0.0386509   0.0249521   0.0014025  -0.0032252   0.0000000   0.0000000   0.0000000   0.0000000
424.2556431  -0.0412249   0.0227652   0.0013463  -0.0031943   0.0000000   0.0000000   0.0000000   0.0000000
430.1635758  -0.0380715   0.0261793   0.0012749  -0.0033790   0.0000000   0.0000000   0.0000000   0.0000000
436.1537789  -0.0395308   0.0232307   0.0016286  -0.0033279   0.0000000   0.0000000   0.0000000   0.0000000
442.2273981  -0.0379758   0.0222637   0.0016028  -0.0030973   0.0000000   0.0000000   0.0000000   0.0000000
448.3855948  -0.0367152   0.0207526   0.0014458  -0.0032751   0.0000000   0.0000000   0.0000000   0.0000000
454.6295470  -0.0387104   0.0215571   0.0015816  -0.0031638   0.0000000   0.0000000   0.0000000   0.0000000
460.9604487  -0.0385494   0.0192486   0.0010866  -0.0031547   0.0000000   0.0000000   0.0000000   0.0000000
467.3795108  -0.0389897   0.0192285   0.0011796  -0.0033430   0.0000000   0.0000000   0.0000000   0.0000000
473.8879610  -0.0378544   0.0186956   0.0011526  -0.0031816   0.0000000   0.0000000   0.0000000   0.0000000
480.4870440  -0.0395176   0.0171300   0.0010549  -0.0034984   0.0000000   0.0000000   0.0000000   0.0000000
487.1780219  -0.0399902   0.0156563   0.0010081  -0.0036475   0.0000000   0.0000000   0.0000000   0.0000000
493.9621744  -0.0375865   0.0154872   0.0008983  -0.0032044   0.0000000   0.0000000   0.0000000   0.0000000
500.8407990  -0.0388900   0.0125264   0.0008520  -0.0034018   0.0000000   0.0000000   0.0000000   0.0000000
507.8152112  -0.0381784   0.0114626   0.0010107  -0.0033548   0.0000000   0.0000000   0.0000000   0.0000000
514.8867450  -0.0355209   0.0107010   0.0010855  -0.0033330   0.0000000   0.0000000   0.0000000   0.0000000
522.0567528  -0.0359875   0.0079378   0.0004081  -0.0034671   0.0000000   0.0000000   0.0000000   0.0000000
529.3266058  -0.0355894   0.0073810   0.0009103  -0.0036938   0.0000000   0.0000000   0.0000000   0.0000000
536.6976946  -0.0336318   0.0072723   0.0009723  -0.0028501   0.0000000   0.0000000   0.0000000   0.0000000
544.1714287  -0.0345318   0.0068533   0.0007597  -0.0041008   0.0000000   0.0000000   0.0000000   0.0000000
551.7492376  -0.0329720   0.0047662   0.0006494  -0.0036559   0.0000000   0.0000000   0.0000000   0.0000000
559.4325706  -0.0362683   0.0047380   0.0005936  -0.0033390   0.0000000   0.0000000   0.0000000   0.0000000
567.2228972  -0.0331691   0.0046303   0.0007493  -0.0035189   0.0000000   0.0000000   0.0000000   0.0000000
575.1217072  -0.0308595   0.0010764   0.0002379  -0.0039190   0.0000000   0.0000000   0.0000000   0.0000000
583.1305114  -0.0283964   0.0037421  -0.0002598  -0.0042980   0.0000000   0.0000000   0.0000000   0.0000000
591.2508414  -0.0261971   0.0031233   0.0003486  -0.0041105   0.0000000   0.0000000   0.0000000   0.0000000
599.4842503  -0.0269933  -0.0008276  -0.0003608  -0.0047336   0.0000000   0.0000000   0.0000000   0.0000000
607.8323128  -0.0315715   0.0016950   0.0006537  -0.0037252   0.0000000   0.0000000   0.0000000   0.0000000
616.2966255  -0.0235664  -0.0049877  -0.0012659  -0.0042272   0.0000000   0.0000000   0.0000000   0.0000000
624.8788072  -0.0236369   0.0054831  -0.0000800  -0.0041708   0.0000000   0.0000000   0.0000000   0.0000000
633.5804993  -0.0323820  -0.0151012   0.0009393   0.0022478   0.0000000   0.0000000   0.0000000   0.0000000
642.4033659  -0.0666045   0.0314825  -0.0050721  -0.0097638   0.0000000   0.0000000   0.0000000   0.0000000
651.3490946  -0.1276672   0.0982850  -0.0218948  -0.0017921   0.0000000   0.0000000   0.0000000   0.0000000
660.4193962  -0.0458185   0.0502237  -0.0036995   0.0035352   0.0000000   0.0000000   0.0000000   0.0000000
669.6160055  -0.0509123  -0.0233930   0.0006088  -0.0004237   0.0000000   0.0000000   0.0000000   0.0000000
678.9406813  -0.0050160   0.0262543  -0.0032274  -0.0077747   0.0000000   0.0000000   0.0000000   0.0000000
688.3952070  -0.0417599   0.0188993  -0.0020597  -0.0000559   0.0000000   0.0000000   0.0000000   0.0000000
697.9813908  -0.0577190   0.0317040   0.0024279  -0.0118477   0.0000000   0.0000000   0.0000000   0.0000000
707.7010661  -0.0566801   0.0548725  -0.0137912   0.0075762   0.0000000   0.0000000   0.0000000   0.0000000
717.5560919  -0.0707342   0.0452036   0.0058915  -0.0328266   0.0000000   0.0000000   0.0000000   0.0000000
727.5483529  -0.0130524   0.1282749  -0.0009089  -0.0037220   0.0000000   0.0000000   0.0000000   0.0000000
737.6797603  -0.0549095   0.0757974  -0.0017647  -0.0066193   0.0000000   0.0000000   0.0000000   0.0000000
747.9522516  -0.0539000   0.0643591  -0.0002115  -0.0041268   0.0000000   0.0000000   0.0000000   0.0000000
758.3677915  -0.0359357   0.0032925  -0.0041402  -0.0007630   0.0000000   0.0000000   0.0000000   0.0000000
768.9283721  -0.0477750   0.0178328  -0.0037778  -0.0036295   0.0000000   0.0000000   0.0000000   0.0000000
779.6360130  -0.0271687   0.0088620  -0.0024241  -0.0025917   0.0000000   0.0000000   0.0000000   0.0000000
790.4927623  -0.0424081   0.0144922  -0.0009407  -0.0021311   0.0000000   0.0000000   0.0000000   0.0000000
801.5006962  -0.0399050  -0.0069823  -0.0027228  -0.0023380   0.0000000   0.0000000   0.0000000   0.0000000
812.6619200  -0.0509016   0.0037789  -0.0032824  -0.0023702   0.0000000   0.0000000   0.0000000   0.0000000
823.9785685  -0.0413809   0.0049060  -0.0022347  -0.0023764   0.0000000   0.0000000   0.0000000   0.0000000
835.4528058  -0.0416633   0.0052775  -0.0020143  -0.0034634   0.0000000   0.0000000   0.0000000   0.0000000
847.0868267  -0.0418565  -0.0023316  -0.0023605  -0.0026313   0.0000000   0.0000000   0.0000000   0.0000000
858.8828560  -0.0493304   0.0047519  -0.0021371  -0.0042989   0.0000000   0.0000000   0.0000000   0.0000000
870.8431498  -0.0441460   0.0160605  -0.0046753  -0.0043044   0.0000000   0.0000000   0.0000000   0.0000000
882.9699955  -0.0516291  -0.0012093  -0.0020438  -0.0056089   0.0000000   0.0000000   0.0000000   0.0000000
895.2657126  -0.0555125  -0.0000287  -0.0036826  -0.0034617   0.0000000   0.0000000   0.0000000   0.0000000
907.7326525  -0.0522562   0.0010744  -0.0017295  -0.0026052   0.0000000   0.0000000   0.0000000   0.0000000
920.3731997  -0.0315131  -0.0201753  -0.0028645  -0.0006872   0.0000000   0.0000000   0.0000000   0.0000000
933.1897716  -0.0400252  -0.0184292  -0.0081119  -0.0009561   0.0000000   0.0000000   0.0000000   0.0000000
946.1848195  -0.0219810   0.0286820  -0.0046967   0.0000429   0.0000000   0.0000000   0.0000000   0.0000000
959.3608287  -0.0276045  -0.0153363  -0.0001471  -0.0041994   0.0000000   0.0000000   0.0000000   0.0000000
972.7203192  -0.1043677   0.0058267  -0.0029777  -0.0120802   0.0000000   0.0000000   0.0000000   0.0000000
986.2658461  -0.0822832  -0.1607541  -0.0005668  -0.0064893   0.0000000   0.0000000   0.0000000   0.0000000
1000.0000000  -0.1395537   0.0687856  -0.0016926  -0.0007877   0.0000000   0.0000000   0.0000000   0.0000000
