! ListType=Log
# MHZ S RI R 50
0.0010000     0.9994234  -0.0000566  -0.0000303  -0.0000008   0.0000000   0.0000000   0.0000000   0.0000000
0.0010139     0.9989522   0.0002577   0.0000783   0.0000471   0.0000000   0.0000000   0.0000000   0.0000000
0.0010280     0.9989323  -0.0009536  -0.0000384   0.0000393   0.0000000   0.0000000   0.0000000   0.0000000
0.0010424     0.9994594   0.0002943   0.0000387  -0.0000129   0.0000000   0.0000000   0.0000000   0.0000000
0.0010569     0.9986358  -0.0009720  -0.0000703   0.0000257   0.0000000   0.0000000   0.0000000   0.0000000
0.0010716     0.9991775  -0.0001845   0.0000384   0.0000335   0.0000000   0.0000000   0.0000000   0.0000000
0.0010865     0.9996499  -0.0007838  -0.0000532  -0.0000407   0.0000000   0.0000000   0.0000000   0.0000000
0.0011016     0.9992903  -0.0002257   0.0000272  -0.0000065   0.0000000   0.0000000   0.0000000   0.0000000
0.0011170     0.9994006   0.0005149   0.0000947   0.0000041   0.0000000   0.0000000   0.0000000   0.0000000
0.0011325     0.9989850  -0.0001386  -0.0000223   0.0000301   0.0000000   0.0000000   0.0000000   0.0000000
0.0011483     0.9992120  -0.0006925  -0.0000620  -0.0000428   0.0000000   0.0000000   0.0000000   0.0000000
0.0011643     0.9994706  -0.0000690   0.0000199   0.0000191   0.0000000   0.0000000   0.0000000   0.0000000
0.0011805     0.9988628  -0.0001792   0.0000038   0.0000352   0.0000000   0.0000000   0.0000000   0.0000000
0.0011970     0.9992337  -0.0009157  -0.0000092   0.0000235   0.0000000   0.0000000   0.0000000   0.0000000
0.0012136     0.9996043   0.0000975   0.0000330   0.0000022   0.0000000   0.0000000   0.0000000   0.0000000
0.0012305     0.9991461  -0.0001207  -0.0000168   0.0000273   0.0000000   0.0000000   0.0000000   0.0000000
0.0012477     0.9993148  -0.0007568  -0.0000515  -0.0000135   0.0000000   0.0000000   0.0000000   0.0000000
0.0012650     0.9996287  -0.0001609   0.0000250  -0.0000060   0.0000000   0.0000000   0.0000000   0.0000000
0.0012826     0.9989143  -0.0001741  -0.0000088   0.0000214   0.0000000   0.0000000   0.0000000   0.0000000
0.0013005     0.9991285  -0.0007141  -0.0000207   0.0000143   0.0000000   0.0000000   0.0000000   0.0000000
0.0013186     0.9995706  -0.0009412  -0.0000353  -0.0000066   0.0000000   0.0000000   0.0000000   0.0000000
0.0013370     0.9991926  -0.0004662  -0.0000138   0.0000029   0.0000000   0.0000000   0.0000000   0.0000000
0.0013556     0.9996004  -0.0000203   0.0000359  -0.0000065   0.0000000   0.0000000   0.0000000   0.0000000
0.0013745     0.9992193  -0.0006091  -0.0000504   0.0000200   0.0000000   0.0000000   0.0000000   0.0000000
0.0013936     0.9993904  -0.0002216   0.0000382   0.0000155   0.0000000   0.0000000   0.0000000   0.0000000
0.0014130     0.9992159  -0.0004556  -0.0000203   0.0000144   0.0000000   0.0000000   0.0000000   0.0000000
0.0014327     0.9995028  -0.0006679  -0.0000019  -0.0000111   0.0000000   0.0000000   0.0000000   0.0000000
0.0014527     0.9994846  -0.0002703   0.0000426   0.0000026   0.0000000   0.0000000   0.0000000   0.0000000
0.0014729     0.9991722  -0.0007317  -0.0000084   0.0000078   0.0000000   0.0000000   0.0000000   0.0000000
0.0014934     0.9993919  -0.0002117   0.0000084   0.0000208   0.0000000   0.0000000   0.0000000   0.0000000
0.0015142     0.9992196  -0.0007748  -0.0000194  -0.0000155   0.0000000   0.0000000   0.0000000   0.0000000
0.0015353     0.9995963  -0.0007483  -0.0000028  -0.0000027   0.0000000   0.0000000   0.0000000   0.0000000
0.0015567     0.9996996  -0.0006729   0.0000265  -0.0000271   0.0000000   0.0000000   0.0000000   0.0000000
0.0015783     0.9992486  -0.0006178  -0.0000013   0.0000423   0.0000000   0.0000000   0.0000000   0.0000000
0.0016003     0.9995798  -0.0009597  -0.0000098   0.0000015   0.0000000   0.0000000   0.0000000   0.0000000
0.0016226     0.9996472  -0.0008935  -0.0000275  -0.0000372   0.0000000   0.0000000   0.0000000   0.0000000
0.0016452     0.9992727  -0.0007453  -0.0000222   0.0000180   0.0000000   0.0000000   0.0000000   0.0000000
0.0016681     0.9995132  -0.0007284  -0.0000318  -0.0000103   0.0000000   0.0000000   0.0000000   0.0000000
0.0016913     0.9997729  -0.0011993  -0.0000072   0.0000108   0.0000000   0.0000000   0.0000000   0.0000000
0.0017149     0.9992668  -0.0006506  -0.0000065  -0.0000093   0.0000000   0.0000000   0.0000000   0.0000000
0.0017388     0.9994070  -0.0008893  -0.0000049   0.0000140   0.0000000   0.0000000   0.0000000   0.0000000
0.0017630     0.9992458  -0.0008983  -0.0000186   0.0000418   0.0000000   0.0000000   0.0000000   0.0000000
0.0017875     0.9993582  -0.0010662  -0.0000267   0.0000021   0.0000000   0.0000000   0.0000000   0.0000000
0.0018124     0.9993391  -0.0006954   0.0000001  -0.0000066   0.0000000   0.0000000   0.0000000   0.0000000
0.0018377     0.9995014  -0.0009674  -0.0000261   0.0000200   0.0000000   0.0000000   0.0000000   0.0000000
0.0018632     0.9992407  -0.0010061  -0.0000079   0.0000434   0.0000000   0.0000000   0.0000000   0.0000000
0.0018892     0.9991938  -0.0011877  -0.0000181  -0.0000057   0.0000000   0.0000000   0.0000000   0.0000000
0.0019155     0.9995812  -0.0008603   0.0000087  -0.0000301   0.0000000   0.0000000   0.0000000   0.0000000
0.0019422     0.9993559  -0.0010585  -0.0000194   0.0000017   0.0000000   0.0000000   0.0000000   0.0000000
0.0019692     0.9992716  -0.0010753   0.0000068  -0.0000071   0.0000000   0.0000000   0.0000000   0.0000000
0.0019966     0.9992824  -0.0012049   0.0000068  -0.0000054   0.0000000   0.0000000   0.0000000   0.0000000
0.0020244     0.9992333  -0.0007289   0.0000020   0.0000090   0.0000000   0.0000000   0.0000000   0.0000000
0.0020526     0.9991875  -0.0013569  -0.0000236  -0.0000042   0.0000000   0.0000000   0.0000000   0.0000000
0.0020812     0.9996305  -0.0011166   0.0000005  -0.0000072   0.0000000   0.0000000   0.0000000   0.0000000
0.0021102     0.9992896  -0.0013357  -0.0000116   0.0000043   0.0000000   0.0000000   0.0000000   0.0000000
0.0021396     0.9992391  -0.0012259  -0.0000014  -0.0000052   0.0000000   0.0000000   0.0000000   0.0000000
0.0021694     0.9995303  -0.0013358  -0.0000069  -0.0000047   0.0000000   0.0000000   0.0000000   0.0000000
0.0021996     0.9996442  -0.0013922  -0.0000159  -0.0000255   0.0000000   0.0000000   0.0000000   0.0000000
0.0022302     0.9997372  -0.0014466   0.0000023  -0.0000119   0.0000000   0.0000000   0.0000000   0.0000000
0.0022613     0.9995209  -0.0014680  -0.0000055  -0.0000183   0.0000000   0.0000000   0.0000000   0.0000000
0.0022928     0.9993392  -0.0012054   0.0000081   0.0000070   0.0000000   0.0000000   0.0000000   0.0000000
0.0023247     0.9989981  -0.0011782  -0.0000059   0.0000076   0.0000000   0.0000000   0.0000000   0.0000000
0.0023571     0.9992583  -0.0016662  -0.0000164  -0.0000102   0.0000000   0.0000000   0.0000000   0.0000000
0.0023899     0.9996467  -0.0014308   0.0000071  -0.0000110   0.0000000   0.0000000   0.0000000   0.0000000
0.0024232     0.9992634  -0.0011955   0.0000049   0.0000122   0.0000000   0.0000000   0.0000000   0.0000000
0.0024569     0.9991555  -0.0015536  -0.0000127   0.0000153   0.0000000   0.0000000   0.0000000   0.0000000
0.0024911     0.9995614  -0.0016595   0.0000005  -0.0000108   0.0000000   0.0000000   0.0000000   0.0000000
0.0025258     0.9993114  -0.0015140   0.0000090   0.0000031   0.0000000   0.0000000   0.0000000   0.0000000
0.0025610     0.9993660  -0.0013906   0.0000224   0.0000140   0.0000000   0.0000000   0.0000000   0.0000000
0.0025967     0.9991775  -0.0016036  -0.0000260   0.0000019   0.0000000   0.0000000   0.0000000   0.0000000
0.0026328     0.9990930  -0.0016306  -0.0000035   0.0000149   0.0000000   0.0000000   0.0000000   0.0000000
0.0026695     0.9991100  -0.0016932  -0.0000057   0.0000197   0.0000000   0.0000000   0.0000000   0.0000000
0.0027067     0.9993634  -0.0016148  -0.0000009  -0.0000021   0.0000000   0.0000000   0.0000000   0.0000000
0.0027443     0.9992958  -0.0016913  -0.0000259   0.0000141   0.0000000   0.0000000   0.0000000   0.0000000
0.0027826     0.9993408  -0.0015105  -0.0000005   0.0000047   0.0000000   0.0000000   0.0000000   0.0000000
0.0028213     0.9992779  -0.0018473  -0.0000192  -0.0000050   0.0000000   0.0000000   0.0000000   0.0000000
0.0028606     0.9993919  -0.0017475  -0.0000023   0.0000122   0.0000000   0.0000000   0.0000000   0.0000000
0.0029004     0.9992586  -0.0015812   0.0000098  -0.0000213   0.0000000   0.0000000   0.0000000   0.0000000
0.0029408     0.9992535  -0.0018422  -0.0000014  -0.0000125   0.0000000   0.0000000   0.0000000   0.0000000
0.0029818     0.9993230  -0.0017634   0.0000070   0.0000040   0.0000000   0.0000000   0.0000000   0.0000000
0.0030233     0.9992217  -0.0021052  -0.0000173   0.0000113   0.0000000   0.0000000   0.0000000   0.0000000
0.0030654     0.9992103  -0.0022333  -0.0000078   0.0000099   0.0000000   0.0000000   0.0000000   0.0000000
0.0031081     0.9992020  -0.0020061   0.0000110   0.0000031   0.0000000   0.0000000   0.0000000   0.0000000
0.0031514     0.9991980  -0.0021147  -0.0000223   0.0000009   0.0000000   0.0000000   0.0000000   0.0000000
0.0031952     0.9993408  -0.0018380   0.0000048   0.0000108   0.0000000   0.0000000   0.0000000   0.0000000
0.0032397     0.9992998  -0.0020676  -0.0000058   0.0000009   0.0000000   0.0000000   0.0000000   0.0000000
0.0032849     0.9993129  -0.0019584   0.0000171  -0.0000079   0.0000000   0.0000000   0.0000000   0.0000000
0.0033306     0.9991979  -0.0019707   0.0000040  -0.0000056   0.0000000   0.0000000   0.0000000   0.0000000
0.0033770     0.9993517  -0.0020201  -0.0000162   0.0000247   0.0000000   0.0000000   0.0000000   0.0000000
0.0034240     0.9994098  -0.0019150   0.0000121   0.0000042   0.0000000   0.0000000   0.0000000   0.0000000
0.0034717     0.9992828  -0.0023403   0.0000036   0.0000153   0.0000000   0.0000000   0.0000000   0.0000000
0.0035200     0.9992092  -0.0022351   0.0000037   0.0000038   0.0000000   0.0000000   0.0000000   0.0000000
0.0035690     0.9992002  -0.0022090  -0.0000184   0.0000207   0.0000000   0.0000000   0.0000000   0.0000000
0.0036187     0.9993014  -0.0021979  -0.0000061  -0.0000149   0.0000000   0.0000000   0.0000000   0.0000000
0.0036691     0.9993269  -0.0020074  -0.0000052   0.0000075   0.0000000   0.0000000   0.0000000   0.0000000
0.0037202     0.9993808  -0.0023431   0.0000226   0.0000092   0.0000000   0.0000000   0.0000000   0.0000000
0.0037720     0.9993545  -0.0024434   0.0000148   0.0000145   0.0000000   0.0000000   0.0000000   0.0000000
0.0038246     0.9991568  -0.0023146   0.0000027  -0.0000049   0.0000000   0.0000000   0.0000000   0.0000000
0.0038778     0.9991701  -0.0024149  -0.0000033  -0.0000037   0.0000000   0.0000000   0.0000000   0.0000000
0.0039318     0.9994861  -0.0023948   0.0000085   0.0000097   0.0000000   0.0000000   0.0000000   0.0000000
0.0039866     0.9992909  -0.0023225  -0.0000067  -0.0000069   0.0000000   0.0000000   0.0000000   0.0000000
0.0040421     0.9990927  -0.0025221  -0.0000091  -0.0000022   0.0000000   0.0000000   0.0000000   0.0000000
0.0040984     0.9992411  -0.0025864  -0.0000022   0.0000228   0.0000000   0.0000000   0.0000000   0.0000000
0.0041555     0.9991511  -0.0028687  -0.0000075   0.0000106   0.0000000   0.0000000   0.0000000   0.0000000
0.0042133     0.9992624  -0.0027388  -0.0000007   0.0000000   0.0000000   0.0000000   0.0000000   0.0000000
0.0042720     0.9992086  -0.0026762  -0.0000034   0.0000131   0.0000000   0.0000000   0.0000000   0.0000000
0.0043315     0.9992943  -0.0025450   0.0000033  -0.0000101   0.0000000   0.0000000   0.0000000   0.0000000
0.0043918     0.9991729  -0.0025909  -0.0000048  -0.0000032   0.0000000   0.0000000   0.0000000   0.0000000
0.0044530     0.9991532  -0.0030701  -0.0000081  -0.0000017   0.0000000   0.0000000   0.0000000   0.0000000
0.0045150     0.9992721  -0.0029282  -0.0000262  -0.0000111   0.0000000   0.0000000   0.0000000   0.0000000
0.0045778     0.9991799  -0.0028888   0.0000137  -0.0000175   0.0000000   0.0000000   0.0000000   0.0000000
0.0046416     0.9991924  -0.0030371  -0.0000203   0.0000051   0.0000000   0.0000000   0.0000000   0.0000000
0.0047062     0.9992071  -0.0030385   0.0000096  -0.0000004   0.0000000   0.0000000   0.0000000   0.0000000
0.0047718     0.9990847  -0.0031353  -0.0000016   0.0000144   0.0000000   0.0000000   0.0000000   0.0000000
0.0048382     0.9992498  -0.0029153  -0.0000141   0.0000166   0.0000000   0.0000000   0.0000000   0.0000000
0.0049056     0.9993155  -0.0030245  -0.0000010   0.0000015   0.0000000   0.0000000   0.0000000   0.0000000
0.0049739     0.9992108  -0.0030071  -0.0000051   0.0000018   0.0000000   0.0000000   0.0000000   0.0000000
0.0050432     0.9992993  -0.0033755   0.0000062  -0.0000075   0.0000000   0.0000000   0.0000000   0.0000000
0.0051134     0.9991514  -0.0033206   0.0000192   0.0000020   0.0000000   0.0000000   0.0000000   0.0000000
0.0051846     0.9992603  -0.0033301   0.0000100   0.0000009   0.0000000   0.0000000   0.0000000   0.0000000
0.0052568     0.9992453  -0.0033978   0.0000050   0.0000184   0.0000000   0.0000000   0.0000000   0.0000000
0.0053300     0.9992588  -0.0034613  -0.0000026  -0.0000084   0.0000000   0.0000000   0.0000000   0.0000000
0.0054042     0.9992070  -0.0034176  -0.0000103  -0.0000005   0.0000000   0.0000000   0.0000000   0.0000000
0.0054795     0.9990659  -0.0035435  -0.0000009  -0.0000026   0.0000000   0.0000000   0.0000000   0.0000000
0.0055558     0.9992889  -0.0036170  -0.0000014  -0.0000053   0.0000000   0.0000000   0.0000000   0.0000000
0.0056331     0.9992995  -0.0036368  -0.0000003  -0.0000125   0.0000000   0.0000000   0.0000000   0.0000000
0.0057116     0.9993330  -0.0036282  -0.0000155   0.0000260   0.0000000   0.0000000   0.0000000   0.0000000
0.0057911     0.9992487  -0.0036081  -0.0000068   0.0000065   0.0000000   0.0000000   0.0000000   0.0000000
0.0058718     0.9991751  -0.0036792   0.0000087  -0.0000015   0.0000000   0.0000000   0.0000000   0.0000000
0.0059535     0.9992565  -0.0038163   0.0000030  -0.0000044   0.0000000   0.0000000   0.0000000   0.0000000
0.0060364     0.9992403  -0.0039181   0.0000107  -0.0000016   0.0000000   0.0000000   0.0000000   0.0000000
0.0061205     0.9991621  -0.0039290  -0.0000180  -0.0000015   0.0000000   0.0000000   0.0000000   0.0000000
0.0062057     0.9989921  -0.0038410   0.0000009   0.0000204   0.0000000   0.0000000   0.0000000   0.0000000
0.0062921     0.9991196  -0.0039463  -0.0000107  -0.0000009   0.0000000   0.0000000   0.0000000   0.0000000
0.0063798     0.9991053  -0.0040902  -0.0000044  -0.0000017   0.0000000   0.0000000   0.0000000   0.0000000
0.0064686     0.9992752  -0.0040140  -0.0000051   0.0000025   0.0000000   0.0000000   0.0000000   0.0000000
0.0065587     0.9992311  -0.0041540  -0.0000072   0.0000026   0.0000000   0.0000000   0.0000000   0.0000000
0.0066500     0.9992595  -0.0042900  -0.0000001   0.0000167   0.0000000   0.0000000   0.0000000   0.0000000
0.0067426     0.9990480  -0.0041743  -0.0000093   0.0000112   0.0000000   0.0000000   0.0000000   0.0000000
0.0068365     0.9988369  -0.0043595  -0.0000137  -0.0000033   0.0000000   0.0000000   0.0000000   0.0000000
0.0069317     0.9990417  -0.0043054  -0.0000045   0.0000045   0.0000000   0.0000000   0.0000000   0.0000000
0.0070282     0.9990143  -0.0044926  -0.0000141   0.0000012   0.0000000   0.0000000   0.0000000   0.0000000
0.0071261     0.9991737  -0.0045759   0.0000021   0.0000012   0.0000000   0.0000000   0.0000000   0.0000000
0.0072253     0.9990799  -0.0045912  -0.0000166   0.0000033   0.0000000   0.0000000   0.0000000   0.0000000
0.0073260     0.9991890  -0.0046852   0.0000100   0.0000016   0.0000000   0.0000000   0.0000000   0.0000000
0.0074280     0.9990457  -0.0047434   0.0000161   0.0000034   0.0000000   0.0000000   0.0000000   0.0000000
0.0075314     0.9989947  -0.0047879  -0.0000024   0.0000049   0.0000000   0.0000000   0.0000000   0.0000000
0.0076363     0.9990104  -0.0048199  -0.0000137  -0.0000055   0.0000000   0.0000000   0.0000000   0.0000000
0.0077426     0.9990488  -0.0047789   0.0000096   0.0000125   0.0000000   0.0000000   0.0000000   0.0000000
0.0078505     0.9991215  -0.0050117  -0.0000029   0.0000017   0.0000000   0.0000000   0.0000000   0.0000000
0.0079598     0.9991104  -0.0049543  -0.0000101   0.0000116   0.0000000   0.0000000   0.0000000   0.0000000
0.0080706     0.9991864  -0.0050305  -0.0000065   0.0000019   0.0000000   0.0000000   0.0000000   0.0000000
0.0081830     0.9990843  -0.0052608  -0.0000077   0.0000063   0.0000000   0.0000000   0.0000000   0.0000000
0.0082970     0.9991890  -0.0053041   0.0000131   0.0000044   0.0000000   0.0000000   0.0000000   0.0000000
0.0084125     0.9992558  -0.0053440  -0.0000162   0.0000055   0.0000000   0.0000000   0.0000000   0.0000000
0.0085296     0.9990562  -0.0054246  -0.0000092  -0.0000045   0.0000000   0.0000000   0.0000000   0.0000000
0.0086484     0.9991680  -0.0054432   0.0000084  -0.0000134   0.0000000   0.0000000   0.0000000   0.0000000
0.0087689     0.9990456  -0.0055621  -0.0000128  -0.0000046   0.0000000   0.0000000   0.0000000   0.0000000
0.0088910     0.9990401  -0.0056118  -0.0000014  -0.0000076   0.0000000   0.0000000   0.0000000   0.0000000
0.0090148     0.9991509  -0.0057300  -0.0000085   0.0000052   0.0000000   0.0000000   0.0000000   0.0000000
0.0091403     0.9991080  -0.0058059  -0.0000042  -0.0000095   0.0000000   0.0000000   0.0000000   0.0000000
0.0092676     0.9990653  -0.0058679  -0.0000057   0.0000069   0.0000000   0.0000000   0.0000000   0.0000000
0.0093966     0.9990892  -0.0059542  -0.0000139   0.0000012   0.0000000   0.0000000   0.0000000   0.0000000
0.0095275     0.9990583  -0.0060347  -0.0000117   0.0000010   0.0000000   0.0000000   0.0000000   0.0000000
0.0096602     0.9991061  -0.0060464  -0.0000130  -0.0000063   0.0000000   0.0000000   0.0000000   0.0000000
0.0097947     0.9990956  -0.0061399  -0.0000020  -0.0000161   0.0000000   0.0000000   0.0000000   0.0000000
0.0099311     0.9991370  -0.0063100  -0.0000044  -0.0000042   0.0000000   0.0000000   0.0000000   0.0000000
0.0100694     0.9992318  -0.0063781  -0.0000010   0.0000063   0.0000000   0.0000000   0.0000000   0.0000000
0.0102096     0.9990015  -0.0063897   0.0000137  -0.0000044   0.0000000   0.0000000   0.0000000   0.0000000
0.0103518     0.9990211  -0.0065022  -0.0000081   0.0000095   0.0000000   0.0000000   0.0000000   0.0000000
0.0104959     0.9990690  -0.0066660   0.0000080  -0.0000036   0.0000000   0.0000000   0.0000000   0.0000000
0.0106421     0.9990533  -0.0067452  -0.0000017   0.0000026   0.0000000   0.0000000   0.0000000   0.0000000
0.0107903     0.9989236  -0.0068892  -0.0000008  -0.0000099   0.0000000   0.0000000   0.0000000   0.0000000
0.0109405     0.9991139  -0.0069103  -0.0000176  -0.0000054   0.0000000   0.0000000   0.0000000   0.0000000
0.0110929     0.9989956  -0.0070405  -0.0000090   0.0000169   0.0000000   0.0000000   0.0000000   0.0000000
0.0112474     0.9990831  -0.0070397   0.0000059  -0.0000094   0.0000000   0.0000000   0.0000000   0.0000000
0.0114040     0.9991641  -0.0072339  -0.0000016  -0.0000175   0.0000000   0.0000000   0.0000000   0.0000000
0.0115628     0.9990881  -0.0072948   0.0000077   0.0000053   0.0000000   0.0000000   0.0000000   0.0000000
0.0117238     0.9989657  -0.0074604  -0.0000066   0.0000063   0.0000000   0.0000000   0.0000000   0.0000000
0.0118871     0.9993421  -0.0076492   0.0000077  -0.0000097   0.0000000   0.0000000   0.0000000   0.0000000
0.0120526     0.9973048  -0.0053469   0.0000035  -0.0000166   0.0000000   0.0000000   0.0000000   0.0000000
0.0122204     0.9991059  -0.0075105  -0.0000078   0.0000003   0.0000000   0.0000000   0.0000000   0.0000000
0.0123906     0.9989313  -0.0078866  -0.0000137   0.0000003   0.0000000   0.0000000   0.0000000   0.0000000
0.0125632     0.9989438  -0.0078601   0.0000066  -0.0000040   0.0000000   0.0000000   0.0000000   0.0000000
0.0127381     0.9990061  -0.0080120   0.0000151  -0.0000004   0.0000000   0.0000000   0.0000000   0.0000000
0.0129155     0.9991519  -0.0081870  -0.0000053   0.0000077   0.0000000   0.0000000   0.0000000   0.0000000
0.0130954     0.9990210  -0.0083179   0.0000041  -0.0000109   0.0000000   0.0000000   0.0000000   0.0000000
0.0132777     0.9990388  -0.0083304  -0.0000164  -0.0000175   0.0000000   0.0000000   0.0000000   0.0000000
0.0134626     0.9989958  -0.0085464  -0.0000064   0.0000066   0.0000000   0.0000000   0.0000000   0.0000000
0.0136501     0.9989134  -0.0085721   0.0000041   0.0000005   0.0000000   0.0000000   0.0000000   0.0000000
0.0138402     0.9990153  -0.0086873  -0.0000212  -0.0000064   0.0000000   0.0000000   0.0000000   0.0000000
0.0140329     0.9990198  -0.0088501  -0.0000073  -0.0000015   0.0000000   0.0000000   0.0000000   0.0000000
0.0142283     0.9990660  -0.0089362  -0.0000121  -0.0000114   0.0000000   0.0000000   0.0000000   0.0000000
0.0144264     0.9991439  -0.0092469  -0.0000226  -0.0000013   0.0000000   0.0000000   0.0000000   0.0000000
0.0146273     0.9989541  -0.0093522  -0.0000084   0.0000176   0.0000000   0.0000000   0.0000000   0.0000000
0.0148310     0.9989119  -0.0094307   0.0000093  -0.0000057   0.0000000   0.0000000   0.0000000   0.0000000
0.0150376     0.9989768  -0.0095013   0.0000026  -0.0000122   0.0000000   0.0000000   0.0000000   0.0000000
0.0152470     0.9990169  -0.0096467  -0.0000029  -0.0000222   0.0000000   0.0000000   0.0000000   0.0000000
0.0154593     0.9989239  -0.0097634  -0.0000077  -0.0000101   0.0000000   0.0000000   0.0000000   0.0000000
0.0156746     0.9989361  -0.0099149  -0.0000094   0.0000063   0.0000000   0.0000000   0.0000000   0.0000000
0.0158928     0.9989216  -0.0100242   0.0000019  -0.0000056   0.0000000   0.0000000   0.0000000   0.0000000
0.0161141     0.9989206  -0.0102309   0.0000033  -0.0000208   0.0000000   0.0000000   0.0000000   0.0000000
0.0163385     0.9989663  -0.0102739  -0.0000006   0.0000080   0.0000000   0.0000000   0.0000000   0.0000000
0.0165661     0.9988340  -0.0105077  -0.0000006   0.0000004   0.0000000   0.0000000   0.0000000   0.0000000
0.0167967     0.9990287  -0.0106279  -0.0000034   0.0000019   0.0000000   0.0000000   0.0000000   0.0000000
0.0170307     0.9990372  -0.0107543   0.0000089  -0.0000115   0.0000000   0.0000000   0.0000000   0.0000000
0.0172678     0.9988257  -0.0109785  -0.0000012   0.0000010   0.0000000   0.0000000   0.0000000   0.0000000
0.0175083     0.9988962  -0.0109459   0.0000017  -0.0000151   0.0000000   0.0000000   0.0000000   0.0000000
0.0177521     0.9988259  -0.0112071  -0.0000122   0.0000076   0.0000000   0.0000000   0.0000000   0.0000000
0.0179993     0.9988517  -0.0112887  -0.0000031  -0.0000013   0.0000000   0.0000000   0.0000000   0.0000000
0.0182499     0.9988758  -0.0116176   0.0000111  -0.0000062   0.0000000   0.0000000   0.0000000   0.0000000
0.0185041     0.9989088  -0.0116027  -0.0000002   0.0000016   0.0000000   0.0000000   0.0000000   0.0000000
0.0187617     0.9989444  -0.0118922  -0.0000036  -0.0000014   0.0000000   0.0000000   0.0000000   0.0000000
0.0190230     0.9988509  -0.0120357   0.0000098   0.0000023   0.0000000   0.0000000   0.0000000   0.0000000
0.0192879     0.9988613  -0.0120652  -0.0000014  -0.0000114   0.0000000   0.0000000   0.0000000   0.0000000
0.0195565     0.9988746  -0.0122542   0.0000214   0.0000028   0.0000000   0.0000000   0.0000000   0.0000000
0.0198288     0.9988926  -0.0124183  -0.0000187   0.0000026   0.0000000   0.0000000   0.0000000   0.0000000
0.0201050     0.9986747  -0.0126800  -0.0000012  -0.0000294   0.0000000   0.0000000   0.0000000   0.0000000
0.0203849     0.9988220  -0.0128854   0.0000025  -0.0000042   0.0000000   0.0000000   0.0000000   0.0000000
0.0206688     0.9987269  -0.0129882   0.0000015  -0.0000143   0.0000000   0.0000000   0.0000000   0.0000000
0.0209566     0.9986701  -0.0133120   0.0000061   0.0000021   0.0000000   0.0000000   0.0000000   0.0000000
0.0212485     0.9987445  -0.0134606  -0.0000113   0.0000123   0.0000000   0.0000000   0.0000000   0.0000000
0.0215443     0.9988820  -0.0136899   0.0000106  -0.0000017   0.0000000   0.0000000   0.0000000   0.0000000
0.0218444     0.9986438  -0.0137992  -0.0000093   0.0000102   0.0000000   0.0000000   0.0000000   0.0000000
0.0221486     0.9987060  -0.0139977   0.0000011  -0.0000091   0.0000000   0.0000000   0.0000000   0.0000000
0.0224570     0.9987729  -0.0141504  -0.0000051  -0.0000106   0.0000000   0.0000000   0.0000000   0.0000000
0.0227697     0.9988071  -0.0144903   0.0000031  -0.0000004   0.0000000   0.0000000   0.0000000   0.0000000
0.0230868     0.9988161  -0.0145933  -0.0000077  -0.0000030   0.0000000   0.0000000   0.0000000   0.0000000
0.0234083     0.9987614  -0.0147448   0.0000207  -0.0000080   0.0000000   0.0000000   0.0000000   0.0000000
0.0237342     0.9986820  -0.0150363   0.0000039  -0.0000004   0.0000000   0.0000000   0.0000000   0.0000000
0.0240648     0.9987138  -0.0152118   0.0000004  -0.0000029   0.0000000   0.0000000   0.0000000   0.0000000
0.0243999     0.9986714  -0.0155020   0.0000116  -0.0000040   0.0000000   0.0000000   0.0000000   0.0000000
0.0247396     0.9986978  -0.0156074   0.0000132  -0.0000151   0.0000000   0.0000000   0.0000000   0.0000000
0.0250842     0.9986844  -0.0157866   0.0000003  -0.0000072   0.0000000   0.0000000   0.0000000   0.0000000
0.0254335     0.9985506  -0.0161825   0.0000014   0.0000175   0.0000000   0.0000000   0.0000000   0.0000000
0.0257876     0.9985969  -0.0162313  -0.0000103  -0.0000105   0.0000000   0.0000000   0.0000000   0.0000000
0.0261467     0.9986481  -0.0165268   0.0000145   0.0000071   0.0000000   0.0000000   0.0000000   0.0000000
0.0265108     0.9986684  -0.0167651  -0.0000008  -0.0000110   0.0000000   0.0000000   0.0000000   0.0000000
0.0268800     0.9986411  -0.0169944  -0.0000028  -0.0000260   0.0000000   0.0000000   0.0000000   0.0000000
0.0272543     0.9986056  -0.0172219   0.0000127   0.0000067   0.0000000   0.0000000   0.0000000   0.0000000
0.0276339     0.9985346  -0.0173593  -0.0000103  -0.0000038   0.0000000   0.0000000   0.0000000   0.0000000
0.0280187     0.9984749  -0.0176845   0.0000130  -0.0000012   0.0000000   0.0000000   0.0000000   0.0000000
0.0284088     0.9985693  -0.0178327  -0.0000037  -0.0000044   0.0000000   0.0000000   0.0000000   0.0000000
0.0288044     0.9984764  -0.0182511  -0.0000003  -0.0000172   0.0000000   0.0000000   0.0000000   0.0000000
0.0292056     0.9984723  -0.0183344   0.0000010  -0.0000002   0.0000000   0.0000000   0.0000000   0.0000000
0.0296123     0.9984701  -0.0186374   0.0000037  -0.0000100   0.0000000   0.0000000   0.0000000   0.0000000
0.0300246     0.9983488  -0.0189376   0.0000111  -0.0000084   0.0000000   0.0000000   0.0000000   0.0000000
0.0304427     0.9983183  -0.0192926  -0.0000001  -0.0000008   0.0000000   0.0000000   0.0000000   0.0000000
0.0308666     0.9983887  -0.0193766   0.0000055  -0.0000144   0.0000000   0.0000000   0.0000000   0.0000000
0.0312965     0.9983384  -0.0196336   0.0000135  -0.0000144   0.0000000   0.0000000   0.0000000   0.0000000
0.0317323     0.9983548  -0.0200907  -0.0000064  -0.0000084   0.0000000   0.0000000   0.0000000   0.0000000
0.0321742     0.9983108  -0.0202744   0.0000152  -0.0000093   0.0000000   0.0000000   0.0000000   0.0000000
0.0326222     0.9982082  -0.0205872  -0.0000016  -0.0000218   0.0000000   0.0000000   0.0000000   0.0000000
0.0330765     0.9983108  -0.0208187  -0.0000066  -0.0000257   0.0000000   0.0000000   0.0000000   0.0000000
0.0335371     0.9981591  -0.0212455  -0.0000042  -0.0000130   0.0000000   0.0000000   0.0000000   0.0000000
0.0340041     0.9980693  -0.0214924   0.0000078  -0.0000062   0.0000000   0.0000000   0.0000000   0.0000000
0.0344776     0.9981959  -0.0218019  -0.0000042  -0.0000083   0.0000000   0.0000000   0.0000000   0.0000000
0.0349578     0.9981595  -0.0221231   0.0000051  -0.0000031   0.0000000   0.0000000   0.0000000   0.0000000
0.0354446     0.9980774  -0.0223543  -0.0000057  -0.0000213   0.0000000   0.0000000   0.0000000   0.0000000
0.0359381     0.9980035  -0.0225437   0.0000021  -0.0000076   0.0000000   0.0000000   0.0000000   0.0000000
0.0364386     0.9980838  -0.0230790   0.0000112  -0.0000126   0.0000000   0.0000000   0.0000000   0.0000000
0.0369460     0.9980222  -0.0232552   0.0000064   0.0000016   0.0000000   0.0000000   0.0000000   0.0000000
0.0374605     0.9979924  -0.0236022   0.0000025  -0.0000245   0.0000000   0.0000000   0.0000000   0.0000000
0.0379822     0.9980501  -0.0240565   0.0000029  -0.0000160   0.0000000   0.0000000   0.0000000   0.0000000
0.0385111     0.9978503  -0.0243471  -0.0000004  -0.0000185   0.0000000   0.0000000   0.0000000   0.0000000
0.0390474     0.9977496  -0.0246846   0.0000214  -0.0000155   0.0000000   0.0000000   0.0000000   0.0000000
0.0395911     0.9978111  -0.0248866   0.0000059  -0.0000133   0.0000000   0.0000000   0.0000000   0.0000000
0.0401424     0.9978422  -0.0253289  -0.0000116  -0.0000046   0.0000000   0.0000000   0.0000000   0.0000000
0.0407014     0.9977781  -0.0256637   0.0000080  -0.0000175   0.0000000   0.0000000   0.0000000   0.0000000
0.0412682     0.9976797  -0.0260392  -0.0000073  -0.0000214   0.0000000   0.0000000   0.0000000   0.0000000
0.0418429     0.9977322  -0.0263527  -0.0000039  -0.0000100   0.0000000   0.0000000   0.0000000   0.0000000
0.0424256     0.9975741  -0.0267077   0.0000046  -0.0000148   0.0000000   0.0000000   0.0000000   0.0000000
0.0430164     0.9975407  -0.0271354   0.0000027  -0.0000099   0.0000000   0.0000000   0.0000000   0.0000000
0.0436154     0.9975442  -0.0274885   0.0000111  -0.0000178   0.0000000   0.0000000   0.0000000   0.0000000
0.0442227     0.9974987  -0.0278851   0.0000190  -0.0000182   0.0000000   0.0000000   0.0000000   0.0000000
0.0448386     0.9973278  -0.0282389   0.0000008  -0.0000189   0.0000000   0.0000000   0.0000000   0.0000000
0.0454630     0.9973303  -0.0286412   0.0000259  -0.0000219   0.0000000   0.0000000   0.0000000   0.0000000
0.0460960     0.9973069  -0.0290303   0.0000034  -0.0000135   0.0000000   0.0000000   0.0000000   0.0000000
0.0467380     0.9973108  -0.0293821   0.0000023  -0.0000173   0.0000000   0.0000000   0.0000000   0.0000000
0.0473888     0.9972641  -0.0298922   0.0000057  -0.0000169   0.0000000   0.0000000   0.0000000   0.0000000
0.0480487     0.9971726  -0.0302966   0.0000119  -0.0000140   0.0000000   0.0000000   0.0000000   0.0000000
0.0487178     0.9970613  -0.0306372   0.0000084  -0.0000345   0.0000000   0.0000000   0.0000000   0.0000000
0.0493962     0.9970666  -0.0310375   0.0000074  -0.0000190   0.0000000   0.0000000   0.0000000   0.0000000
0.0500841     0.9969509  -0.0314509   0.0000169  -0.0000295   0.0000000   0.0000000   0.0000000   0.0000000
0.0507815     0.9969525  -0.0320297   0.0000056  -0.0000146   0.0000000   0.0000000   0.0000000   0.0000000
0.0514887     0.9969220  -0.0323845   0.0000150  -0.0000148   0.0000000   0.0000000   0.0000000   0.0000000
0.0522057     0.9967657  -0.0328835   0.0000028  -0.0000223   0.0000000   0.0000000   0.0000000   0.0000000
0.0529327     0.9967281  -0.0333288   0.0000157  -0.0000192   0.0000000   0.0000000   0.0000000   0.0000000
0.0536698     0.9967150  -0.0338204   0.0000026  -0.0000240   0.0000000   0.0000000   0.0000000   0.0000000
0.0544171     0.9966499  -0.0341436   0.0000164  -0.0000106   0.0000000   0.0000000   0.0000000   0.0000000
0.0551749     0.9965264  -0.0347916   0.0000035  -0.0000207   0.0000000   0.0000000   0.0000000   0.0000000
0.0559433     0.9965465  -0.0351789   0.0000118  -0.0000217   0.0000000   0.0000000   0.0000000   0.0000000
0.0567223     0.9964964  -0.0356371   0.0000136  -0.0000296   0.0000000   0.0000000   0.0000000   0.0000000
0.0575122     0.9963757  -0.0360983   0.0000180  -0.0000214   0.0000000   0.0000000   0.0000000   0.0000000
0.0583131     0.9962105  -0.0366686   0.0000062  -0.0000241   0.0000000   0.0000000   0.0000000   0.0000000
0.0591251     0.9961500  -0.0371277  -0.0000023  -0.0000197   0.0000000   0.0000000   0.0000000   0.0000000
0.0599484     0.9960109  -0.0376281   0.0000049  -0.0000186   0.0000000   0.0000000   0.0000000   0.0000000
0.0607832     0.9959489  -0.0381700   0.0000052  -0.0000281   0.0000000   0.0000000   0.0000000   0.0000000
0.0616297     0.9958470  -0.0385971   0.0000141  -0.0000148   0.0000000   0.0000000   0.0000000   0.0000000
0.0624879     0.9957715  -0.0391735   0.0000062  -0.0000257   0.0000000   0.0000000   0.0000000   0.0000000
0.0633580     0.9956457  -0.0397407   0.0000153  -0.0000364   0.0000000   0.0000000   0.0000000   0.0000000
0.0642403     0.9956523  -0.0402499   0.0000016  -0.0000159   0.0000000   0.0000000   0.0000000   0.0000000
0.0651349     0.9954989  -0.0409351   0.0000211  -0.0000319   0.0000000   0.0000000   0.0000000   0.0000000
0.0660419     0.9953553  -0.0413693   0.0000061  -0.0000217   0.0000000   0.0000000   0.0000000   0.0000000
0.0669616     0.9952932  -0.0420454   0.0000114  -0.0000392   0.0000000   0.0000000   0.0000000   0.0000000
0.0678941     0.9951950  -0.0425274   0.0000196  -0.0000256   0.0000000   0.0000000   0.0000000   0.0000000
0.0688395     0.9950792  -0.0431853   0.0000081  -0.0000391   0.0000000   0.0000000   0.0000000   0.0000000
0.0697981     0.9951450  -0.0437788   0.0000033  -0.0000297   0.0000000   0.0000000   0.0000000   0.0000000
0.0707701     0.9947822  -0.0443136   0.0000150  -0.0000231   0.0000000   0.0000000   0.0000000   0.0000000
0.0717556     0.9946224  -0.0449362   0.0000162  -0.0000265   0.0000000   0.0000000   0.0000000   0.0000000
0.0727548     0.9946084  -0.0454924   0.0000219  -0.0000307   0.0000000   0.0000000   0.0000000   0.0000000
0.0737680     0.9945295  -0.0460436   0.0000067  -0.0000178   0.0000000   0.0000000   0.0000000   0.0000000
0.0747952     0.9942463  -0.0467491   0.0000132  -0.0000220   0.0000000   0.0000000   0.0000000   0.0000000
0.0758368     0.9942130  -0.0474179   0.0000147  -0.0000339   0.0000000   0.0000000   0.0000000   0.0000000
0.0768928     0.9940865  -0.0480592   0.0000061  -0.0000352   0.0000000   0.0000000   0.0000000   0.0000000
0.0779636     0.9940003  -0.0487145   0.0000245  -0.0000168   0.0000000   0.0000000   0.0000000   0.0000000
0.0790493     0.9937844  -0.0493896   0.0000124  -0.0000389   0.0000000   0.0000000   0.0000000   0.0000000
0.0801501     0.9935700  -0.0500469   0.0000101  -0.0000262   0.0000000   0.0000000   0.0000000   0.0000000
0.0812662     0.9935162  -0.0507488  -0.0000011  -0.0000154   0.0000000   0.0000000   0.0000000   0.0000000
0.0823979     0.9932824  -0.0513820   0.0000177  -0.0000167   0.0000000   0.0000000   0.0000000   0.0000000
0.0835453     0.9931875  -0.0520686   0.0000150  -0.0000224   0.0000000   0.0000000   0.0000000   0.0000000
0.0847087     0.9929490  -0.0528277   0.0000239  -0.0000139   0.0000000   0.0000000   0.0000000   0.0000000
0.0858883     0.9928021  -0.0534677   0.0000230  -0.0000291   0.0000000   0.0000000   0.0000000   0.0000000
0.0870843     0.9926813  -0.0541422   0.0000183  -0.0000301   0.0000000   0.0000000   0.0000000   0.0000000
0.0882970     0.9924440  -0.0548522   0.0000226  -0.0000414   0.0000000   0.0000000   0.0000000   0.0000000
0.0895266     0.9922368  -0.0557087   0.0000161  -0.0000226   0.0000000   0.0000000   0.0000000   0.0000000
0.0907733     0.9920672  -0.0564935   0.0000279  -0.0000216   0.0000000   0.0000000   0.0000000   0.0000000
0.0920373     0.9918783  -0.0571325   0.0000205  -0.0000290   0.0000000   0.0000000   0.0000000   0.0000000
0.0933190     0.9916926  -0.0580374   0.0000207  -0.0000314   0.0000000   0.0000000   0.0000000   0.0000000
0.0946185     0.9913859  -0.0586515   0.0000258  -0.0000281   0.0000000   0.0000000   0.0000000   0.0000000
0.0959361     0.9912657  -0.0595084   0.0000205  -0.0000356   0.0000000   0.0000000   0.0000000   0.0000000
0.0972720     0.9910765  -0.0604194   0.0000265  -0.0000401   0.0000000   0.0000000   0.0000000   0.0000000
0.0986266     0.9908470  -0.0612221   0.0000273  -0.0000408   0.0000000   0.0000000   0.0000000   0.0000000
0.1000000     0.9905557  -0.0619733   0.0000097  -0.0000294   0.0000000   0.0000000   0.0000000   0.0000000
0.1013925     0.9902243  -0.0629032   0.0000270  -0.0000424   0.0000000   0.0000000   0.0000000   0.0000000
0.1028045     0.9900553  -0.0636588   0.0000184  -0.0000374   0.0000000   0.0000000   0.0000000   0.0000000
0.1042361     0.9898300  -0.0645162   0.0000218  -0.0000371   0.0000000   0.0000000   0.0000000   0.0000000
0.1056876     0.9894520  -0.0653242   0.0000157  -0.0000338   0.0000000   0.0000000   0.0000000   0.0000000
0.1071593     0.9892180  -0.0662055   0.0000356  -0.0000423   0.0000000   0.0000000   0.0000000   0.0000000
0.1086516     0.9889193  -0.0671289   0.0000358  -0.0000255   0.0000000   0.0000000   0.0000000   0.0000000
0.1101646     0.9887682  -0.0679396   0.0000295  -0.0000419   0.0000000   0.0000000   0.0000000   0.0000000
0.1116987     0.9884011  -0.0687960   0.0000354  -0.0000531   0.0000000   0.0000000   0.0000000   0.0000000
0.1132541     0.9881066  -0.0697033   0.0000248  -0.0000279   0.0000000   0.0000000   0.0000000   0.0000000
0.1148312     0.9877768  -0.0706142   0.0000404  -0.0000421   0.0000000   0.0000000   0.0000000   0.0000000
0.1164303     0.9875588  -0.0715584   0.0000243  -0.0000291   0.0000000   0.0000000   0.0000000   0.0000000
0.1180517     0.9871798  -0.0723634   0.0000413  -0.0000397   0.0000000   0.0000000   0.0000000   0.0000000
0.1196956     0.9868067  -0.0733794   0.0000453  -0.0000361   0.0000000   0.0000000   0.0000000   0.0000000
0.1213624     0.9864773  -0.0743509   0.0000458  -0.0000361   0.0000000   0.0000000   0.0000000   0.0000000
0.1230524     0.9860571  -0.0753017   0.0000380  -0.0000333   0.0000000   0.0000000   0.0000000   0.0000000
0.1247660     0.9857803  -0.0762758   0.0000438  -0.0000333   0.0000000   0.0000000   0.0000000   0.0000000
0.1265034     0.9853930  -0.0773187   0.0000527  -0.0000315   0.0000000   0.0000000   0.0000000   0.0000000
0.1282650     0.9850530  -0.0782928   0.0000418  -0.0000326   0.0000000   0.0000000   0.0000000   0.0000000
0.1300511     0.9847070  -0.0793234   0.0000394  -0.0000441   0.0000000   0.0000000   0.0000000   0.0000000
0.1318621     0.9842107  -0.0802752   0.0000490  -0.0000254   0.0000000   0.0000000   0.0000000   0.0000000
0.1336984     0.9838973  -0.0812670   0.0000486  -0.0000283   0.0000000   0.0000000   0.0000000   0.0000000
0.1355602     0.9835055  -0.0823824   0.0000430  -0.0000387   0.0000000   0.0000000   0.0000000   0.0000000
0.1374479     0.9830089  -0.0834288   0.0000476  -0.0000386   0.0000000   0.0000000   0.0000000   0.0000000
0.1393619     0.9826958  -0.0844740   0.0000481  -0.0000376   0.0000000   0.0000000   0.0000000   0.0000000
0.1413026     0.9821609  -0.0854424   0.0000507  -0.0000391   0.0000000   0.0000000   0.0000000   0.0000000
0.1432703     0.9817181  -0.0865663   0.0000578  -0.0000392   0.0000000   0.0000000   0.0000000   0.0000000
0.1452654     0.9812793  -0.0876996   0.0000693  -0.0000356   0.0000000   0.0000000   0.0000000   0.0000000
0.1472883     0.9808673  -0.0887891   0.0000478  -0.0000342   0.0000000   0.0000000   0.0000000   0.0000000
0.1493393     0.9802541  -0.0899928   0.0000517  -0.0000296   0.0000000   0.0000000   0.0000000   0.0000000
0.1514189     0.9798707  -0.0910643   0.0000592  -0.0000336   0.0000000   0.0000000   0.0000000   0.0000000
0.1535275     0.9793892  -0.0922430   0.0000504  -0.0000279   0.0000000   0.0000000   0.0000000   0.0000000
0.1556654     0.9788593  -0.0933372   0.0000763  -0.0000429   0.0000000   0.0000000   0.0000000   0.0000000
0.1578331     0.9783050  -0.0944524   0.0000624  -0.0000389   0.0000000   0.0000000   0.0000000   0.0000000
0.1600310     0.9777601  -0.0958458   0.0000596  -0.0000317   0.0000000   0.0000000   0.0000000   0.0000000
0.1622595     0.9771875  -0.0969404   0.0000664  -0.0000400   0.0000000   0.0000000   0.0000000   0.0000000
0.1645191     0.9766373  -0.0980360   0.0000670  -0.0000391   0.0000000   0.0000000   0.0000000   0.0000000
0.1668101     0.9761576  -0.0993290   0.0000791  -0.0000397   0.0000000   0.0000000   0.0000000   0.0000000
0.1691330     0.9754818  -0.1004980   0.0000575  -0.0000360   0.0000000   0.0000000   0.0000000   0.0000000
0.1714882     0.9748420  -0.1016548   0.0000779  -0.0000371   0.0000000   0.0000000   0.0000000   0.0000000
0.1738762     0.9741538  -0.1030303   0.0000776  -0.0000325   0.0000000   0.0000000   0.0000000   0.0000000
0.1762975     0.9735152  -0.1042790   0.0000865  -0.0000375   0.0000000   0.0000000   0.0000000   0.0000000
0.1787526     0.9728228  -0.1054809   0.0000909  -0.0000412   0.0000000   0.0000000   0.0000000   0.0000000
0.1812418     0.9721741  -0.1068060   0.0001005  -0.0000334   0.0000000   0.0000000   0.0000000   0.0000000
0.1837656     0.9714815  -0.1081049   0.0000927  -0.0000411   0.0000000   0.0000000   0.0000000   0.0000000
0.1863246     0.9706648  -0.1092888   0.0001034  -0.0000368   0.0000000   0.0000000   0.0000000   0.0000000
0.1889193     0.9701020  -0.1106485   0.0000937  -0.0000254   0.0000000   0.0000000   0.0000000   0.0000000
0.1915501     0.9692923  -0.1118463   0.0000965  -0.0000252   0.0000000   0.0000000   0.0000000   0.0000000
0.1942175     0.9685932  -0.1132291   0.0000993  -0.0000279   0.0000000   0.0000000   0.0000000   0.0000000
0.1969220     0.9678110  -0.1144931   0.0001048  -0.0000293   0.0000000   0.0000000   0.0000000   0.0000000
0.1996642     0.9669641  -0.1158461   0.0001219  -0.0000325   0.0000000   0.0000000   0.0000000   0.0000000
0.2024447     0.9661065  -0.1172156   0.0001337  -0.0000338   0.0000000   0.0000000   0.0000000   0.0000000
0.2052638     0.9653939  -0.1185945   0.0001289  -0.0000357   0.0000000   0.0000000   0.0000000   0.0000000
0.2081222     0.9643866  -0.1199579   0.0001286  -0.0000351   0.0000000   0.0000000   0.0000000   0.0000000
0.2110203     0.9636474  -0.1213403   0.0001353  -0.0000298   0.0000000   0.0000000   0.0000000   0.0000000
0.2139589     0.9627616  -0.1226804   0.0001287  -0.0000148   0.0000000   0.0000000   0.0000000   0.0000000
0.2169384     0.9618382  -0.1240585   0.0001371  -0.0000201   0.0000000   0.0000000   0.0000000   0.0000000
0.2199593     0.9609511  -0.1255030   0.0001331  -0.0000219   0.0000000   0.0000000   0.0000000   0.0000000
0.2230223     0.9599789  -0.1268904   0.0001584  -0.0000225   0.0000000   0.0000000   0.0000000   0.0000000
0.2261280     0.9589814  -0.1283140   0.0001548  -0.0000349   0.0000000   0.0000000   0.0000000   0.0000000
0.2292769     0.9579957  -0.1297086   0.0001602  -0.0000149   0.0000000   0.0000000   0.0000000   0.0000000
0.2324697     0.9569894  -0.1310880   0.0001604  -0.0000142   0.0000000   0.0000000   0.0000000   0.0000000
0.2357069     0.9559237  -0.1325389   0.0001730  -0.0000314   0.0000000   0.0000000   0.0000000   0.0000000
0.2389893     0.9549166  -0.1340643   0.0001715  -0.0000070   0.0000000   0.0000000   0.0000000   0.0000000
0.2423173     0.9538577  -0.1353152   0.0001715  -0.0000221   0.0000000   0.0000000   0.0000000   0.0000000
0.2456916     0.9527937  -0.1369162   0.0001754  -0.0000167   0.0000000   0.0000000   0.0000000   0.0000000
0.2491130     0.9516002  -0.1384161   0.0001973  -0.0000277   0.0000000   0.0000000   0.0000000   0.0000000
0.2525820     0.9504227  -0.1397943   0.0001978  -0.0000077   0.0000000   0.0000000   0.0000000   0.0000000
0.2560993     0.9494903  -0.1412244   0.0002054  -0.0000077   0.0000000   0.0000000   0.0000000   0.0000000
0.2596656     0.9482167  -0.1426362   0.0002180  -0.0000199   0.0000000   0.0000000   0.0000000   0.0000000
0.2632815     0.9469342  -0.1442349   0.0002127   0.0000058   0.0000000   0.0000000   0.0000000   0.0000000
0.2669478     0.9457305  -0.1456660   0.0002342  -0.0000079   0.0000000   0.0000000   0.0000000   0.0000000
0.2706652     0.9444918  -0.1471341   0.0002508  -0.0000007   0.0000000   0.0000000   0.0000000   0.0000000
0.2744343     0.9432696  -0.1485703   0.0002438   0.0000013   0.0000000   0.0000000   0.0000000   0.0000000
0.2782559     0.9418983  -0.1501139   0.0002565  -0.0000090   0.0000000   0.0000000   0.0000000   0.0000000
0.2821308     0.9406236  -0.1515690   0.0002821   0.0000124   0.0000000   0.0000000   0.0000000   0.0000000
0.2860596     0.9392882  -0.1530856   0.0002912   0.0000077   0.0000000   0.0000000   0.0000000   0.0000000
0.2900430     0.9379019  -0.1546866   0.0002725  -0.0000030   0.0000000   0.0000000   0.0000000   0.0000000
0.2940820     0.9364751  -0.1560500   0.0002989   0.0000171   0.0000000   0.0000000   0.0000000   0.0000000
0.2981772     0.9350269  -0.1576125   0.0003190   0.0000073   0.0000000   0.0000000   0.0000000   0.0000000
0.3023295     0.9335959  -0.1590219   0.0003233  -0.0000013   0.0000000   0.0000000   0.0000000   0.0000000
0.3065395     0.9321434  -0.1605241   0.0003433   0.0000036   0.0000000   0.0000000   0.0000000   0.0000000
0.3108082     0.9307237  -0.1619668   0.0003413   0.0000194   0.0000000   0.0000000   0.0000000   0.0000000
0.3151363     0.9291404  -0.1634115   0.0003646   0.0000152   0.0000000   0.0000000   0.0000000   0.0000000
0.3195248     0.9275901  -0.1650085   0.0003719   0.0000311   0.0000000   0.0000000   0.0000000   0.0000000
0.3239743     0.9259634  -0.1663732   0.0003775   0.0000207   0.0000000   0.0000000   0.0000000   0.0000000
0.3284857     0.9244538  -0.1678393   0.0003980   0.0000396   0.0000000   0.0000000   0.0000000   0.0000000
0.3330600     0.9228696  -0.1693709   0.0004110   0.0000222   0.0000000   0.0000000   0.0000000   0.0000000
0.3376980     0.9212400  -0.1709393   0.0004277   0.0000324   0.0000000   0.0000000   0.0000000   0.0000000
0.3424006     0.9195959  -0.1723044   0.0004414   0.0000377   0.0000000   0.0000000   0.0000000   0.0000000
0.3471687     0.9179480  -0.1737230   0.0004558   0.0000380   0.0000000   0.0000000   0.0000000   0.0000000
0.3520031     0.9163166  -0.1752024   0.0004723   0.0000444   0.0000000   0.0000000   0.0000000   0.0000000
0.3569049     0.9145357  -0.1766399   0.0004842   0.0000452   0.0000000   0.0000000   0.0000000   0.0000000
0.3618750     0.9125770  -0.1780997   0.0005127   0.0000454   0.0000000   0.0000000   0.0000000   0.0000000
0.3669142     0.9109540  -0.1794575   0.0005204   0.0000444   0.0000000   0.0000000   0.0000000   0.0000000
0.3720237     0.9091570  -0.1809019   0.0005531   0.0000604   0.0000000   0.0000000   0.0000000   0.0000000
0.3772042     0.9072663  -0.1823329   0.0005728   0.0000546   0.0000000   0.0000000   0.0000000   0.0000000
0.3824570     0.9054301  -0.1837424   0.0005907   0.0000599   0.0000000   0.0000000   0.0000000   0.0000000
0.3877828     0.9035470  -0.1851287   0.0006133   0.0000665   0.0000000   0.0000000   0.0000000   0.0000000
0.3931829     0.9016945  -0.1864011   0.0006231   0.0000772   0.0000000   0.0000000   0.0000000   0.0000000
0.3986581     0.8996375  -0.1878376   0.0006582   0.0000768   0.0000000   0.0000000   0.0000000   0.0000000
0.4042096     0.8977639  -0.1892355   0.0006770   0.0000715   0.0000000   0.0000000   0.0000000   0.0000000
0.4098384     0.8957984  -0.1905049   0.0007132   0.0000720   0.0000000   0.0000000   0.0000000   0.0000000
0.4155455     0.8939365  -0.1918306   0.0007462   0.0000712   0.0000000   0.0000000   0.0000000   0.0000000
0.4213322     0.8918902  -0.1932783   0.0007607   0.0000842   0.0000000   0.0000000   0.0000000   0.0000000
0.4271994     0.8898488  -0.1945688   0.0007860   0.0000877   0.0000000   0.0000000   0.0000000   0.0000000
0.4331483     0.8877602  -0.1957998   0.0008135   0.0000769   0.0000000   0.0000000   0.0000000   0.0000000
0.4391801     0.8856960  -0.1969892   0.0008330   0.0000801   0.0000000   0.0000000   0.0000000   0.0000000
0.4452959     0.8835432  -0.1984266   0.0008672   0.0000799   0.0000000   0.0000000   0.0000000   0.0000000
0.4514968     0.8813720  -0.1996075   0.0009015   0.0000921   0.0000000   0.0000000   0.0000000   0.0000000
0.4577841     0.8793457  -0.2008652   0.0009357   0.0000809   0.0000000   0.0000000   0.0000000   0.0000000
0.4641589     0.8771550  -0.2020284   0.0009774   0.0000826   0.0000000   0.0000000   0.0000000   0.0000000
0.4706225     0.8750353  -0.2032925   0.0010148   0.0000923   0.0000000   0.0000000   0.0000000   0.0000000
0.4771761     0.8728776  -0.2044518   0.0010466   0.0000968   0.0000000   0.0000000   0.0000000   0.0000000
0.4838210     0.8706954  -0.2055961   0.0010950   0.0000958   0.0000000   0.0000000   0.0000000   0.0000000
0.4905584     0.8685190  -0.2068434   0.0011183   0.0001010   0.0000000   0.0000000   0.0000000   0.0000000
0.4973896     0.8662100  -0.2080259   0.0011573   0.0001029   0.0000000   0.0000000   0.0000000   0.0000000
0.5043159     0.8639664  -0.2089903   0.0012094   0.0001007   0.0000000   0.0000000   0.0000000   0.0000000
0.5113388     0.8617667  -0.2101759   0.0012473   0.0001057   0.0000000   0.0000000   0.0000000   0.0000000
0.5184594     0.8594516  -0.2112252   0.0012806   0.0001140   0.0000000   0.0000000   0.0000000   0.0000000
0.5256791     0.8571049  -0.2122710   0.0013332   0.0000903   0.0000000   0.0000000   0.0000000   0.0000000
0.5329994     0.8548572  -0.2132825   0.0013843   0.0001150   0.0000000   0.0000000   0.0000000   0.0000000
0.5404216     0.8526086  -0.2143568   0.0014132   0.0001128   0.0000000   0.0000000   0.0000000   0.0000000
0.5479472     0.8502848  -0.2153628   0.0014559   0.0000972   0.0000000   0.0000000   0.0000000   0.0000000
0.5555776     0.8479565  -0.2163525   0.0015223   0.0000910   0.0000000   0.0000000   0.0000000   0.0000000
0.5633143     0.8456942  -0.2172846   0.0015864   0.0000968   0.0000000   0.0000000   0.0000000   0.0000000
0.5711586     0.8433748  -0.2181888   0.0016290   0.0000918   0.0000000   0.0000000   0.0000000   0.0000000
0.5791123     0.8408692  -0.2191064   0.0016989   0.0000901   0.0000000   0.0000000   0.0000000   0.0000000
0.5871766     0.8385811  -0.2200426   0.0017303   0.0000782   0.0000000   0.0000000   0.0000000   0.0000000
0.5953533     0.8362301  -0.2208639   0.0018092   0.0000877   0.0000000   0.0000000   0.0000000   0.0000000
0.6036439     0.8338327  -0.2217733   0.0018496   0.0000648   0.0000000   0.0000000   0.0000000   0.0000000
0.6120498     0.8314083  -0.2225005   0.0019328   0.0000722   0.0000000   0.0000000   0.0000000   0.0000000
0.6205729     0.8291278  -0.2233478   0.0019964   0.0000510   0.0000000   0.0000000   0.0000000   0.0000000
0.6292146     0.8266650  -0.2242148   0.0020478   0.0000428   0.0000000   0.0000000   0.0000000   0.0000000
0.6379767     0.8243619  -0.2250138   0.0021263   0.0000380   0.0000000   0.0000000   0.0000000   0.0000000
0.6468608     0.8218631  -0.2257587   0.0022158   0.0000309   0.0000000   0.0000000   0.0000000   0.0000000
0.6558686     0.8195994  -0.2265481   0.0022810   0.0000223   0.0000000   0.0000000   0.0000000   0.0000000
0.6650018     0.8171069  -0.2272749   0.0023453   0.0000127   0.0000000   0.0000000   0.0000000   0.0000000
0.6742622     0.8147369  -0.2280716   0.0024258  -0.0000125   0.0000000   0.0000000   0.0000000   0.0000000
0.6836516     0.8122377  -0.2287344   0.0025072  -0.0000224   0.0000000   0.0000000   0.0000000   0.0000000
0.6931717     0.8099611  -0.2293412   0.0025855  -0.0000585   0.0000000   0.0000000   0.0000000   0.0000000
0.7028244     0.8074925  -0.2299571   0.0026628  -0.0000512   0.0000000   0.0000000   0.0000000   0.0000000
0.7126115     0.8051518  -0.2306462   0.0027405  -0.0000750   0.0000000   0.0000000   0.0000000   0.0000000
0.7225349     0.8028145  -0.2311837   0.0028290  -0.0001009   0.0000000   0.0000000   0.0000000   0.0000000
0.7325965     0.8004213  -0.2319073   0.0029313  -0.0001216   0.0000000   0.0000000   0.0000000   0.0000000
0.7427982     0.7980263  -0.2324389   0.0030327  -0.0001389   0.0000000   0.0000000   0.0000000   0.0000000
0.7531420     0.7956508  -0.2329643   0.0031201  -0.0001625   0.0000000   0.0000000   0.0000000   0.0000000
0.7636298     0.7932981  -0.2336623   0.0032005  -0.0001949   0.0000000   0.0000000   0.0000000   0.0000000
0.7742637     0.7909090  -0.2341918   0.0033063  -0.0002176   0.0000000   0.0000000   0.0000000   0.0000000
0.7850456     0.7885565  -0.2347137   0.0034220  -0.0002588   0.0000000   0.0000000   0.0000000   0.0000000
0.7959777     0.7862310  -0.2352521   0.0035260  -0.0002899   0.0000000   0.0000000   0.0000000   0.0000000
0.8070620     0.7839723  -0.2357037   0.0036276  -0.0003145   0.0000000   0.0000000   0.0000000   0.0000000
0.8183007     0.7816440  -0.2362076   0.0037468  -0.0003523   0.0000000   0.0000000   0.0000000   0.0000000
0.8296959     0.7793527  -0.2366784   0.0038552  -0.0003818   0.0000000   0.0000000   0.0000000   0.0000000
0.8412497     0.7769743  -0.2372174   0.0039691  -0.0004286   0.0000000   0.0000000   0.0000000   0.0000000
0.8529644     0.7746775  -0.2376201   0.0040880  -0.0004634   0.0000000   0.0000000   0.0000000   0.0000000
0.8648423     0.7723567  -0.2381504   0.0042111  -0.0005301   0.0000000   0.0000000   0.0000000   0.0000000
0.8768856     0.7700001  -0.2385060   0.0043604  -0.0005563   0.0000000   0.0000000   0.0000000   0.0000000
0.8890966     0.7677746  -0.2389659   0.0044726  -0.0006175   0.0000000   0.0000000   0.0000000   0.0000000
0.9014776     0.7655019  -0.2394738   0.0046138  -0.0006747   0.0000000   0.0000000   0.0000000   0.0000000
0.9140311     0.7632061  -0.2398638   0.0047388  -0.0007173   0.0000000   0.0000000   0.0000000   0.0000000
0.9267593     0.7609949  -0.2402863   0.0048781  -0.0007839   0.0000000   0.0000000   0.0000000   0.0000000
0.9396648     0.7587559  -0.2406909   0.0050322  -0.0008565   0.0000000   0.0000000   0.0000000   0.0000000
0.9527500     0.7566377  -0.2410605   0.0051645  -0.0009026   0.0000000   0.0000000   0.0000000   0.0000000
0.9660175     0.7543978  -0.2415040   0.0053173  -0.0009918   0.0000000   0.0000000   0.0000000   0.0000000
0.9794697     0.7522781  -0.2419618   0.0054587  -0.0010591   0.0000000   0.0000000   0.0000000   0.0000000
0.9931092     0.7500649  -0.2423874   0.0056176  -0.0011406   0.0000000   0.0000000   0.0000000   0.0000000
1.0069386     0.7478327  -0.2427903   0.0057865  -0.0012201   0.0000000   0.0000000   0.0000000   0.0000000
1.0209607     0.7456807  -0.2432803   0.0059345  -0.0013126   0.0000000   0.0000000   0.0000000   0.0000000
1.0351780     0.7435485  -0.2436411   0.0061052  -0.0014101   0.0000000   0.0000000   0.0000000   0.0000000
1.0495932     0.7413068  -0.2439811   0.0062721  -0.0014945   0.0000000   0.0000000   0.0000000   0.0000000
1.0642092     0.7392463  -0.2444972   0.0064409  -0.0015947   0.0000000   0.0000000   0.0000000   0.0000000
1.0790288     0.7372293  -0.2449238   0.0066302  -0.0017124   0.0000000   0.0000000   0.0000000   0.0000000
1.0940547     0.7351783  -0.2452203   0.0067977  -0.0018172   0.0000000   0.0000000   0.0000000   0.0000000
1.1092899     0.7329762  -0.2457433   0.0069983  -0.0019145   0.0000000   0.0000000   0.0000000   0.0000000
1.1247372     0.7309379  -0.2461799   0.0071607  -0.0020522   0.0000000   0.0000000   0.0000000   0.0000000
1.1403996     0.7287840  -0.2466363   0.0073473  -0.0021663   0.0000000   0.0000000   0.0000000   0.0000000
1.1562801     0.7267863  -0.2471699   0.0075427  -0.0022964   0.0000000   0.0000000   0.0000000   0.0000000
1.1723818     0.7247371  -0.2475326   0.0077388  -0.0024368   0.0000000   0.0000000   0.0000000   0.0000000
1.1887077     0.7226567  -0.2480274   0.0079376  -0.0025802   0.0000000   0.0000000   0.0000000   0.0000000
1.2052609     0.7206842  -0.2484676   0.0081347  -0.0027272   0.0000000   0.0000000   0.0000000   0.0000000
1.2220447     0.7186741  -0.2490105   0.0083453  -0.0028842   0.0000000   0.0000000   0.0000000   0.0000000
1.2390622     0.7167018  -0.2494900   0.0085401  -0.0030508   0.0000000   0.0000000   0.0000000   0.0000000
1.2563166     0.7146334  -0.2500693   0.0087586  -0.0032215   0.0000000   0.0000000   0.0000000   0.0000000
1.2738113     0.7126765  -0.2505538   0.0089755  -0.0033972   0.0000000   0.0000000   0.0000000   0.0000000
1.2915497     0.7106164  -0.2510065   0.0091889  -0.0035803   0.0000000   0.0000000   0.0000000   0.0000000
1.3095350     0.7086657  -0.2516298   0.0094001  -0.0037743   0.0000000   0.0000000   0.0000000   0.0000000
1.3277708     0.7067269  -0.2522595   0.0096395  -0.0039801   0.0000000   0.0000000   0.0000000   0.0000000
1.3462606     0.7047674  -0.2528071   0.0098618  -0.0041798   0.0000000   0.0000000   0.0000000   0.0000000
1.3650078     0.7028174  -0.2534096   0.0100818  -0.0044055   0.0000000   0.0000000   0.0000000   0.0000000
1.3840161     0.7007712  -0.2540367   0.0103362  -0.0046270   0.0000000   0.0000000   0.0000000   0.0000000
1.4032891     0.6989097  -0.2545556   0.0105653  -0.0048591   0.0000000   0.0000000   0.0000000   0.0000000
1.4228305     0.6968704  -0.2552589   0.0108053  -0.0051068   0.0000000   0.0000000   0.0000000   0.0000000
1.4426440     0.6950368  -0.2560493   0.0110418  -0.0053587   0.0000000   0.0000000   0.0000000   0.0000000
1.4627334     0.6930035  -0.2567060   0.0112830  -0.0056254   0.0000000   0.0000000   0.0000000   0.0000000
1.4831025     0.6910590  -0.2574674   0.0115184  -0.0058927   0.0000000   0.0000000   0.0000000   0.0000000
1.5037553     0.6890607  -0.2582190   0.0117794  -0.0061854   0.0000000   0.0000000   0.0000000   0.0000000
1.5246957     0.6871046  -0.2590145   0.0120278  -0.0064811   0.0000000   0.0000000   0.0000000   0.0000000
1.5459277     0.6851021  -0.2599237   0.0122811  -0.0067966   0.0000000   0.0000000   0.0000000   0.0000000
1.5674554     0.6831195  -0.2606133   0.0125159  -0.0071128   0.0000000   0.0000000   0.0000000   0.0000000
1.5892829     0.6811416  -0.2614521   0.0127859  -0.0074296   0.0000000   0.0000000   0.0000000   0.0000000
1.6114143     0.6790963  -0.2623633   0.0130345  -0.0077918   0.0000000   0.0000000   0.0000000   0.0000000
1.6338539     0.6772706  -0.2631602   0.0132691  -0.0081334   0.0000000   0.0000000   0.0000000   0.0000000
1.6566060     0.6751832  -0.2640445   0.0135463  -0.0085010   0.0000000   0.0000000   0.0000000   0.0000000
1.6796749     0.6733323  -0.2649909   0.0137788  -0.0088827   0.0000000   0.0000000   0.0000000   0.0000000
1.7030650     0.6712241  -0.2659382   0.0140423  -0.0092662   0.0000000   0.0000000   0.0000000   0.0000000
1.7267809     0.6692310  -0.2668659   0.0143076  -0.0096851   0.0000000   0.0000000   0.0000000   0.0000000
1.7508270     0.6670969  -0.2680181   0.0145532  -0.0100837   0.0000000   0.0000000   0.0000000   0.0000000
1.7752080     0.6649898  -0.2690656   0.0148024  -0.0105390   0.0000000   0.0000000   0.0000000   0.0000000
1.7999285     0.6629813  -0.2700955   0.0150566  -0.0109802   0.0000000   0.0000000   0.0000000   0.0000000
1.8249932     0.6609589  -0.2711661   0.0153003  -0.0114411   0.0000000   0.0000000   0.0000000   0.0000000
1.8504070     0.6588342  -0.2723616   0.0155404  -0.0119367   0.0000000   0.0000000   0.0000000   0.0000000
1.8761747     0.6567581  -0.2734193   0.0158096  -0.0124248   0.0000000   0.0000000   0.0000000   0.0000000
1.9023012     0.6545143  -0.2746891   0.0160357  -0.0129470   0.0000000   0.0000000   0.0000000   0.0000000
1.9287915     0.6522777  -0.2758149   0.0162613  -0.0134599   0.0000000   0.0000000   0.0000000   0.0000000
1.9556507     0.6501962  -0.2771275   0.0164973  -0.0139941   0.0000000   0.0000000   0.0000000   0.0000000
1.9828839     0.6478859  -0.2783395   0.0167246  -0.0145631   0.0000000   0.0000000   0.0000000   0.0000000
2.0104964     0.6455795  -0.2795059   0.0169498  -0.0151436   0.0000000   0.0000000   0.0000000   0.0000000
2.0384934     0.6432392  -0.2807577   0.0171484  -0.0157291   0.0000000   0.0000000   0.0000000   0.0000000
2.0668802     0.6410362  -0.2820150   0.0173507  -0.0163346   0.0000000   0.0000000   0.0000000   0.0000000
2.0956624     0.6385713  -0.2832230   0.0175520  -0.0169508   0.0000000   0.0000000   0.0000000   0.0000000
2.1248454     0.6362172  -0.2847058   0.0177532  -0.0175820   0.0000000   0.0000000   0.0000000   0.0000000
2.1544347     0.6338230  -0.2860818   0.0179299  -0.0182579   0.0000000   0.0000000   0.0000000   0.0000000
2.1844361     0.6315024  -0.2874053   0.0181162  -0.0189246   0.0000000   0.0000000   0.0000000   0.0000000
2.2148552     0.6289254  -0.2887559   0.0182771  -0.0196169   0.0000000   0.0000000   0.0000000   0.0000000
2.2456980     0.6266302  -0.2902309   0.0184382  -0.0203114   0.0000000   0.0000000   0.0000000   0.0000000
2.2769703     0.6239571  -0.2916806   0.0185986  -0.0210541   0.0000000   0.0000000   0.0000000   0.0000000
2.3086780     0.6213333  -0.2930966   0.0187417  -0.0217889   0.0000000   0.0000000   0.0000000   0.0000000
2.3408273     0.6187555  -0.2946217   0.0188615  -0.0225507   0.0000000   0.0000000   0.0000000   0.0000000
2.3734243     0.6160149  -0.2960862   0.0189651  -0.0233327   0.0000000   0.0000000   0.0000000   0.0000000
2.4064752     0.6132718  -0.2975931   0.0190737  -0.0241361   0.0000000   0.0000000   0.0000000   0.0000000
2.4399863     0.6106002  -0.2991006   0.0191599  -0.0249452   0.0000000   0.0000000   0.0000000   0.0000000
2.4739641     0.6076883  -0.3006696   0.0192280  -0.0257695   0.0000000   0.0000000   0.0000000   0.0000000
2.5084151     0.6048141  -0.3021866   0.0192670  -0.0266368   0.0000000   0.0000000   0.0000000   0.0000000
2.5433458     0.6018790  -0.3036798   0.0192928  -0.0274901   0.0000000   0.0000000   0.0000000   0.0000000
2.5787629     0.5989104  -0.3052016   0.0193067  -0.0283816   0.0000000   0.0000000   0.0000000   0.0000000
2.6146732     0.5959409  -0.3067101   0.0192749  -0.0292675   0.0000000   0.0000000   0.0000000   0.0000000
2.6510836     0.5928579  -0.3081664   0.0192883  -0.0301826   0.0000000   0.0000000   0.0000000   0.0000000
2.6880010     0.5897591  -0.3097072   0.0192453  -0.0311196   0.0000000   0.0000000   0.0000000   0.0000000
2.7254325     0.5864944  -0.3112724   0.0191728  -0.0320398   0.0000000   0.0000000   0.0000000   0.0000000
2.7633853     0.5833731  -0.3127384   0.0190935  -0.0329925   0.0000000   0.0000000   0.0000000   0.0000000
2.8018666     0.5800990  -0.3142985   0.0189866  -0.0339723   0.0000000   0.0000000   0.0000000   0.0000000
2.8408837     0.5767673  -0.3157937   0.0188463  -0.0349543   0.0000000   0.0000000   0.0000000   0.0000000
2.8804442     0.5733120  -0.3173340   0.0187167  -0.0359689   0.0000000   0.0000000   0.0000000   0.0000000
2.9205555     0.5700469  -0.3187377   0.0185196  -0.0369642   0.0000000   0.0000000   0.0000000   0.0000000
2.9612254     0.5664416  -0.3202607   0.0183249  -0.0379807   0.0000000   0.0000000   0.0000000   0.0000000
3.0024617     0.5628031  -0.3217352   0.0180741  -0.0390272   0.0000000   0.0000000   0.0000000   0.0000000
3.0442722     0.5591783  -0.3231742   0.0178202  -0.0400815   0.0000000   0.0000000   0.0000000   0.0000000
3.0866649     0.5555694  -0.3246032   0.0175242  -0.0411141   0.0000000   0.0000000   0.0000000   0.0000000
3.1296480     0.5517973  -0.3259712   0.0172150  -0.0421843   0.0000000   0.0000000   0.0000000   0.0000000
3.1732296     0.5480356  -0.3272910   0.0168492  -0.0432257   0.0000000   0.0000000   0.0000000   0.0000000
3.2174182     0.5441754  -0.3285960   0.0164982  -0.0442938   0.0000000   0.0000000   0.0000000   0.0000000
3.2622220     0.5402663  -0.3298750   0.0160895  -0.0453838   0.0000000   0.0000000   0.0000000   0.0000000
3.3076498     0.5363460  -0.3311515   0.0156635  -0.0464790   0.0000000   0.0000000   0.0000000   0.0000000
3.3537102     0.5323011  -0.3323383   0.0151895  -0.0475501   0.0000000   0.0000000   0.0000000   0.0000000
3.4004119     0.5282911  -0.3335125   0.0146779  -0.0486347   0.0000000   0.0000000   0.0000000   0.0000000
3.4477641     0.5241704  -0.3347453   0.0141379  -0.0497387   0.0000000   0.0000000   0.0000000   0.0000000
3.4957756     0.5199899  -0.3357579   0.0135809  -0.0508080   0.0000000   0.0000000   0.0000000   0.0000000
3.5444557     0.5157334  -0.3367295   0.0129890  -0.0518800   0.0000000   0.0000000   0.0000000   0.0000000
3.5938137     0.5114906  -0.3377825   0.0123640  -0.0529703   0.0000000   0.0000000   0.0000000   0.0000000
3.6438590     0.5072103  -0.3386793   0.0116856  -0.0540541   0.0000000   0.0000000   0.0000000   0.0000000
3.6946012     0.5029146  -0.3395573   0.0110078  -0.0551197   0.0000000   0.0000000   0.0000000   0.0000000
3.7460500     0.4984564  -0.3404631   0.0102848  -0.0561813   0.0000000   0.0000000   0.0000000   0.0000000
3.7982153     0.4939902  -0.3410914   0.0095197  -0.0572477   0.0000000   0.0000000   0.0000000   0.0000000
3.8511070     0.4895259  -0.3417368   0.0087380  -0.0582910   0.0000000   0.0000000   0.0000000   0.0000000
3.9047352     0.4849679  -0.3426105   0.0078943  -0.0593305   0.0000000   0.0000000   0.0000000   0.0000000
3.9591103     0.4805441  -0.3430263   0.0070477  -0.0603667   0.0000000   0.0000000   0.0000000   0.0000000
4.0142425     0.4758841  -0.3436415   0.0061603  -0.0613630   0.0000000   0.0000000   0.0000000   0.0000000
4.0701425     0.4712645  -0.3440204   0.0052434  -0.0623576   0.0000000   0.0000000   0.0000000   0.0000000
4.1268208     0.4667002  -0.3443399   0.0042978  -0.0633673   0.0000000   0.0000000   0.0000000   0.0000000
4.1842885     0.4619844  -0.3446894   0.0033008  -0.0643166   0.0000000   0.0000000   0.0000000   0.0000000
4.2425564     0.4573015  -0.3449207   0.0023079  -0.0652569   0.0000000   0.0000000   0.0000000   0.0000000
4.3016358     0.4526156  -0.3451040   0.0012645  -0.0661914   0.0000000   0.0000000   0.0000000   0.0000000
4.3615378     0.4479733  -0.3451617   0.0002148  -0.0670987   0.0000000   0.0000000   0.0000000   0.0000000
4.4222740     0.4432254  -0.3451118  -0.0008960  -0.0679665   0.0000000   0.0000000   0.0000000   0.0000000
4.4838559     0.4383873  -0.3451203  -0.0020245  -0.0688458   0.0000000   0.0000000   0.0000000   0.0000000
4.5462955     0.4337174  -0.3449497  -0.0031619  -0.0696908   0.0000000   0.0000000   0.0000000   0.0000000
4.6096045     0.4289829  -0.3447561  -0.0043368  -0.0705081   0.0000000   0.0000000   0.0000000   0.0000000
4.6737951     0.4242493  -0.3444776  -0.0055347  -0.0712800   0.0000000   0.0000000   0.0000000   0.0000000
4.7388796     0.4194873  -0.3441544  -0.0067530  -0.0720587   0.0000000   0.0000000   0.0000000   0.0000000
4.8048704     0.4147540  -0.3436197  -0.0079896  -0.0727950   0.0000000   0.0000000   0.0000000   0.0000000
4.8717802     0.4100128  -0.3430920  -0.0092524  -0.0735103   0.0000000   0.0000000   0.0000000   0.0000000
4.9396217     0.4053516  -0.3424090  -0.0105217  -0.0741842   0.0000000   0.0000000   0.0000000   0.0000000
5.0084080     0.4005621  -0.3418176  -0.0118334  -0.0748134   0.0000000   0.0000000   0.0000000   0.0000000
5.0781521     0.3958312  -0.3411209  -0.0131363  -0.0754525   0.0000000   0.0000000   0.0000000   0.0000000
5.1488675     0.3911633  -0.3402254  -0.0144713  -0.0760403   0.0000000   0.0000000   0.0000000   0.0000000
5.2205675     0.3865414  -0.3393783  -0.0158241  -0.0766160   0.0000000   0.0000000   0.0000000   0.0000000
5.2932661     0.3818697  -0.3384784  -0.0171664  -0.0771423   0.0000000   0.0000000   0.0000000   0.0000000
5.3669769     0.3772853  -0.3373793  -0.0185413  -0.0776431   0.0000000   0.0000000   0.0000000   0.0000000
5.4417143     0.3727992  -0.3363200  -0.0199212  -0.0781245   0.0000000   0.0000000   0.0000000   0.0000000
5.5174924     0.3681899  -0.3351705  -0.0213204  -0.0785672   0.0000000   0.0000000   0.0000000   0.0000000
5.5943257     0.3636993  -0.3339193  -0.0227153  -0.0789639   0.0000000   0.0000000   0.0000000   0.0000000
5.6722290     0.3591443  -0.3326351  -0.0241376  -0.0793455   0.0000000   0.0000000   0.0000000   0.0000000
5.7512171     0.3546447  -0.3312658  -0.0255512  -0.0796790   0.0000000   0.0000000   0.0000000   0.0000000
5.8313051     0.3503298  -0.3299068  -0.0269738  -0.0800026   0.0000000   0.0000000   0.0000000   0.0000000
5.9125084     0.3459940  -0.3282703  -0.0283872  -0.0802739   0.0000000   0.0000000   0.0000000   0.0000000
5.9948425     0.3416063  -0.3267876  -0.0298202  -0.0805149   0.0000000   0.0000000   0.0000000   0.0000000
6.0783231     0.3372593  -0.3251735  -0.0312470  -0.0807336   0.0000000   0.0000000   0.0000000   0.0000000
6.1629663     0.3331245  -0.3235405  -0.0326715  -0.0809277   0.0000000   0.0000000   0.0000000   0.0000000
6.2487881     0.3288634  -0.3218240  -0.0340968  -0.0810846   0.0000000   0.0000000   0.0000000   0.0000000
6.3358050     0.3247917  -0.3200895  -0.0355058  -0.0811961   0.0000000   0.0000000   0.0000000   0.0000000
6.4240337     0.3206455  -0.3183091  -0.0369595  -0.0813147   0.0000000   0.0000000   0.0000000   0.0000000
6.5134909     0.3166149  -0.3165309  -0.0383806  -0.0813897   0.0000000   0.0000000   0.0000000   0.0000000
6.6041940     0.3125329  -0.3145155  -0.0397929  -0.0813975   0.0000000   0.0000000   0.0000000   0.0000000
6.6961601     0.3086403  -0.3126739  -0.0412218  -0.0814036   0.0000000   0.0000000   0.0000000   0.0000000
6.7894068     0.3047474  -0.3106411  -0.0426280  -0.0813846   0.0000000   0.0000000   0.0000000   0.0000000
6.8839521     0.3008879  -0.3086482  -0.0440227  -0.0813442   0.0000000   0.0000000   0.0000000   0.0000000
6.9798139     0.2971288  -0.3065171  -0.0454130  -0.0812647   0.0000000   0.0000000   0.0000000   0.0000000
7.0770107     0.2933269  -0.3044565  -0.0468002  -0.0811477   0.0000000   0.0000000   0.0000000   0.0000000
7.1755609     0.2897848  -0.3023033  -0.0481596  -0.0810113   0.0000000   0.0000000   0.0000000   0.0000000
7.2754835     0.2860817  -0.3001298  -0.0495322  -0.0808604   0.0000000   0.0000000   0.0000000   0.0000000
7.3767976     0.2826206  -0.2979965  -0.0508845  -0.0806808   0.0000000   0.0000000   0.0000000   0.0000000
7.4795225     0.2790628  -0.2957063  -0.0522465  -0.0804666   0.0000000   0.0000000   0.0000000   0.0000000
7.5836779     0.2755972  -0.2934880  -0.0535701  -0.0802466   0.0000000   0.0000000   0.0000000   0.0000000
7.6892837     0.2722228  -0.2912237  -0.0548820  -0.0799950   0.0000000   0.0000000   0.0000000   0.0000000
7.7963601     0.2689308  -0.2888679  -0.0561617  -0.0796930   0.0000000   0.0000000   0.0000000   0.0000000
7.9049276     0.2657147  -0.2865169  -0.0574626  -0.0794202   0.0000000   0.0000000   0.0000000   0.0000000
8.0150070     0.2624704  -0.2843138  -0.0587463  -0.0790966   0.0000000   0.0000000   0.0000000   0.0000000
8.1266192     0.2593626  -0.2819104  -0.0600063  -0.0787691   0.0000000   0.0000000   0.0000000   0.0000000
8.2397857     0.2561686  -0.2795645  -0.0612469  -0.0783930   0.0000000   0.0000000   0.0000000   0.0000000
8.3545281     0.2531398  -0.2772144  -0.0624740  -0.0780411   0.0000000   0.0000000   0.0000000   0.0000000
8.4708683     0.2501993  -0.2748009  -0.0637004  -0.0776431   0.0000000   0.0000000   0.0000000   0.0000000
8.5888286     0.2471067  -0.2725481  -0.0649075  -0.0772288   0.0000000   0.0000000   0.0000000   0.0000000
8.7084315     0.2442841  -0.2700163  -0.0660934  -0.0768176   0.0000000   0.0000000   0.0000000   0.0000000
8.8297000     0.2415228  -0.2676219  -0.0672734  -0.0763604   0.0000000   0.0000000   0.0000000   0.0000000
8.9526571     0.2387484  -0.2651977  -0.0684177  -0.0759063   0.0000000   0.0000000   0.0000000   0.0000000
9.0773265     0.2360445  -0.2627032  -0.0695600  -0.0754221   0.0000000   0.0000000   0.0000000   0.0000000
9.2037320     0.2333814  -0.2603958  -0.0706890  -0.0749446   0.0000000   0.0000000   0.0000000   0.0000000
9.3318977     0.2307395  -0.2579547  -0.0717850  -0.0744317   0.0000000   0.0000000   0.0000000   0.0000000
9.4618482     0.2281382  -0.2554802  -0.0728771  -0.0739080   0.0000000   0.0000000   0.0000000   0.0000000
9.5936083     0.2256082  -0.2529471  -0.0739438  -0.0733776   0.0000000   0.0000000   0.0000000   0.0000000
9.7272032     0.2231984  -0.2505803  -0.0750047  -0.0728573   0.0000000   0.0000000   0.0000000   0.0000000
9.8626585     0.2207229  -0.2482154  -0.0760417  -0.0722881   0.0000000   0.0000000   0.0000000   0.0000000
10.0000000    0.2183413  -0.2457268  -0.0770579  -0.0717280   0.0000000   0.0000000   0.0000000   0.0000000
10.1392541    0.2160699  -0.2432695  -0.0780523  -0.0711516   0.0000000   0.0000000   0.0000000   0.0000000
10.2804473    0.2138392  -0.2408011  -0.0790536  -0.0705823   0.0000000   0.0000000   0.0000000   0.0000000
10.4236067    0.2116116  -0.2384505  -0.0800039  -0.0699842   0.0000000   0.0000000   0.0000000   0.0000000
10.5687597    0.2094326  -0.2360910  -0.0809551  -0.0693862   0.0000000   0.0000000   0.0000000   0.0000000
10.7159340    0.2073438  -0.2335584  -0.0818817  -0.0687779   0.0000000   0.0000000   0.0000000   0.0000000
10.8651577    0.2052959  -0.2311986  -0.0828175  -0.0681516   0.0000000   0.0000000   0.0000000   0.0000000
11.0164595    0.2032261  -0.2288616  -0.0837114  -0.0675560   0.0000000   0.0000000   0.0000000   0.0000000
11.1698682    0.2012442  -0.2264027  -0.0846006  -0.0669200   0.0000000   0.0000000   0.0000000   0.0000000
11.3254132    0.1992250  -0.2241453  -0.0854640  -0.0662799   0.0000000   0.0000000   0.0000000   0.0000000
11.4831241    0.1973633  -0.2218081  -0.0863133  -0.0656355   0.0000000   0.0000000   0.0000000   0.0000000
11.6430313    0.1955007  -0.2193398  -0.0871452  -0.0649856   0.0000000   0.0000000   0.0000000   0.0000000
11.8051653    0.1938155  -0.2170321  -0.0879653  -0.0643474   0.0000000   0.0000000   0.0000000   0.0000000
11.9695570    0.1919219  -0.2146941  -0.0887654  -0.0636893   0.0000000   0.0000000   0.0000000   0.0000000
12.1362380    0.1901747  -0.2124676  -0.0895326  -0.0630290   0.0000000   0.0000000   0.0000000   0.0000000
12.3052400    0.1884858  -0.2101272  -0.0903203  -0.0623543   0.0000000   0.0000000   0.0000000   0.0000000
12.4765955    0.1867597  -0.2078251  -0.0910823  -0.0617084   0.0000000   0.0000000   0.0000000   0.0000000
12.6503372    0.1851882  -0.2056214  -0.0918298  -0.0610352   0.0000000   0.0000000   0.0000000   0.0000000
12.8264983    0.1835587  -0.2032597  -0.0925493  -0.0603581   0.0000000   0.0000000   0.0000000   0.0000000
13.0051125    0.1819848  -0.2010186  -0.0932810  -0.0596805   0.0000000   0.0000000   0.0000000   0.0000000
13.1862140    0.1805302  -0.1988054  -0.0939507  -0.0590142   0.0000000   0.0000000   0.0000000   0.0000000
13.3698374    0.1791337  -0.1965890  -0.0946430  -0.0583550   0.0000000   0.0000000   0.0000000   0.0000000
13.5560179    0.1776394  -0.1944922  -0.0953015  -0.0576702   0.0000000   0.0000000   0.0000000   0.0000000
13.7447909    0.1762700  -0.1922107  -0.0959544  -0.0569799   0.0000000   0.0000000   0.0000000   0.0000000
13.9361927    0.1748111  -0.1902003  -0.0965915  -0.0563177   0.0000000   0.0000000   0.0000000   0.0000000
14.1302599    0.1735743  -0.1880546  -0.0972295  -0.0556258   0.0000000   0.0000000   0.0000000   0.0000000
14.3270295    0.1721915  -0.1858928  -0.0978252  -0.0549457   0.0000000   0.0000000   0.0000000   0.0000000
14.5265393    0.1708657  -0.1837089  -0.0984174  -0.0542660   0.0000000   0.0000000   0.0000000   0.0000000
14.7288272    0.1696721  -0.1817275  -0.0990212  -0.0535815   0.0000000   0.0000000   0.0000000   0.0000000
14.9339322    0.1684441  -0.1796013  -0.0995832  -0.0528888   0.0000000   0.0000000   0.0000000   0.0000000
15.1418933    0.1672889  -0.1775352  -0.1001419  -0.0522245   0.0000000   0.0000000   0.0000000   0.0000000
15.3527503    0.1659877  -0.1755253  -0.1006914  -0.0515402   0.0000000   0.0000000   0.0000000   0.0000000
15.5665436    0.1649011  -0.1735393  -0.1012247  -0.0508519   0.0000000   0.0000000   0.0000000   0.0000000
15.7833141    0.1637909  -0.1715206  -0.1017434  -0.0501924   0.0000000   0.0000000   0.0000000   0.0000000
16.0031031    0.1626222  -0.1695389  -0.1022609  -0.0495148   0.0000000   0.0000000   0.0000000   0.0000000
16.2259529    0.1616363  -0.1677284  -0.1027649  -0.0488596   0.0000000   0.0000000   0.0000000   0.0000000
16.4519059    0.1605602  -0.1656526  -0.1032584  -0.0481589   0.0000000   0.0000000   0.0000000   0.0000000
16.6810054    0.1595889  -0.1637508  -0.1037382  -0.0474863   0.0000000   0.0000000   0.0000000   0.0000000
16.9132952    0.1584536  -0.1618232  -0.1041856  -0.0468176   0.0000000   0.0000000   0.0000000   0.0000000
17.1488197    0.1576368  -0.1599980  -0.1046538  -0.0461533   0.0000000   0.0000000   0.0000000   0.0000000
17.3876240    0.1566062  -0.1580859  -0.1051166  -0.0455000   0.0000000   0.0000000   0.0000000   0.0000000
17.6297538    0.1557140  -0.1563165  -0.1055448  -0.0448318   0.0000000   0.0000000   0.0000000   0.0000000
17.8752553    0.1547463  -0.1544207  -0.1059615  -0.0441823   0.0000000   0.0000000   0.0000000   0.0000000
18.1241755    0.1539393  -0.1525491  -0.1063726  -0.0435153   0.0000000   0.0000000   0.0000000   0.0000000
18.3765620    0.1530161  -0.1508536  -0.1067760  -0.0428593   0.0000000   0.0000000   0.0000000   0.0000000
18.6324631    0.1521892  -0.1490921  -0.1071851  -0.0422017   0.0000000   0.0000000   0.0000000   0.0000000
18.8919278    0.1513573  -0.1473293  -0.1075562  -0.0415542   0.0000000   0.0000000   0.0000000   0.0000000
19.1550056    0.1506476  -0.1455817  -0.1079122  -0.0409038   0.0000000   0.0000000   0.0000000   0.0000000
19.4217468    0.1497501  -0.1437730  -0.1082835  -0.0402497   0.0000000   0.0000000   0.0000000   0.0000000
19.6922026    0.1491121  -0.1421392  -0.1086665  -0.0396122   0.0000000   0.0000000   0.0000000   0.0000000
19.9664245    0.1482707  -0.1404872  -0.1089953  -0.0389695   0.0000000   0.0000000   0.0000000   0.0000000
20.2444651    0.1476218  -0.1388281  -0.1093722  -0.0383586   0.0000000   0.0000000   0.0000000   0.0000000
20.5263775    0.1468997  -0.1371923  -0.1096807  -0.0376997   0.0000000   0.0000000   0.0000000   0.0000000
20.8122157    0.1461045  -0.1356364  -0.1100182  -0.0370807   0.0000000   0.0000000   0.0000000   0.0000000
21.1020343    0.1454547  -0.1340095  -0.1103441  -0.0364406   0.0000000   0.0000000   0.0000000   0.0000000
21.3958887    0.1448092  -0.1324537  -0.1106661  -0.0358055   0.0000000   0.0000000   0.0000000   0.0000000
21.6938352    0.1442168  -0.1308997  -0.1109357  -0.0352029   0.0000000   0.0000000   0.0000000   0.0000000
21.9959307    0.1434948  -0.1293600  -0.1112526  -0.0345719   0.0000000   0.0000000   0.0000000   0.0000000
22.3022330    0.1428316  -0.1278981  -0.1115310  -0.0339612   0.0000000   0.0000000   0.0000000   0.0000000
22.6128007    0.1423009  -0.1264086  -0.1118020  -0.0333661   0.0000000   0.0000000   0.0000000   0.0000000
22.9276931    0.1417066  -0.1247700  -0.1121014  -0.0327290   0.0000000   0.0000000   0.0000000   0.0000000
23.2469706    0.1412550  -0.1233429  -0.1123761  -0.0321305   0.0000000   0.0000000   0.0000000   0.0000000
23.5706941    0.1405541  -0.1220334  -0.1126235  -0.0315199   0.0000000   0.0000000   0.0000000   0.0000000
23.8989257    0.1400312  -0.1204979  -0.1128693  -0.0309190   0.0000000   0.0000000   0.0000000   0.0000000
24.2317279    0.1395084  -0.1190579  -0.1131108  -0.0303123   0.0000000   0.0000000   0.0000000   0.0000000
24.5691646    0.1389586  -0.1176581  -0.1133601  -0.0297201   0.0000000   0.0000000   0.0000000   0.0000000
24.9113003    0.1384179  -0.1162440  -0.1135912  -0.0291364   0.0000000   0.0000000   0.0000000   0.0000000
25.2582003    0.1380104  -0.1149555  -0.1138270  -0.0285504   0.0000000   0.0000000   0.0000000   0.0000000
25.6099310    0.1376186  -0.1135751  -0.1140527  -0.0279556   0.0000000   0.0000000   0.0000000   0.0000000
25.9665597    0.1370901  -0.1123122  -0.1142655  -0.0273639   0.0000000   0.0000000   0.0000000   0.0000000
26.3281547    0.1366506  -0.1109241  -0.1144688  -0.0267730   0.0000000   0.0000000   0.0000000   0.0000000
26.6947849    0.1361385  -0.1096817  -0.1146745  -0.0261962   0.0000000   0.0000000   0.0000000   0.0000000
27.0665207    0.1355963  -0.1084101  -0.1148847  -0.0256072   0.0000000   0.0000000   0.0000000   0.0000000
27.4434330    0.1352490  -0.1071403  -0.1150657  -0.0250389   0.0000000   0.0000000   0.0000000   0.0000000
27.8255940    0.1347479  -0.1058036  -0.1152573  -0.0244960   0.0000000   0.0000000   0.0000000   0.0000000
28.2130768    0.1343785  -0.1045979  -0.1154403  -0.0238991   0.0000000   0.0000000   0.0000000   0.0000000
28.6059554    0.1340758  -0.1033553  -0.1156182  -0.0233446   0.0000000   0.0000000   0.0000000   0.0000000
29.0043049    0.1335889  -0.1021365  -0.1158232  -0.0227619   0.0000000   0.0000000   0.0000000   0.0000000
29.4082017    0.1331321  -0.1009889  -0.1159799  -0.0222116   0.0000000   0.0000000   0.0000000   0.0000000
29.8177229    0.1328594  -0.0999297  -0.1161462  -0.0216502   0.0000000   0.0000000   0.0000000   0.0000000
30.2329468    0.1325321  -0.0986858  -0.1162983  -0.0210889   0.0000000   0.0000000   0.0000000   0.0000000
30.6539530    0.1322211  -0.0975725  -0.1164757  -0.0205406   0.0000000   0.0000000   0.0000000   0.0000000
31.0808217    0.1318297  -0.0964212  -0.1166172  -0.0199794   0.0000000   0.0000000   0.0000000   0.0000000
31.5136348    0.1314863  -0.0953660  -0.1167626  -0.0194261   0.0000000   0.0000000   0.0000000   0.0000000
31.9524751    0.1311642  -0.0942091  -0.1169177  -0.0188979   0.0000000   0.0000000   0.0000000   0.0000000
32.3974263    0.1308645  -0.0931651  -0.1170504  -0.0183486   0.0000000   0.0000000   0.0000000   0.0000000
32.8485737    0.1305214  -0.0921211  -0.1171773  -0.0177993   0.0000000   0.0000000   0.0000000   0.0000000
33.3060034    0.1302844  -0.0911024  -0.1173240  -0.0172799   0.0000000   0.0000000   0.0000000   0.0000000
33.7698031    0.1299682  -0.0901016  -0.1174322  -0.0167266   0.0000000   0.0000000   0.0000000   0.0000000
34.2400614    0.1296743  -0.0890111  -0.1175708  -0.0161835   0.0000000   0.0000000   0.0000000   0.0000000
34.7168682    0.1293785  -0.0879980  -0.1177036  -0.0156350   0.0000000   0.0000000   0.0000000   0.0000000
35.2003147    0.1291003  -0.0869583  -0.1178307  -0.0150943   0.0000000   0.0000000   0.0000000   0.0000000
35.6904935    0.1289101  -0.0860513  -0.1179370  -0.0145643   0.0000000   0.0000000   0.0000000   0.0000000
36.1874981    0.1286455  -0.0851668  -0.1180391  -0.0140337   0.0000000   0.0000000   0.0000000   0.0000000
36.6914238    0.1283181  -0.0841328  -0.1181524  -0.0135111   0.0000000   0.0000000   0.0000000   0.0000000
37.2023668    0.1280659  -0.0832173  -0.1182471  -0.0129789   0.0000000   0.0000000   0.0000000   0.0000000
37.7204249    0.1277810  -0.0822720  -0.1183372  -0.0124477   0.0000000   0.0000000   0.0000000   0.0000000
38.2456972    0.1275471  -0.0814168  -0.1184438  -0.0119362   0.0000000   0.0000000   0.0000000   0.0000000
38.7782841    0.1274283  -0.0804390  -0.1185291  -0.0113990   0.0000000   0.0000000   0.0000000   0.0000000
39.3182876    0.1272056  -0.0796355  -0.1186322  -0.0108850   0.0000000   0.0000000   0.0000000   0.0000000
39.8658107    0.1270581  -0.0787489  -0.1187032  -0.0103521   0.0000000   0.0000000   0.0000000   0.0000000
40.4209584    0.1268518  -0.0779424  -0.1187757  -0.0098342   0.0000000   0.0000000   0.0000000   0.0000000
40.9838367    0.1265483  -0.0770828  -0.1188736  -0.0093240   0.0000000   0.0000000   0.0000000   0.0000000
41.5545533    0.1263250  -0.0763471  -0.1189654  -0.0088118   0.0000000   0.0000000   0.0000000   0.0000000
42.1332174    0.1261413  -0.0754335  -0.1190381  -0.0082776   0.0000000   0.0000000   0.0000000   0.0000000
42.7199397    0.1259301  -0.0746268  -0.1191131  -0.0077577   0.0000000   0.0000000   0.0000000   0.0000000
43.3148322    0.1257996  -0.0738267  -0.1191674  -0.0072415   0.0000000   0.0000000   0.0000000   0.0000000
43.9180089    0.1255954  -0.0731592  -0.1192305  -0.0067263   0.0000000   0.0000000   0.0000000   0.0000000
44.5295851    0.1254763  -0.0723673  -0.1193175  -0.0062004   0.0000000   0.0000000   0.0000000   0.0000000
45.1496777    0.1253257  -0.0716225  -0.1193488  -0.0056952   0.0000000   0.0000000   0.0000000   0.0000000
45.7784054    0.1251190  -0.0709034  -0.1194349  -0.0051736   0.0000000   0.0000000   0.0000000   0.0000000
46.4158883    0.1249642  -0.0701163  -0.1194909  -0.0046567   0.0000000   0.0000000   0.0000000   0.0000000
47.0622485    0.1248735  -0.0694883  -0.1195295  -0.0041418   0.0000000   0.0000000   0.0000000   0.0000000
47.7176095    0.1247141  -0.0686785  -0.1195786  -0.0036254   0.0000000   0.0000000   0.0000000   0.0000000
48.3820966    0.1245602  -0.0681305  -0.1196120  -0.0031049   0.0000000   0.0000000   0.0000000   0.0000000
49.0558371    0.1245190  -0.0673760  -0.1196662  -0.0026085   0.0000000   0.0000000   0.0000000   0.0000000
49.7389596    0.1242917  -0.0667627  -0.1197038  -0.0020740   0.0000000   0.0000000   0.0000000   0.0000000
50.4315949    0.1241938  -0.0661870  -0.1197430  -0.0015744   0.0000000   0.0000000   0.0000000   0.0000000
51.1338754    0.1240868  -0.0654963  -0.1197860  -0.0010568   0.0000000   0.0000000   0.0000000   0.0000000
51.8459354    0.1239988  -0.0647735  -0.1198105  -0.0005237   0.0000000   0.0000000   0.0000000   0.0000000
52.5679112    0.1238541  -0.0642705  -0.1198427  -0.0000137   0.0000000   0.0000000   0.0000000   0.0000000
53.2999408    0.1238806  -0.0636288  -0.1198767   0.0005098   0.0000000   0.0000000   0.0000000   0.0000000
54.0421642    0.1237236  -0.0631279  -0.1199067   0.0010369   0.0000000   0.0000000   0.0000000   0.0000000
54.7947234    0.1235743  -0.0624948  -0.1199326   0.0015546   0.0000000   0.0000000   0.0000000   0.0000000
55.5577622    0.1233922  -0.0619805  -0.1199344   0.0020568   0.0000000   0.0000000   0.0000000   0.0000000
56.3314267    0.1234543  -0.0614258  -0.1199560   0.0025756   0.0000000   0.0000000   0.0000000   0.0000000
57.1158648    0.1233809  -0.0609233  -0.1199622   0.0030992   0.0000000   0.0000000   0.0000000   0.0000000
57.9112265    0.1233455  -0.0603924  -0.1200049   0.0036332   0.0000000   0.0000000   0.0000000   0.0000000
58.7176639    0.1231322  -0.0599582  -0.1199917   0.0041437   0.0000000   0.0000000   0.0000000   0.0000000
59.5353313    0.1230309  -0.0594263  -0.1199898   0.0046880   0.0000000   0.0000000   0.0000000   0.0000000
60.3643851    0.1230997  -0.0590291  -0.1200241   0.0052283   0.0000000   0.0000000   0.0000000   0.0000000
61.2049837    0.1229603  -0.0584552  -0.1199955   0.0057367   0.0000000   0.0000000   0.0000000   0.0000000
62.0572881    0.1229619  -0.0580936  -0.1200182   0.0062893   0.0000000   0.0000000   0.0000000   0.0000000
62.9214611    0.1228859  -0.0576155  -0.1199794   0.0067984   0.0000000   0.0000000   0.0000000   0.0000000
63.7976681    0.1229350  -0.0572298  -0.1199773   0.0073371   0.0000000   0.0000000   0.0000000   0.0000000
64.6860766    0.1227459  -0.0568670  -0.1199843   0.0078780   0.0000000   0.0000000   0.0000000   0.0000000
65.5868566    0.1227844  -0.0564701  -0.1199870   0.0084209   0.0000000   0.0000000   0.0000000   0.0000000
66.5001803    0.1227157  -0.0560090  -0.1199443   0.0089616   0.0000000   0.0000000   0.0000000   0.0000000
67.4262224    0.1226758  -0.0556605  -0.1199348   0.0095003   0.0000000   0.0000000   0.0000000   0.0000000
68.3651600    0.1226673  -0.0553445  -0.1199114   0.0100535   0.0000000   0.0000000   0.0000000   0.0000000
69.3171728    0.1226198  -0.0549878  -0.1198919   0.0106218   0.0000000   0.0000000   0.0000000   0.0000000
70.2824426    0.1225579  -0.0547491  -0.1197839   0.0111640   0.0000000   0.0000000   0.0000000   0.0000000
71.2611543    0.1225483  -0.0545267  -0.1198277   0.0116627   0.0000000   0.0000000   0.0000000   0.0000000
72.2534949    0.1224884  -0.0542383  -0.1197847   0.0122452   0.0000000   0.0000000   0.0000000   0.0000000
73.2596543    0.1224413  -0.0538910  -0.1198054   0.0127810   0.0000000   0.0000000   0.0000000   0.0000000
74.2798248    0.1224311  -0.0535992  -0.1197008   0.0133838   0.0000000   0.0000000   0.0000000   0.0000000
75.3142017    0.1223446  -0.0533089  -0.1196545   0.0139297   0.0000000   0.0000000   0.0000000   0.0000000
76.3629826    0.1223327  -0.0532032  -0.1196138   0.0145237   0.0000000   0.0000000   0.0000000   0.0000000
77.4263683    0.1223196  -0.0530113  -0.1195641   0.0150896   0.0000000   0.0000000   0.0000000   0.0000000
78.5045620    0.1222529  -0.0527804  -0.1195181   0.0156403   0.0000000   0.0000000   0.0000000   0.0000000
79.5977700    0.1221873  -0.0525446  -0.1194527   0.0162229   0.0000000   0.0000000   0.0000000   0.0000000
80.7062014    0.1221748  -0.0524287  -0.1193799   0.0168161   0.0000000   0.0000000   0.0000000   0.0000000
81.8300682    0.1221589  -0.0522859  -0.1193099   0.0173741   0.0000000   0.0000000   0.0000000   0.0000000
82.9695852    0.1220579  -0.0521853  -0.1192530   0.0179609   0.0000000   0.0000000   0.0000000   0.0000000
84.1249705    0.1220504  -0.0520230  -0.1191490   0.0185609   0.0000000   0.0000000   0.0000000   0.0000000
85.2964450    0.1219246  -0.0519554  -0.1190886   0.0191271   0.0000000   0.0000000   0.0000000   0.0000000
86.4842328    0.1218292  -0.0517713  -0.1189948   0.0197492   0.0000000   0.0000000   0.0000000   0.0000000
87.6885609    0.1218110  -0.0517063  -0.1189069   0.0203697   0.0000000   0.0000000   0.0000000   0.0000000
88.9096599    0.1217418  -0.0516573  -0.1188134   0.0209549   0.0000000   0.0000000   0.0000000   0.0000000
90.1477631    0.1215863  -0.0516313  -0.1187037   0.0215665   0.0000000   0.0000000   0.0000000   0.0000000
91.4031075    0.1215736  -0.0516331  -0.1186053   0.0221705   0.0000000   0.0000000   0.0000000   0.0000000
92.6759330    0.1214612  -0.0515425  -0.1185115   0.0227874   0.0000000   0.0000000   0.0000000   0.0000000
93.9664831    0.1213422  -0.0514991  -0.1183908   0.0234138   0.0000000   0.0000000   0.0000000   0.0000000
95.2750047    0.1211806  -0.0515430  -0.1182759   0.0240299   0.0000000   0.0000000   0.0000000   0.0000000
96.6017480    0.1210419  -0.0515059  -0.1181570   0.0246562   0.0000000   0.0000000   0.0000000   0.0000000
97.9469667    0.1210021  -0.0515863  -0.1180370   0.0252959   0.0000000   0.0000000   0.0000000   0.0000000
99.3109181    0.1208572  -0.0515121  -0.1178813   0.0259043   0.0000000   0.0000000   0.0000000   0.0000000
100.6938631   0.1206561  -0.0516161  -0.1177388   0.0265688   0.0000000   0.0000000   0.0000000   0.0000000
102.0960662   0.1204601  -0.0516784  -0.1175846   0.0271957   0.0000000   0.0000000   0.0000000   0.0000000
103.5177956   0.1204706  -0.0516856  -0.1174513   0.0278482   0.0000000   0.0000000   0.0000000   0.0000000
104.9593231   0.1201517  -0.0517918  -0.1172849   0.0284739   0.0000000   0.0000000   0.0000000   0.0000000
106.4209244   0.1201625  -0.0518172  -0.1172098   0.0294777   0.0000000   0.0000000   0.0000000   0.0000000
107.9028792   0.1199185  -0.0518791  -0.1169948   0.0298569   0.0000000   0.0000000   0.0000000   0.0000000
109.4054707   0.1197467  -0.0518934  -0.1168043   0.0304167   0.0000000   0.0000000   0.0000000   0.0000000
110.9289865   0.1194351  -0.0519742  -0.1166135   0.0311290   0.0000000   0.0000000   0.0000000   0.0000000
112.4737178   0.1192123  -0.0521336  -0.1164230   0.0318019   0.0000000   0.0000000   0.0000000   0.0000000
114.0399602   0.1189825  -0.0521652  -0.1162340   0.0325058   0.0000000   0.0000000   0.0000000   0.0000000
115.6280131   0.1186979  -0.0522013  -0.1160315   0.0331470   0.0000000   0.0000000   0.0000000   0.0000000
117.2381803   0.1185932  -0.0523522  -0.1158325   0.0338507   0.0000000   0.0000000   0.0000000   0.0000000
118.8707698   0.1184376  -0.0523800  -0.1156386   0.0345596   0.0000000   0.0000000   0.0000000   0.0000000
120.5260937   0.1181460  -0.0524627  -0.1154010   0.0352334   0.0000000   0.0000000   0.0000000   0.0000000
122.2044687   0.1178728  -0.0525706  -0.1151877   0.0359492   0.0000000   0.0000000   0.0000000   0.0000000
123.9062157   0.1177101  -0.0526578  -0.1149609   0.0366596   0.0000000   0.0000000   0.0000000   0.0000000
125.6316602   0.1174676  -0.0528447  -0.1147438   0.0373493   0.0000000   0.0000000   0.0000000   0.0000000
127.3811323   0.1173610  -0.0530029  -0.1144876   0.0381275   0.0000000   0.0000000   0.0000000   0.0000000
129.1549665   0.1170248  -0.0529972  -0.1142440   0.0387849   0.0000000   0.0000000   0.0000000   0.0000000
130.9535020   0.1167927  -0.0530750  -0.1139538   0.0395259   0.0000000   0.0000000   0.0000000   0.0000000
132.7770829   0.1164759  -0.0531707  -0.1136926   0.0402545   0.0000000   0.0000000   0.0000000   0.0000000
134.6260579   0.1161479  -0.0532854  -0.1134378   0.0410215   0.0000000   0.0000000   0.0000000   0.0000000
136.5007807   0.1160329  -0.0534809  -0.1131755   0.0417540   0.0000000   0.0000000   0.0000000   0.0000000
138.4016097   0.1155148  -0.0536392  -0.1128790   0.0424756   0.0000000   0.0000000   0.0000000   0.0000000
140.3289085   0.1152687  -0.0536900  -0.1125792   0.0432647   0.0000000   0.0000000   0.0000000   0.0000000
142.2830457   0.1151543  -0.0537150  -0.1122245   0.0438935   0.0000000   0.0000000   0.0000000   0.0000000
144.2643951   0.1146964  -0.0538837  -0.1118969   0.0448799   0.0000000   0.0000000   0.0000000   0.0000000
146.2733356   0.1145953  -0.0541195  -0.1116660   0.0455441   0.0000000   0.0000000   0.0000000   0.0000000
148.3102514   0.1143674  -0.0542892  -0.1112926   0.0463542   0.0000000   0.0000000   0.0000000   0.0000000
150.3755321   0.1139743  -0.0542483  -0.1109481   0.0471584   0.0000000   0.0000000   0.0000000   0.0000000
152.4695727   0.1136324  -0.0544335  -0.1106079   0.0479860   0.0000000   0.0000000   0.0000000   0.0000000
154.5927736   0.1131988  -0.0545616  -0.1102767   0.0487756   0.0000000   0.0000000   0.0000000   0.0000000
156.7455410   0.1131571  -0.0547343  -0.1098410   0.0495725   0.0000000   0.0000000   0.0000000   0.0000000
158.9282866   0.1129098  -0.0548433  -0.1094658   0.0504021   0.0000000   0.0000000   0.0000000   0.0000000
161.1414277   0.1124650  -0.0544586  -0.1090941   0.0507994   0.0000000   0.0000000   0.0000000   0.0000000
163.3853878   0.1120036  -0.0551807  -0.1086250   0.0520655   0.0000000   0.0000000   0.0000000   0.0000000
165.6605959   0.1115670  -0.0551788  -0.1082317   0.0528907   0.0000000   0.0000000   0.0000000   0.0000000
167.9674872   0.1115692  -0.0553630  -0.1077648   0.0537564   0.0000000   0.0000000   0.0000000   0.0000000
170.3065029   0.1110356  -0.0554458  -0.1073621   0.0545702   0.0000000   0.0000000   0.0000000   0.0000000
172.6780904   0.1106024  -0.0556854  -0.1068947   0.0554500   0.0000000   0.0000000   0.0000000   0.0000000
175.0827032   0.1102561  -0.0557949  -0.1063987   0.0563010   0.0000000   0.0000000   0.0000000   0.0000000
177.5208012   0.1098220  -0.0560225  -0.1059544   0.0571714   0.0000000   0.0000000   0.0000000   0.0000000
179.9928507   0.1096009  -0.0560508  -0.1053275   0.0579832   0.0000000   0.0000000   0.0000000   0.0000000
182.4993245   0.1090922  -0.0563075  -0.1049131   0.0589937   0.0000000   0.0000000   0.0000000   0.0000000
185.0407020   0.1086349  -0.0564043  -0.1043457   0.0598505   0.0000000   0.0000000   0.0000000   0.0000000
187.6174691   0.1081371  -0.0566017  -0.1037829   0.0607154   0.0000000   0.0000000   0.0000000   0.0000000
190.2301189   0.1079761  -0.0564423  -0.1031882   0.0616080   0.0000000   0.0000000   0.0000000   0.0000000
192.8791508   0.1076677  -0.0568064  -0.1025880   0.0624906   0.0000000   0.0000000   0.0000000   0.0000000
195.5650716   0.1067942  -0.0568898  -0.1019753   0.0634049   0.0000000   0.0000000   0.0000000   0.0000000
198.2883949   0.1065185  -0.0571030  -0.1014427   0.0643969   0.0000000   0.0000000   0.0000000   0.0000000
201.0496416   0.1059521  -0.0571927  -0.1007807   0.0652794   0.0000000   0.0000000   0.0000000   0.0000000
203.8493398   0.1053268  -0.0571584  -0.1000185   0.0662082   0.0000000   0.0000000   0.0000000   0.0000000
206.6880250   0.1050140  -0.0574423  -0.0993758   0.0670864   0.0000000   0.0000000   0.0000000   0.0000000
209.5662399   0.1040982  -0.0575870  -0.0986439   0.0680385   0.0000000   0.0000000   0.0000000   0.0000000
212.4845352   0.1038771  -0.0567207  -0.0978363   0.0689405   0.0000000   0.0000000   0.0000000   0.0000000
215.4434690   0.1028095  -0.0568350  -0.0970024   0.0700958   0.0000000   0.0000000   0.0000000   0.0000000
218.4436071   0.1028328  -0.0570387  -0.0962884   0.0704982   0.0000000   0.0000000   0.0000000   0.0000000
221.4855234   0.1021023  -0.0566965  -0.0954699   0.0717165   0.0000000   0.0000000   0.0000000   0.0000000
224.5697996   0.1016232  -0.0564778  -0.0946255   0.0725513   0.0000000   0.0000000   0.0000000   0.0000000
227.6970255   0.1008757  -0.0559411  -0.0937341   0.0733123   0.0000000   0.0000000   0.0000000   0.0000000
230.8677994   0.1001346  -0.0562481  -0.0928730   0.0741766   0.0000000   0.0000000   0.0000000   0.0000000
234.0827276   0.0997916  -0.0561026  -0.0918932   0.0751161   0.0000000   0.0000000   0.0000000   0.0000000
237.3424250   0.0988565  -0.0549635  -0.0910300   0.0758601   0.0000000   0.0000000   0.0000000   0.0000000
240.6475150   0.0982950  -0.0544724  -0.0901836   0.0767126   0.0000000   0.0000000   0.0000000   0.0000000
243.9986297   0.0984328  -0.0545234  -0.0891807   0.0776167   0.0000000   0.0000000   0.0000000   0.0000000
247.3964101   0.0974530  -0.0538560  -0.0882904   0.0783645   0.0000000   0.0000000   0.0000000   0.0000000
250.8415059   0.0959141  -0.0532410  -0.0871116   0.0791959   0.0000000   0.0000000   0.0000000   0.0000000
254.3345761   0.0964369  -0.0518878  -0.0861967   0.0798549   0.0000000   0.0000000   0.0000000   0.0000000
257.8762888   0.0950189  -0.0515881  -0.0855304   0.0807904   0.0000000   0.0000000   0.0000000   0.0000000
261.4673212   0.0957671  -0.0511607  -0.0845763   0.0813961   0.0000000   0.0000000   0.0000000   0.0000000
265.1083602   0.0937008  -0.0503442  -0.0836558   0.0822454   0.0000000   0.0000000   0.0000000   0.0000000
268.8001022   0.0940582  -0.0488821  -0.0823073   0.0829533   0.0000000   0.0000000   0.0000000   0.0000000
272.5432531   0.0939708  -0.0478998  -0.0813630   0.0835035   0.0000000   0.0000000   0.0000000   0.0000000
276.3385290   0.0933694  -0.0470818  -0.0809885   0.0842222   0.0000000   0.0000000   0.0000000   0.0000000
280.1866556   0.0944604  -0.0457432  -0.0796463   0.0852762   0.0000000   0.0000000   0.0000000   0.0000000
284.0883690   0.0906163  -0.0433394  -0.0784248   0.0858067   0.0000000   0.0000000   0.0000000   0.0000000
288.0444153   0.0941631  -0.0469711  -0.0776530   0.0870490   0.0000000   0.0000000   0.0000000   0.0000000
292.0555512   0.0931420  -0.0427133  -0.0764089   0.0871790   0.0000000   0.0000000   0.0000000   0.0000000
296.1225438   0.0925282  -0.0414569  -0.0756430   0.0888572   0.0000000   0.0000000   0.0000000   0.0000000
300.2461709   0.0904518  -0.0406350  -0.0744871   0.0897494   0.0000000   0.0000000   0.0000000   0.0000000
304.4272212   0.0925225  -0.0427903  -0.0745324   0.0896112   0.0000000   0.0000000   0.0000000   0.0000000
308.6664943   0.0883231  -0.0340292  -0.0722072   0.0908577   0.0000000   0.0000000   0.0000000   0.0000000
312.9648011   0.0876504  -0.0445469  -0.0731480   0.0929083   0.0000000   0.0000000   0.0000000   0.0000000
317.3229635   0.1048864  -0.0336665  -0.0717135   0.0970376   0.0000000   0.0000000   0.0000000   0.0000000
321.7418151   0.0246141  -0.0172291  -0.0629973   0.1035219   0.0000000   0.0000000   0.0000000   0.0000000
326.2222010   0.1246665   0.0056622  -0.1005627   0.0979367   0.0000000   0.0000000   0.0000000   0.0000000
330.7649781   0.1000598  -0.0648683  -0.0650054   0.0892712   0.0000000   0.0000000   0.0000000   0.0000000
335.3710152   0.1032260  -0.0141781  -0.0674361   0.0938570   0.0000000   0.0000000   0.0000000   0.0000000
340.0411933   0.1102841  -0.0467989  -0.0624678   0.0922945   0.0000000   0.0000000   0.0000000   0.0000000
344.7764055   0.1022121  -0.0384291  -0.0637410   0.0906751   0.0000000   0.0000000   0.0000000   0.0000000
349.5775574   0.1232505  -0.0338947  -0.0630914   0.0855933   0.0000000   0.0000000   0.0000000   0.0000000
354.4455674   0.0957971   0.0049817  -0.0659365   0.0867601   0.0000000   0.0000000   0.0000000   0.0000000
359.3813664   0.1345251  -0.0412054  -0.0925502   0.0713840   0.0000000   0.0000000   0.0000000   0.0000000
364.3858984   0.1197538  -0.0321056  -0.0812305   0.1230899   0.0000000   0.0000000   0.0000000   0.0000000
369.4601205   0.1003648  -0.0541921  -0.0658178   0.1175347   0.0000000   0.0000000   0.0000000   0.0000000
374.6050033   0.0891083  -0.0419128  -0.0599363   0.1089541   0.0000000   0.0000000   0.0000000   0.0000000
379.8215306   0.0935245  -0.0461529  -0.0556160   0.1101485   0.0000000   0.0000000   0.0000000   0.0000000
385.1107002   0.1002421  -0.0359861  -0.0519936   0.1083042   0.0000000   0.0000000   0.0000000   0.0000000
390.4735237   0.0953734  -0.0407746  -0.0526837   0.1077210   0.0000000   0.0000000   0.0000000   0.0000000
395.9110266   0.1016144  -0.0456990  -0.0495100   0.1089222   0.0000000   0.0000000   0.0000000   0.0000000
401.4242490   0.1013693  -0.0440452  -0.0492948   0.1087720   0.0000000   0.0000000   0.0000000   0.0000000
407.0142453   0.0987560  -0.0409295  -0.0471300   0.1093068   0.0000000   0.0000000   0.0000000   0.0000000
412.6820846   0.1055156  -0.0451494  -0.0446482   0.1110233   0.0000000   0.0000000   0.0000000   0.0000000
418.4288508   0.1050835  -0.0462791  -0.0431030   0.1111993   0.0000000   0.0000000   0.0000000   0.0000000
424.2556431   0.1004080  -0.0465413  -0.0413927   0.1113923   0.0000000   0.0000000   0.0000000   0.0000000
430.1635758   0.1010703  -0.0478588  -0.0381698   0.1079454   0.0000000   0.0000000   0.0000000   0.0000000
436.1537789   0.1022120  -0.0496002  -0.0368328   0.1129996   0.0000000   0.0000000   0.0000000   0.0000000
442.2273981   0.1037115  -0.0515803  -0.0344221   0.1143265   0.0000000   0.0000000   0.0000000   0.0000000
448.3855948   0.1047707  -0.0542498  -0.0322586   0.1143414   0.0000000   0.0000000   0.0000000   0.0000000
454.6295470   0.1032762  -0.0559885  -0.0302718   0.1154653   0.0000000   0.0000000   0.0000000   0.0000000
460.9604487   0.1027174  -0.0588860  -0.0280809   0.1158722   0.0000000   0.0000000   0.0000000   0.0000000
467.3795108   0.1020321  -0.0630917  -0.0238179   0.1149804   0.0000000   0.0000000   0.0000000   0.0000000
473.8879610   0.1038052  -0.0611487  -0.0233113   0.1166205   0.0000000   0.0000000   0.0000000   0.0000000
480.4870440   0.1029675  -0.0641867  -0.0210475   0.1169595   0.0000000   0.0000000   0.0000000   0.0000000
487.1780219   0.1022238  -0.0661592  -0.0174874   0.1171931   0.0000000   0.0000000   0.0000000   0.0000000
493.9621744   0.1043207  -0.0697150  -0.0157006   0.1181225   0.0000000   0.0000000   0.0000000   0.0000000
500.8407990   0.1040960  -0.0720685  -0.0132831   0.1186926   0.0000000   0.0000000   0.0000000   0.0000000
507.8152112   0.1046987  -0.0743267  -0.0108090   0.1190870   0.0000000   0.0000000   0.0000000   0.0000000
514.8867450   0.1059184  -0.0762904  -0.0076077   0.1195858   0.0000000   0.0000000   0.0000000   0.0000000
522.0567528   0.1035515  -0.0814724  -0.0035088   0.1204002   0.0000000   0.0000000   0.0000000   0.0000000
529.3266058   0.1039374  -0.0832417  -0.0014161   0.1201391   0.0000000   0.0000000   0.0000000   0.0000000
536.6976946   0.1057627  -0.0837939   0.0008355   0.1209702   0.0000000   0.0000000   0.0000000   0.0000000
544.1714287   0.1070039  -0.0843356   0.0038662   0.1206067   0.0000000   0.0000000   0.0000000   0.0000000
551.7492376   0.1067723  -0.0897966   0.0073733   0.1203960   0.0000000   0.0000000   0.0000000   0.0000000
559.4325706   0.1060149  -0.0903788   0.0103117   0.1206241   0.0000000   0.0000000   0.0000000   0.0000000
567.2228972   0.1082942  -0.0920988   0.0140911   0.1206944   0.0000000   0.0000000   0.0000000   0.0000000
575.1217072   0.1085328  -0.0912578   0.0198145   0.1217190   0.0000000   0.0000000   0.0000000   0.0000000
583.1305114   0.1076506  -0.0971907   0.0211019   0.1200854   0.0000000   0.0000000   0.0000000   0.0000000
591.2508414   0.1146730  -0.0984695   0.0242214   0.1189271   0.0000000   0.0000000   0.0000000   0.0000000
599.4842503   0.1123113  -0.1042161   0.0254889   0.1180908   0.0000000   0.0000000   0.0000000   0.0000000
607.8323128   0.1088320  -0.0968016   0.0312141   0.1181569   0.0000000   0.0000000   0.0000000   0.0000000
616.2966255   0.1136690  -0.1058712   0.0360605   0.1158814   0.0000000   0.0000000   0.0000000   0.0000000
624.8788072   0.1046578  -0.0942066   0.0369316   0.1154379   0.0000000   0.0000000   0.0000000   0.0000000
633.5804993   0.1402604  -0.0957288   0.0422878   0.1144849   0.0000000   0.0000000   0.0000000   0.0000000
642.4033659   0.1807270  -0.0013517   0.0443277   0.1188123   0.0000000   0.0000000   0.0000000   0.0000000
651.3490946   0.0702974  -0.0767964  -0.0358095   0.1774571   0.0000000   0.0000000   0.0000000   0.0000000
660.4193962   0.0741083  -0.0727817   0.0129889   0.1227530   0.0000000   0.0000000   0.0000000   0.0000000
669.6160055   0.0979215  -0.1153561   0.0356199   0.1183405   0.0000000   0.0000000   0.0000000   0.0000000
678.9406813   0.0716653  -0.0742659   0.0335918   0.1150900   0.0000000   0.0000000   0.0000000   0.0000000
688.3952070   0.0856674  -0.0785676   0.0403736   0.1219699   0.0000000   0.0000000   0.0000000   0.0000000
697.9813908   0.0874132  -0.0695520   0.0337166   0.1152166   0.0000000   0.0000000   0.0000000   0.0000000
707.7010661   0.0513031  -0.0419917   0.0234816   0.1635072   0.0000000   0.0000000   0.0000000   0.0000000
717.5560919   0.1109229  -0.0356429   0.2722544   0.3139574   0.0000000   0.0000000   0.0000000   0.0000000
727.5483529   0.1861424  -0.0701176   0.1328529   0.0878948   0.0000000   0.0000000   0.0000000   0.0000000
737.6797603   0.1654460  -0.0844601   0.0998038   0.0870069   0.0000000   0.0000000   0.0000000   0.0000000
747.9522516   0.1012018  -0.1083413   0.0944399   0.0847396   0.0000000   0.0000000   0.0000000   0.0000000
758.3677915   0.1171514  -0.1112499   0.0844274   0.0856251   0.0000000   0.0000000   0.0000000   0.0000000
768.9283721   0.0971026  -0.1256437   0.0914170   0.0835712   0.0000000   0.0000000   0.0000000   0.0000000
779.6360130   0.0989804  -0.1262990   0.0946857   0.0838422   0.0000000   0.0000000   0.0000000   0.0000000
790.4927623   0.0997021  -0.1229372   0.0829692   0.0808029   0.0000000   0.0000000   0.0000000   0.0000000
801.5006962   0.0787362  -0.1518525   0.0941687   0.0788971   0.0000000   0.0000000   0.0000000   0.0000000
812.6619200   0.0739264  -0.1421044   0.0974372   0.0761061   0.0000000   0.0000000   0.0000000   0.0000000
823.9785685   0.0617555  -0.1410328   0.0989279   0.0739709   0.0000000   0.0000000   0.0000000   0.0000000
835.4528058   0.0500510  -0.1419743   0.0992682   0.0710728   0.0000000   0.0000000   0.0000000   0.0000000
847.0868267   0.0415346  -0.1237893   0.1322545   0.0641365   0.0000000   0.0000000   0.0000000   0.0000000
858.8828560   0.0445454  -0.1495794   0.1005596   0.0639695   0.0000000   0.0000000   0.0000000   0.0000000
870.8431498   0.0464696  -0.1384619   0.0984173   0.0613442   0.0000000   0.0000000   0.0000000   0.0000000
882.9699955   0.0421594  -0.1527216   0.1062847   0.0578379   0.0000000   0.0000000   0.0000000   0.0000000
895.2657126   0.0251131  -0.1502055   0.1019689   0.0530131   0.0000000   0.0000000   0.0000000   0.0000000
907.7326525   0.0181536  -0.1704870   0.1004542   0.0489518   0.0000000   0.0000000   0.0000000   0.0000000
920.3731997  -0.0014137  -0.1711118   0.1018573   0.0444790   0.0000000   0.0000000   0.0000000   0.0000000
933.1897716   0.0084567  -0.1933838   0.0967635   0.0395538   0.0000000   0.0000000   0.0000000   0.0000000
946.1848195  -0.0044482  -0.1490699   0.1014006   0.0339927   0.0000000   0.0000000   0.0000000   0.0000000
959.3608287  -0.0227129  -0.1977746   0.1129950   0.0261902   0.0000000   0.0000000   0.0000000   0.0000000
972.7203192   0.0098923  -0.2318525   0.1092738   0.0260765   0.0000000   0.0000000   0.0000000   0.0000000
986.2658461  -0.0971515  -0.3805899   0.0929197   0.0213932   0.0000000   0.0000000   0.0000000   0.0000000
1000.0000000  -0.1005055  -0.2213704   0.0900417   0.0203037   0.0000000   0.0000000   0.0000000   0.0000000
