! ListType=Log
# MHZ S RI R 50
0.0010000    -0.9982882  -0.0008222   0.0000295  -0.0000329  -0.0000115  -0.0000299  -0.9088780   0.2599563
0.0010123    -0.9984902  -0.0005942   0.0000351   0.0000048   0.0000121  -0.0000287  -0.9094622   0.2603417
0.0010247    -0.9988383  -0.0011336   0.0000289  -0.0000279  -0.0000157   0.0000266  -0.9095897   0.2591301
0.0010373    -0.9989668  -0.0009979   0.0000146  -0.0000148  -0.0000085  -0.0000056  -0.9097936   0.2598523
0.0010501    -0.9987163  -0.0006267   0.0000051   0.0000173  -0.0000136  -0.0000118  -0.9091506   0.2596915
0.0010630    -0.9991789  -0.0012299   0.0000000   0.0000019   0.0000229   0.0000125  -0.9105505   0.2595735
0.0010761    -0.9991187  -0.0009823   0.0000195  -0.0000436  -0.0000149   0.0000095  -0.9107037   0.2587981
0.0010893    -0.9987064  -0.0011533   0.0000428  -0.0000036   0.0000198  -0.0000037  -0.9110865   0.2599258
0.0011027    -0.9987265  -0.0009275   0.0000101   0.0000213   0.0000030  -0.0000187  -0.9110775   0.2587990
0.0011162    -0.9991121  -0.0007358   0.0000147   0.0000337  -0.0000056   0.0000030  -0.9120701   0.2584382
0.0011300    -0.9986965  -0.0011099   0.0000201  -0.0000001  -0.0000259  -0.0000173  -0.9112969   0.2587179
0.0011439    -0.9982026  -0.0007582   0.0000344   0.0000012   0.0000190  -0.0000020  -0.9120502   0.2590832
0.0011579    -0.9989246  -0.0008927  -0.0000012   0.0000211  -0.0000080   0.0000011  -0.9120575   0.2578675
0.0011721    -0.9989785  -0.0010610   0.0000230  -0.0000053   0.0000114  -0.0000118  -0.9124015   0.2585311
0.0011866    -0.9986136  -0.0010360   0.0000372  -0.0000038  -0.0000454  -0.0000152  -0.9122040   0.2582435
0.0012011    -0.9984743  -0.0012546   0.0000178  -0.0000121  -0.0000151   0.0000003  -0.9128818   0.2582597
0.0012159    -0.9986760  -0.0009076   0.0000128  -0.0000324   0.0000208   0.0000031  -0.9136437   0.2584854
0.0012309    -0.9985643  -0.0009476   0.0000161   0.0000130   0.0000094   0.0000109  -0.9137401   0.2577885
0.0012460    -0.9986841  -0.0008990   0.0000427  -0.0000128  -0.0000062  -0.0000060  -0.9134154   0.2581256
0.0012613    -0.9988437  -0.0007936   0.0000183  -0.0000038   0.0000269  -0.0000021  -0.9147353   0.2579363
0.0012768    -0.9987540  -0.0009136   0.0000060   0.0000105  -0.0000207   0.0000053  -0.9141770   0.2576231
0.0012925    -0.9986727  -0.0005677   0.0000194  -0.0000028   0.0000140   0.0000076  -0.9151106   0.2580592
0.0013084    -0.9986888  -0.0009337  -0.0000045  -0.0000211  -0.0000049   0.0000097  -0.9149123   0.2575421
0.0013245    -0.9989336  -0.0007247   0.0000051  -0.0000245   0.0000181  -0.0000016  -0.9155488   0.2580240
0.0013408    -0.9985034  -0.0010873   0.0000351  -0.0000149   0.0000024  -0.0000096  -0.9153819   0.2572752
0.0013572    -0.9989135  -0.0006390   0.0000165  -0.0000077   0.0000187   0.0000077  -0.9163567   0.2576933
0.0013739    -0.9986364  -0.0008735   0.0000111   0.0000142   0.0000133   0.0000164  -0.9162218   0.2575399
0.0013908    -0.9988716  -0.0008428   0.0000085   0.0000010   0.0000136   0.0000045  -0.9169530   0.2576089
0.0014079    -0.9986312  -0.0008519   0.0000499   0.0000140  -0.0000214  -0.0000005  -0.9167295   0.2573538
0.0014252    -0.9988552  -0.0009407   0.0000185   0.0000000   0.0000186   0.0000247  -0.9176592   0.2572531
0.0014427    -0.9983815  -0.0006266   0.0000092  -0.0000030  -0.0000097  -0.0000156  -0.9173659   0.2571991
0.0014605    -0.9990641  -0.0007988   0.0000195   0.0000223   0.0000009  -0.0000180  -0.9180822   0.2573986
0.0014784    -0.9988046  -0.0008363   0.0000275  -0.0000133  -0.0000049   0.0000082  -0.9178605   0.2569127
0.0014966    -0.9989268  -0.0007133   0.0000120  -0.0000123   0.0000002  -0.0000287  -0.9186111   0.2574162
0.0015150    -0.9990979  -0.0007197   0.0000071   0.0000162   0.0000270   0.0000241  -0.9189818   0.2573396
0.0015336    -0.9990348  -0.0007677   0.0000235   0.0000223  -0.0000074  -0.0000028  -0.9190102   0.2570696
0.0015525    -0.9988941  -0.0008766   0.0000308  -0.0000235  -0.0000076  -0.0000167  -0.9190290   0.2573496
0.0015716    -0.9986550  -0.0007246   0.0000164  -0.0000173   0.0000126  -0.0000211  -0.9196280   0.2571869
0.0015909    -0.9987523  -0.0008975   0.0000197  -0.0000063   0.0000100  -0.0000345  -0.9199847   0.2575694
0.0016104    -0.9988524  -0.0012269   0.0000194   0.0000029  -0.0000243   0.0000094  -0.9203199   0.2569523
0.0016302    -0.9988464  -0.0010077   0.0000361  -0.0000028   0.0000135  -0.0000063  -0.9203642   0.2573044
0.0016503    -0.9986930  -0.0008697   0.0000097  -0.0000041   0.0000088  -0.0000100  -0.9213751   0.2574882
0.0016706    -0.9990614  -0.0009183   0.0000157  -0.0000076   0.0000033  -0.0000045  -0.9211996   0.2574022
0.0016911    -0.9990261  -0.0008042   0.0000216  -0.0000053  -0.0000210  -0.0000159  -0.9218180   0.2570958
0.0017119    -0.9992394  -0.0007790   0.0000156   0.0000014  -0.0000161  -0.0000298  -0.9218589   0.2574357
0.0017329    -0.9989526  -0.0008179   0.0000172  -0.0000035  -0.0000031   0.0000134  -0.9220861   0.2573962
0.0017542    -0.9988185  -0.0011296   0.0000322   0.0000052   0.0000071   0.0000175  -0.9225671   0.2571541
0.0017758    -0.9989794  -0.0010430   0.0000356   0.0000136  -0.0000018  -0.0000029  -0.9227763   0.2574617
0.0017976    -0.9988989  -0.0008259   0.0000213  -0.0000121   0.0000059  -0.0000063  -0.9233452   0.2574793
0.0018197    -0.9989414  -0.0010509   0.0000240  -0.0000013  -0.0000150  -0.0000040  -0.9231438   0.2573279
0.0018421    -0.9990574  -0.0008396   0.0000417   0.0000008   0.0000151  -0.0000070  -0.9238326   0.2577191
0.0018648    -0.9991302  -0.0009648   0.0000022  -0.0000097  -0.0000028   0.0000040  -0.9239003   0.2574820
0.0018877    -0.9990521  -0.0011128   0.0000245   0.0000053  -0.0000105  -0.0000158  -0.9239804   0.2577066
0.0019109    -0.9990831  -0.0009289   0.0000162   0.0000160  -0.0000036   0.0000066  -0.9248491   0.2579357
0.0019344    -0.9992289  -0.0011538   0.0000341  -0.0000140  -0.0000050  -0.0000064  -0.9247153   0.2577397
0.0019582    -0.9990271  -0.0010137   0.0000007   0.0000010   0.0000018  -0.0000051  -0.9248236   0.2579512
0.0019822    -0.9988846  -0.0008159   0.0000209  -0.0000037   0.0000061   0.0000007  -0.9256894   0.2580907
0.0020066    -0.9990391  -0.0009226   0.0000139  -0.0000105   0.0000030   0.0000010  -0.9257598   0.2582423
0.0020313    -0.9992231  -0.0009705   0.0000000   0.0000136   0.0000072   0.0000076  -0.9261621   0.2581689
0.0020562    -0.9989929  -0.0008919   0.0000263   0.0000111  -0.0000161  -0.0000018  -0.9265384   0.2580705
0.0020815    -0.9992125  -0.0008593   0.0000152   0.0000205   0.0000003  -0.0000015  -0.9265952   0.2584793
0.0021071    -0.9990650  -0.0009269   0.0000091  -0.0000062  -0.0000104  -0.0000033  -0.9270215   0.2585237
0.0021330    -0.9989783  -0.0007833   0.0000173  -0.0000084  -0.0000010  -0.0000229  -0.9272019   0.2587586
0.0021592    -0.9990600  -0.0007028   0.0000206  -0.0000015  -0.0000025  -0.0000190  -0.9277383   0.2588852
0.0021858    -0.9991434  -0.0009536   0.0000270  -0.0000064  -0.0000026  -0.0000044  -0.9279115   0.2586740
0.0022126    -0.9992155  -0.0008316   0.0000149  -0.0000048  -0.0000054  -0.0000144  -0.9280733   0.2590422
0.0022398    -0.9991064  -0.0008965   0.0000056  -0.0000022  -0.0000122   0.0000062  -0.9283379   0.2590142
0.0022674    -0.9990859  -0.0008283   0.0000296  -0.0000020   0.0000047  -0.0000181  -0.9287816   0.2593020
0.0022953    -0.9993761  -0.0007559   0.0000040  -0.0000119   0.0000060  -0.0000025  -0.9290308   0.2594769
0.0023235    -0.9991553  -0.0007288   0.0000279   0.0000183  -0.0000061  -0.0000002  -0.9294341   0.2594680
0.0023520    -0.9992270  -0.0008876   0.0000190   0.0000004  -0.0000078  -0.0000054  -0.9292532   0.2594361
0.0023809    -0.9990741  -0.0007623   0.0000372  -0.0000059  -0.0000079   0.0000077  -0.9299422   0.2596373
0.0024102    -0.9992855  -0.0009322   0.0000218  -0.0000095   0.0000131   0.0000064  -0.9298942   0.2598229
0.0024398    -0.9991701  -0.0009326   0.0000274   0.0000011   0.0000033   0.0000032  -0.9303333   0.2599209
0.0024698    -0.9992342  -0.0009265   0.0000103   0.0000027   0.0000079  -0.0000170  -0.9305707   0.2602177
0.0025002    -0.9992280  -0.0008426   0.0000214   0.0000016  -0.0000013  -0.0000042  -0.9307198   0.2603729
0.0025309    -0.9990432  -0.0008345   0.0000389  -0.0000028  -0.0000087  -0.0000112  -0.9309336   0.2606611
0.0025621    -0.9991493  -0.0008051   0.0000227   0.0000015   0.0000070  -0.0000087  -0.9313972   0.2606534
0.0025935    -0.9993147  -0.0008424   0.0000181  -0.0000065  -0.0000057  -0.0000035  -0.9316742   0.2605261
0.0026254    -0.9993647  -0.0008072   0.0000223  -0.0000062  -0.0000042  -0.0000026  -0.9317934   0.2605545
0.0026577    -0.9993008  -0.0007948   0.0000280  -0.0000092  -0.0000107  -0.0000105  -0.9319015   0.2609742
0.0026904    -0.9992410  -0.0008782   0.0000077   0.0000059  -0.0000128  -0.0000062  -0.9320964   0.2613407
0.0027235    -0.9993542  -0.0008635   0.0000261  -0.0000236  -0.0000013  -0.0000137  -0.9327563   0.2611832
0.0027569    -0.9992873  -0.0008436   0.0000423   0.0000025  -0.0000088  -0.0000033  -0.9327095   0.2612955
0.0027908    -0.9993151  -0.0009229   0.0000070   0.0000092   0.0000059  -0.0000083  -0.9327881   0.2617246
0.0028251    -0.9992884  -0.0008791   0.0000341   0.0000057   0.0000069   0.0000018  -0.9332618   0.2618815
0.0028599    -0.9993767  -0.0009267   0.0000253  -0.0000135  -0.0000022   0.0000010  -0.9334185   0.2618729
0.0028950    -0.9994869  -0.0008357   0.0000281   0.0000036   0.0000031   0.0000025  -0.9336124   0.2618484
0.0029306    -0.9994583  -0.0008589   0.0000126  -0.0000045  -0.0000042  -0.0000190  -0.9337557   0.2620064
0.0029666    -0.9994071  -0.0008221   0.0000330  -0.0000050   0.0000131  -0.0000065  -0.9339990   0.2622600
0.0030031    -0.9993486  -0.0009991   0.0000286   0.0000051  -0.0000049   0.0000133  -0.9341076   0.2625548
0.0030400    -0.9994657  -0.0008075   0.0000209  -0.0000045  -0.0000027  -0.0000165  -0.9343379   0.2628196
0.0030774    -0.9993110  -0.0008346   0.0000404   0.0000044  -0.0000097  -0.0000045  -0.9345217   0.2629743
0.0031152    -0.9993693  -0.0007904   0.0000287  -0.0000117   0.0000102   0.0000018  -0.9348862   0.2629809
0.0031535    -0.9994754  -0.0007497   0.0000304  -0.0000086  -0.0000035  -0.0000120  -0.9349260   0.2633534
0.0031923    -0.9992856  -0.0008401   0.0000215   0.0000120   0.0000126  -0.0000124  -0.9353236   0.2634966
0.0032315    -0.9992950  -0.0008480   0.0000285  -0.0000035  -0.0000004  -0.0000064  -0.9355121   0.2636469
0.0032713    -0.9993330  -0.0009417   0.0000208  -0.0000023   0.0000023  -0.0000089  -0.9356770   0.2636865
0.0033115    -0.9993338  -0.0009324   0.0000120   0.0000023   0.0000084  -0.0000006  -0.9357024   0.2639999
0.0033522    -0.9993637  -0.0008829   0.0000248  -0.0000125  -0.0000109  -0.0000057  -0.9360229   0.2644064
0.0033934    -0.9994542  -0.0007156   0.0000174   0.0000028   0.0000014   0.0000021  -0.9362628   0.2642656
0.0034351    -0.9995232  -0.0008035   0.0000138   0.0000020  -0.0000013   0.0000084  -0.9364516   0.2645556
0.0034773    -0.9994289  -0.0006012   0.0000246  -0.0000168   0.0000084  -0.0000086  -0.9364323   0.2647053
0.0035201    -0.9995410  -0.0007010   0.0000387  -0.0000101   0.0000056  -0.0000029  -0.9367876   0.2648143
0.0035634    -0.9995515  -0.0007531   0.0000312  -0.0000100   0.0000070  -0.0000048  -0.9368663   0.2649771
0.0036072    -0.9994917  -0.0006765   0.0000155   0.0000030  -0.0000008  -0.0000046  -0.9369396   0.2652301
0.0036515    -0.9995060  -0.0007231   0.0000322   0.0000011  -0.0000051   0.0000044  -0.9372120   0.2655556
0.0036964    -0.9995258  -0.0008749   0.0000199   0.0000035  -0.0000114   0.0000007  -0.9371598   0.2658447
0.0037418    -0.9995268  -0.0007007   0.0000079   0.0000158   0.0000014  -0.0000077  -0.9373776   0.2659021
0.0037878    -0.9994171  -0.0006952   0.0000230  -0.0000003   0.0000009  -0.0000191  -0.9374859   0.2660117
0.0038344    -0.9994871  -0.0006969   0.0000289  -0.0000044   0.0000059  -0.0000063  -0.9376847   0.2663411
0.0038815    -0.9994364  -0.0006700   0.0000260  -0.0000147  -0.0000009   0.0000041  -0.9378065   0.2664228
0.0039293    -0.9994260  -0.0008116   0.0000246  -0.0000139   0.0000049  -0.0000071  -0.9379777   0.2663981
0.0039776    -0.9994924  -0.0006845   0.0000281   0.0000018  -0.0000018  -0.0000120  -0.9381920   0.2668196
0.0040265    -0.9995782  -0.0008112   0.0000214   0.0000032   0.0000000   0.0000014  -0.9383100   0.2667670
0.0040759    -0.9993819  -0.0006956   0.0000247  -0.0000015  -0.0000007   0.0000008  -0.9384242   0.2671272
0.0041261    -0.9995926  -0.0005899   0.0000204  -0.0000087   0.0000015  -0.0000048  -0.9385339   0.2672093
0.0041768    -0.9995350  -0.0006314   0.0000133   0.0000186  -0.0000009   0.0000009  -0.9387328   0.2675105
0.0042281    -0.9994376  -0.0005591   0.0000161  -0.0000057   0.0000064  -0.0000054  -0.9388509   0.2677209
0.0042801    -0.9995418  -0.0005992   0.0000293   0.0000032   0.0000041  -0.0000002  -0.9389324   0.2679158
0.0043327    -0.9996445  -0.0006446   0.0000268  -0.0000037  -0.0000035  -0.0000042  -0.9390299   0.2683019
0.0043860    -0.9994687  -0.0007963   0.0000226  -0.0000083  -0.0000025   0.0000091  -0.9392749   0.2683077
0.0044399    -0.9994490  -0.0006280   0.0000306   0.0000014   0.0000007  -0.0000043  -0.9393379   0.2684832
0.0044945    -0.9997423  -0.0006979   0.0000258   0.0000042  -0.0000065  -0.0000034  -0.9394909   0.2686169
0.0045497    -0.9995611  -0.0007529   0.0000201   0.0000075  -0.0000109  -0.0000034  -0.9394766   0.2688047
0.0046057    -0.9994767  -0.0006090   0.0000077  -0.0000052  -0.0000053   0.0000049  -0.9395575   0.2689400
0.0046623    -0.9996528  -0.0006744   0.0000153   0.0000061   0.0000035  -0.0000071  -0.9395089   0.2692334
0.0047196    -0.9996182  -0.0006197   0.0000227   0.0000128  -0.0000083  -0.0000009  -0.9398293   0.2694102
0.0047776    -0.9996095  -0.0006229   0.0000250   0.0000017   0.0000065  -0.0000104  -0.9398891   0.2695281
0.0048363    -0.9996247  -0.0005803   0.0000171   0.0000077   0.0000003  -0.0000094  -0.9399332   0.2697804
0.0048958    -0.9996069  -0.0006217   0.0000081  -0.0000010  -0.0000047  -0.0000137  -0.9400721   0.2700554
0.0049560    -0.9997264  -0.0004970   0.0000221  -0.0000036  -0.0000099  -0.0000067  -0.9402632   0.2701632
0.0050169    -0.9996122  -0.0005675   0.0000221   0.0000026  -0.0000178   0.0000051  -0.9403351   0.2701639
0.0050786    -0.9997427  -0.0005678   0.0000094  -0.0000140   0.0000062   0.0000011  -0.9403187   0.2703988
0.0051410    -0.9996471  -0.0004623   0.0000392   0.0000033  -0.0000039  -0.0000105  -0.9404152   0.2706001
0.0052042    -0.9996388  -0.0006708   0.0000245   0.0000054   0.0000035  -0.0000032  -0.9405021   0.2708001
0.0052682    -0.9996455  -0.0005678   0.0000304  -0.0000098   0.0000060  -0.0000054  -0.9406327   0.2710467
0.0053330    -0.9997092  -0.0005685   0.0000155   0.0000017  -0.0000089  -0.0000088  -0.9406896   0.2711812
0.0053985    -0.9995859  -0.0006053   0.0000171   0.0000045  -0.0000131  -0.0000073  -0.9407775   0.2713440
0.0054649    -0.9997270  -0.0006173   0.0000262   0.0000006   0.0000164  -0.0000018  -0.9409076   0.2714998
0.0055321    -0.9997332  -0.0005534   0.0000289   0.0000117  -0.0000015  -0.0000112  -0.9409565   0.2716945
0.0056001    -0.9997243  -0.0006183   0.0000224   0.0000061   0.0000146   0.0000031  -0.9411138   0.2719386
0.0056689    -0.9997479  -0.0007312   0.0000187   0.0000082  -0.0000082  -0.0000200  -0.9411273   0.2720064
0.0057386    -0.9997468  -0.0006324   0.0000276  -0.0000047   0.0000036  -0.0000155  -0.9411893   0.2721200
0.0058091    -0.9997870  -0.0004130   0.0000208  -0.0000150   0.0000022   0.0000047  -0.9411386   0.2723728
0.0058806    -0.9997928  -0.0004162   0.0000271   0.0000004  -0.0000013  -0.0000061  -0.9411190   0.2724188
0.0059529    -0.9996669  -0.0004752   0.0000326   0.0000056  -0.0000054  -0.0000104  -0.9412062   0.2727041
0.0060260    -0.9996937  -0.0005884   0.0000171   0.0000024  -0.0000053  -0.0000183  -0.9412507   0.2727098
0.0061001    -0.9997562  -0.0005000   0.0000211   0.0000122  -0.0000142  -0.0000055  -0.9413455   0.2729546
0.0061751    -0.9997414  -0.0004818   0.0000185  -0.0000032   0.0000003   0.0000049  -0.9413314   0.2731470
0.0062510    -0.9996080  -0.0004746   0.0000169  -0.0000040  -0.0000030  -0.0000002  -0.9415101   0.2732916
0.0063279    -0.9996640  -0.0005471   0.0000195   0.0000017  -0.0000043  -0.0000012  -0.9416430   0.2734560
0.0064056    -0.9995853  -0.0005003   0.0000269  -0.0000030   0.0000044  -0.0000061  -0.9416371   0.2736081
0.0064844    -0.9997265  -0.0004564   0.0000099  -0.0000068   0.0000000  -0.0000076  -0.9416977   0.2736701
0.0065641    -0.9998447  -0.0003669   0.0000164   0.0000104  -0.0000063  -0.0000193  -0.9415242   0.2737903
0.0066448    -0.9995682  -0.0004444   0.0000165   0.0000043   0.0000005  -0.0000093  -0.9416728   0.2739591
0.0067265    -0.9997155  -0.0003207   0.0000261   0.0000086  -0.0000082   0.0000041  -0.9417777   0.2741424
0.0068092    -0.9997211  -0.0003669   0.0000129   0.0000056   0.0000036   0.0000010  -0.9418365   0.2743665
0.0068929    -0.9997593  -0.0003863   0.0000214   0.0000000   0.0000128  -0.0000086  -0.9418909   0.2744498
0.0069776    -0.9998005  -0.0004328   0.0000198   0.0000003   0.0000024  -0.0000116  -0.9420478   0.2746782
0.0070634    -0.9998050  -0.0005471   0.0000215   0.0000043   0.0000023  -0.0000052  -0.9419420   0.2748400
0.0071502    -0.9997834  -0.0003996   0.0000196   0.0000022   0.0000031  -0.0000154  -0.9419125   0.2748555
0.0072381    -0.9997872  -0.0003633   0.0000126  -0.0000020  -0.0000033  -0.0000122  -0.9418756   0.2750367
0.0073271    -0.9997911  -0.0004143   0.0000195   0.0000051  -0.0000089  -0.0000030  -0.9420109   0.2752536
0.0074172    -0.9996677  -0.0004107   0.0000155  -0.0000077   0.0000121  -0.0000083  -0.9421284   0.2753567
0.0075084    -0.9997017  -0.0004363   0.0000272   0.0000032   0.0000064  -0.0000108  -0.9421577   0.2755385
0.0076007    -0.9997546  -0.0005292   0.0000167   0.0000013   0.0000004  -0.0000116  -0.9421461   0.2756577
0.0076941    -0.9997583  -0.0003374   0.0000240  -0.0000036  -0.0000021   0.0000084  -0.9421786   0.2759126
0.0077887    -0.9997015  -0.0003805   0.0000349   0.0000000   0.0000107  -0.0000020  -0.9421820   0.2759312
0.0078844    -0.9997642  -0.0002645   0.0000277  -0.0000093  -0.0000035  -0.0000018  -0.9422685   0.2760016
0.0079814    -0.9997790  -0.0003001   0.0000090  -0.0000066   0.0000006  -0.0000059  -0.9422404   0.2762762
0.0080795    -0.9997227  -0.0003967   0.0000263   0.0000161   0.0000058  -0.0000034  -0.9423989   0.2763341
0.0081788    -0.9998267  -0.0003658   0.0000232  -0.0000056  -0.0000045   0.0000043  -0.9422137   0.2765218
0.0082793    -0.9997754  -0.0003284   0.0000146  -0.0000027  -0.0000005  -0.0000093  -0.9423942   0.2765888
0.0083811    -0.9998393  -0.0003391   0.0000115  -0.0000076  -0.0000037   0.0000070  -0.9423573   0.2767983
0.0084842    -0.9997370  -0.0002681   0.0000071   0.0000019  -0.0000016   0.0000005  -0.9423313   0.2768930
0.0085885    -0.9998119  -0.0003680   0.0000274   0.0000062   0.0000015  -0.0000070  -0.9424398   0.2769427
0.0086940    -0.9998579  -0.0002721   0.0000116  -0.0000086   0.0000127  -0.0000141  -0.9423699   0.2771411
0.0088009    -0.9998885  -0.0003091   0.0000203   0.0000053   0.0000002   0.0000062  -0.9423860   0.2772914
0.0089091    -0.9997787  -0.0002525   0.0000129  -0.0000021   0.0000024  -0.0000112  -0.9423989   0.2774866
0.0090186    -0.9997523  -0.0001992   0.0000310   0.0000159  -0.0000090  -0.0000046  -0.9424998   0.2774735
0.0091295    -0.9997521  -0.0002754   0.0000241  -0.0000022   0.0000055  -0.0000005  -0.9425199   0.2777457
0.0092417    -0.9999474  -0.0004109   0.0000311   0.0000095   0.0000093  -0.0000054  -0.9424069   0.2777833
0.0093553    -0.9997623  -0.0002046   0.0000183  -0.0000043   0.0000041  -0.0000095  -0.9424297   0.2779104
0.0094703    -0.9996887  -0.0003420   0.0000227  -0.0000010   0.0000006   0.0000108  -0.9425230   0.2779699
0.0095868    -0.9998744  -0.0003149   0.0000110  -0.0000019  -0.0000033  -0.0000074  -0.9424579   0.2781670
0.0097046    -0.9996890  -0.0001540   0.0000176  -0.0000049  -0.0000017   0.0000127  -0.9425030   0.2781965
0.0098239    -0.9997646  -0.0003100   0.0000214   0.0000112  -0.0000008   0.0000001  -0.9425577   0.2783250
0.0099447    -0.9998181  -0.0002256   0.0000222  -0.0000032  -0.0000004  -0.0000051  -0.9425478   0.2783615
0.0100669    -0.9997750  -0.0002181   0.0000167   0.0000002  -0.0000093  -0.0000186  -0.9425242   0.2785836
0.0101907    -0.9997882  -0.0002850   0.0000126  -0.0000037  -0.0000033  -0.0000092  -0.9425358   0.2786114
0.0103160    -0.9996707  -0.0002890   0.0000060  -0.0000025   0.0000116  -0.0000083  -0.9425019   0.2787091
0.0104428    -0.9999247  -0.0003199   0.0000314  -0.0000108  -0.0000035   0.0000003  -0.9425838   0.2789201
0.0105712    -0.9999481  -0.0002154   0.0000239  -0.0000037   0.0000088   0.0000015  -0.9425830   0.2789347
0.0107011    -0.9998046  -0.0002852   0.0000192  -0.0000046   0.0000044  -0.0000051  -0.9426090   0.2791118
0.0108327    -0.9998782  -0.0002574   0.0000364   0.0000048   0.0000012  -0.0000062  -0.9425325   0.2791449
0.0109658    -0.9997950  -0.0001981   0.0000207   0.0000101  -0.0000070  -0.0000045  -0.9426464   0.2792784
0.0111006    -0.9998862  -0.0001508   0.0000279  -0.0000030  -0.0000041  -0.0000068  -0.9426136   0.2795289
0.0112371    -0.9998604  -0.0000721   0.0000109  -0.0000070  -0.0000054   0.0000003  -0.9426557   0.2794251
0.0113752    -0.9995904  -0.0000087   0.0000252   0.0000056  -0.0000107   0.0000007  -0.9425597   0.2795968
0.0115151    -0.9997958  -0.0007349   0.0000170   0.0000013   0.0000003  -0.0000004  -0.9427017   0.2798539
0.0116566    -0.9995945   0.0002122   0.0000209  -0.0000066  -0.0000025  -0.0000093  -0.9425976   0.2797545
0.0117999    -0.9997468  -0.0003208   0.0000220   0.0000100  -0.0000078  -0.0000039  -0.9426702   0.2800117
0.0119450    -0.9950853   0.0063052   0.0000197   0.0000102  -0.0000012   0.0000006  -0.9434624   0.2782170
0.0120918    -0.9999531  -0.0004106   0.0000174  -0.0000004   0.0000006  -0.0000104  -0.9426943   0.2801527
0.0122405    -0.9995212   0.0001491   0.0000275  -0.0000011  -0.0000107   0.0000039  -0.9427471   0.2801706
0.0123910    -1.0001167  -0.0005441   0.0000349  -0.0000014  -0.0000042  -0.0000100  -0.9426088   0.2804391
0.0125433    -0.9996974  -0.0001152   0.0000138   0.0000002  -0.0000016   0.0000043  -0.9427097   0.2803775
0.0126975    -0.9999689  -0.0001475   0.0000221   0.0000003  -0.0000036  -0.0000023  -0.9425424   0.2804387
0.0128536    -0.9999081  -0.0004618   0.0000310  -0.0000015   0.0000036  -0.0000033  -0.9426407   0.2806492
0.0130116    -0.9998497   0.0000119   0.0000153   0.0000046   0.0000031   0.0000037  -0.9426215   0.2806846
0.0131716    -0.9998244  -0.0001511   0.0000246  -0.0000017  -0.0000045   0.0000010  -0.9426642   0.2806807
0.0133335    -0.9999027  -0.0002165   0.0000095  -0.0000055  -0.0000017  -0.0000095  -0.9425145   0.2809397
0.0134974    -0.9998411  -0.0001090   0.0000244  -0.0000012   0.0000014  -0.0000020  -0.9425677   0.2809175
0.0136633    -0.9998564  -0.0001851   0.0000144  -0.0000057   0.0000013  -0.0000062  -0.9426221   0.2811150
0.0138313    -0.9998766  -0.0002779   0.0000132  -0.0000025  -0.0000014  -0.0000050  -0.9425397   0.2811490
0.0140013    -0.9998358  -0.0002937   0.0000150   0.0000055  -0.0000043  -0.0000027  -0.9426175   0.2812854
0.0141734    -0.9997654  -0.0001792   0.0000247   0.0000014  -0.0000133  -0.0000052  -0.9426482   0.2814176
0.0143477    -0.9997939  -0.0002480   0.0000247   0.0000015   0.0000019  -0.0000050  -0.9426134   0.2813920
0.0145240    -0.9997111  -0.0000662   0.0000326  -0.0000022   0.0000018   0.0000028  -0.9426510   0.2814696
0.0147026    -0.9998155  -0.0001456   0.0000224  -0.0000072   0.0000098  -0.0000082  -0.9425887   0.2815431
0.0148833    -0.9999734  -0.0002000   0.0000199  -0.0000115  -0.0000038  -0.0000085  -0.9425701   0.2817147
0.0150663    -0.9998672  -0.0001849   0.0000283   0.0000011   0.0000025  -0.0000094  -0.9425500   0.2817628
0.0152515    -0.9997609  -0.0002281   0.0000182  -0.0000048  -0.0000064  -0.0000097  -0.9425577   0.2819218
0.0154390    -0.9998877  -0.0001051   0.0000284  -0.0000119  -0.0000151   0.0000062  -0.9425825   0.2819117
0.0156288    -0.9997307  -0.0001168   0.0000318  -0.0000065  -0.0000092  -0.0000074  -0.9426634   0.2819290
0.0158209    -0.9998539  -0.0000521   0.0000137  -0.0000046  -0.0000031  -0.0000088  -0.9425187   0.2819562
0.0160154    -0.9997440  -0.0001699   0.0000305   0.0000023   0.0000012  -0.0000067  -0.9425096   0.2821765
0.0162123    -0.9997810  -0.0001149   0.0000240  -0.0000009  -0.0000041  -0.0000005  -0.9424733   0.2823458
0.0164116    -0.9997574  -0.0001147   0.0000208  -0.0000053   0.0000020  -0.0000133  -0.9425390   0.2823374
0.0166134    -0.9998682  -0.0001388   0.0000178   0.0000122   0.0000025   0.0000024  -0.9424725   0.2825105
0.0168176    -0.9997967  -0.0001031   0.0000191  -0.0000063   0.0000023  -0.0000011  -0.9425681   0.2824212
0.0170243    -0.9997169  -0.0001964   0.0000200   0.0000130  -0.0000044  -0.0000021  -0.9425075   0.2825839
0.0172336    -0.9998873  -0.0002370   0.0000254  -0.0000090   0.0000039  -0.0000065  -0.9424701   0.2825693
0.0174455    -0.9998018  -0.0001274   0.0000160  -0.0000120  -0.0000069   0.0000054  -0.9424511   0.2826684
0.0176599    -0.9998391  -0.0001783   0.0000199   0.0000018  -0.0000030  -0.0000096  -0.9424459   0.2827776
0.0178770    -0.9999417  -0.0001747   0.0000180   0.0000129  -0.0000056   0.0000042  -0.9424224   0.2829245
0.0180968    -0.9998549  -0.0001019   0.0000229  -0.0000011  -0.0000086  -0.0000035  -0.9424302   0.2828374
0.0183193    -0.9997897  -0.0002083   0.0000311  -0.0000171   0.0000087  -0.0000044  -0.9424509   0.2830002
0.0185445    -0.9999294  -0.0001248   0.0000222   0.0000011   0.0000103  -0.0000060  -0.9424455   0.2830423
0.0187724    -0.9998417  -0.0002115   0.0000284   0.0000105   0.0000036   0.0000011  -0.9423371   0.2830841
0.0190032    -0.9997656  -0.0000369   0.0000254  -0.0000099  -0.0000030  -0.0000051  -0.9424280   0.2831313
0.0192368    -0.9997423  -0.0001433   0.0000205  -0.0000015   0.0000020   0.0000008  -0.9425254   0.2832695
0.0194733    -0.9998210  -0.0002488   0.0000275  -0.0000029   0.0000098  -0.0000044  -0.9424154   0.2833488
0.0197127    -0.9998875  -0.0000247   0.0000225  -0.0000119  -0.0000072  -0.0000149  -0.9423865   0.2834325
0.0199550    -0.9997730  -0.0001438   0.0000275  -0.0000072  -0.0000085  -0.0000115  -0.9424142   0.2834576
0.0202003    -0.9998253  -0.0001159   0.0000263   0.0000054  -0.0000027  -0.0000121  -0.9424186   0.2834956
0.0204487    -0.9998894  -0.0000275   0.0000287  -0.0000078  -0.0000126  -0.0000027  -0.9423482   0.2836018
0.0207001    -0.9997988  -0.0001421   0.0000248   0.0000016  -0.0000050  -0.0000153  -0.9422820   0.2836091
0.0209545    -0.9997784  -0.0001321   0.0000243   0.0000046  -0.0000042  -0.0000062  -0.9422991   0.2836966
0.0212121    -0.9997933  -0.0001184   0.0000172  -0.0000078   0.0000013   0.0000014  -0.9422630   0.2838958
0.0214729    -0.9999315  -0.0001557   0.0000270  -0.0000014  -0.0000082  -0.0000137  -0.9423046   0.2839225
0.0217369    -0.9997972  -0.0000612   0.0000256  -0.0000066   0.0000177  -0.0000012  -0.9422967   0.2839207
0.0220041    -0.9996737  -0.0000973   0.0000348  -0.0000075  -0.0000034  -0.0000052  -0.9423316   0.2839710
0.0222746    -0.9998435  -0.0000691   0.0000187  -0.0000022   0.0000044  -0.0000094  -0.9421834   0.2840686
0.0225484    -0.9998167  -0.0000567   0.0000169  -0.0000044  -0.0000069   0.0000029  -0.9421589   0.2840821
0.0228256    -0.9997289  -0.0002011   0.0000245  -0.0000077  -0.0000015   0.0000000  -0.9422130   0.2841121
0.0231062    -0.9998041  -0.0001466   0.0000200  -0.0000107  -0.0000071  -0.0000067  -0.9422103   0.2841453
0.0233902    -0.9997538  -0.0000168   0.0000151  -0.0000029  -0.0000062   0.0000041  -0.9421501   0.2842650
0.0236778    -0.9997169  -0.0000444   0.0000247  -0.0000044   0.0000026  -0.0000065  -0.9421274   0.2843437
0.0239689    -0.9979038   0.0007693   0.0000450  -0.0000014  -0.0000034  -0.0000028  -0.9431943   0.2849166
0.0242635    -0.9997955  -0.0001472   0.0000214   0.0000074   0.0000020  -0.0000015  -0.9421554   0.2844378
0.0245618    -0.9998168  -0.0001431   0.0000215  -0.0000012  -0.0000175  -0.0000006  -0.9420997   0.2845678
0.0248637    -0.9998162  -0.0001511   0.0000264  -0.0000086  -0.0000010  -0.0000011  -0.9421057   0.2846436
0.0251694    -0.9997724  -0.0000911   0.0000132  -0.0000036  -0.0000045  -0.0000092  -0.9421237   0.2846718
0.0254788    -0.9998516  -0.0001244   0.0000248  -0.0000032  -0.0000051  -0.0000060  -0.9420106   0.2847303
0.0257920    -0.9998726  -0.0001047   0.0000146  -0.0000032   0.0000011  -0.0000116  -0.9420984   0.2848583
0.0261091    -0.9998049  -0.0001190   0.0000268   0.0000022   0.0000032  -0.0000093  -0.9419308   0.2848252
0.0264301    -0.9997807  -0.0000288   0.0000218   0.0000049   0.0000051  -0.0000114  -0.9420806   0.2849199
0.0267550    -0.9998367  -0.0001003   0.0000245   0.0000043  -0.0000017   0.0000036  -0.9419236   0.2849455
0.0270839    -0.9998598  -0.0001338   0.0000265  -0.0000024  -0.0000150  -0.0000070  -0.9420152   0.2849370
0.0274168    -0.9998520  -0.0001980   0.0000235   0.0000055  -0.0000071  -0.0000091  -0.9419723   0.2849874
0.0277539    -0.9998300  -0.0000463   0.0000204   0.0000003  -0.0000055  -0.0000124  -0.9418585   0.2850718
0.0280951    -0.9997944  -0.0001533   0.0000128  -0.0000042  -0.0000084  -0.0000131  -0.9418695   0.2851680
0.0284404    -0.9997569  -0.0000671   0.0000208  -0.0000010  -0.0000050  -0.0000027  -0.9418926   0.2852433
0.0287901    -0.9997456  -0.0000684   0.0000140  -0.0000077  -0.0000104  -0.0000071  -0.9419360   0.2851845
0.0291440    -0.9997599  -0.0001220   0.0000119   0.0000036   0.0000046  -0.0000088  -0.9418947   0.2853351
0.0295023    -0.9998586  -0.0000866   0.0000241  -0.0000005   0.0000158   0.0000033  -0.9418181   0.2853636
0.0298649    -0.9998285  -0.0000696   0.0000056  -0.0000051   0.0000090  -0.0000008  -0.9418149   0.2853996
0.0302321    -0.9999002  -0.0000543   0.0000192  -0.0000086   0.0000043  -0.0000058  -0.9417208   0.2854923
0.0306037    -0.9998200  -0.0000341   0.0000161  -0.0000066  -0.0000045  -0.0000008  -0.9417143   0.2855678
0.0309799    -0.9998564  -0.0000541   0.0000138  -0.0000042  -0.0000045   0.0000013  -0.9418265   0.2855831
0.0313608    -0.9996941  -0.0001572   0.0000140  -0.0000076   0.0000041  -0.0000197  -0.9417779   0.2856653
0.0317463    -0.9998235  -0.0000195   0.0000145  -0.0000089  -0.0000047   0.0000050  -0.9416988   0.2857371
0.0321366    -0.9998585  -0.0001033   0.0000226  -0.0000080   0.0000041  -0.0000031  -0.9417880   0.2857474
0.0325316    -0.9998612  -0.0000840   0.0000172  -0.0000035   0.0000030  -0.0000159  -0.9416747   0.2858300
0.0329316    -0.9997959  -0.0001324   0.0000162   0.0000017   0.0000071  -0.0000175  -0.9416642   0.2859160
0.0333364    -0.9998907  -0.0001602   0.0000095   0.0000015   0.0000033  -0.0000037  -0.9416956   0.2859965
0.0337462    -0.9998249  -0.0001073   0.0000185  -0.0000077   0.0000003   0.0000066  -0.9415459   0.2858363
0.0341610    -0.9997857  -0.0000977   0.0000177  -0.0000019   0.0000031  -0.0000018  -0.9415890   0.2860550
0.0345810    -0.9998129  -0.0001324   0.0000199  -0.0000069   0.0000025  -0.0000054  -0.9415994   0.2860402
0.0350061    -0.9997703  -0.0000666   0.0000343  -0.0000006   0.0000041   0.0000028  -0.9416480   0.2861025
0.0354365    -0.9997994  -0.0000636   0.0000283  -0.0000022   0.0000008  -0.0000113  -0.9415532   0.2862356
0.0358721    -0.9998695  -0.0001065   0.0000217   0.0000044   0.0000027   0.0000040  -0.9415274   0.2861881
0.0363131    -0.9998598  -0.0000277   0.0000224  -0.0000043  -0.0000035  -0.0000022  -0.9415787   0.2862180
0.0367595    -0.9998443  -0.0001018   0.0000248  -0.0000008  -0.0000029  -0.0000134  -0.9414277   0.2863980
0.0372114    -0.9998139  -0.0001286   0.0000275  -0.0000053   0.0000021  -0.0000147  -0.9414660   0.2864445
0.0376688    -0.9998436  -0.0000848   0.0000141   0.0000003  -0.0000015  -0.0000004  -0.9414265   0.2864517
0.0381319    -0.9998365  -0.0001188   0.0000153   0.0000000  -0.0000009  -0.0000148  -0.9414994   0.2864761
0.0386006    -0.9997826  -0.0000659   0.0000328  -0.0000052  -0.0000001  -0.0000062  -0.9414738   0.2866139
0.0390752    -0.9998866  -0.0000839   0.0000213   0.0000065   0.0000058  -0.0000044  -0.9413666   0.2865701
0.0395555    -0.9998705  -0.0001674   0.0000169  -0.0000011  -0.0000018  -0.0000008  -0.9413887   0.2866159
0.0400418    -0.9997949  -0.0000624   0.0000094   0.0000022  -0.0000059  -0.0000090  -0.9414225   0.2867169
0.0405340    -0.9998403  -0.0000214   0.0000255  -0.0000015   0.0000032  -0.0000083  -0.9413678   0.2866962
0.0410323    -0.9997950  -0.0001253   0.0000211   0.0000034   0.0000113  -0.0000063  -0.9412536   0.2867964
0.0415368    -0.9997603  -0.0000803   0.0000129  -0.0000005  -0.0000101   0.0000046  -0.9413906   0.2868516
0.0420474    -0.9998081  -0.0001304   0.0000209   0.0000025  -0.0000032  -0.0000059  -0.9413047   0.2867908
0.0425643    -0.9997626  -0.0000368   0.0000260  -0.0000067   0.0000041  -0.0000041  -0.9412317   0.2868349
0.0430875    -0.9997577  -0.0001244   0.0000276  -0.0000006   0.0000041  -0.0000004  -0.9413051   0.2869693
0.0436172    -0.9997868  -0.0000687   0.0000132   0.0000023  -0.0000077  -0.0000074  -0.9412355   0.2870156
0.0441534    -0.9998383  -0.0000752   0.0000162  -0.0000191   0.0000004  -0.0000073  -0.9411886   0.2871031
0.0446962    -0.9998772  -0.0000796   0.0000296   0.0000008  -0.0000045  -0.0000057  -0.9411981   0.2871376
0.0452457    -0.9997805  -0.0000439   0.0000213  -0.0000005   0.0000028  -0.0000074  -0.9411458   0.2871384
0.0458019    -0.9998094  -0.0001035   0.0000177   0.0000046   0.0000017  -0.0000085  -0.9411226   0.2871739
0.0463649    -0.9998709  -0.0000273   0.0000197   0.0000170   0.0000098   0.0000013  -0.9410879   0.2872438
0.0469349    -0.9997735  -0.0001358   0.0000212  -0.0000087  -0.0000076  -0.0000056  -0.9410962   0.2873527
0.0475119    -0.9998226  -0.0000735   0.0000289  -0.0000041   0.0000017  -0.0000071  -0.9410704   0.2873649
0.0480960    -0.9998396  -0.0000251   0.0000277   0.0000048  -0.0000044  -0.0000019  -0.9409973   0.2874680
0.0486872    -0.9997503  -0.0002197   0.0000272  -0.0000076  -0.0000129  -0.0000110  -0.9409651   0.2874875
0.0492857    -0.9998139  -0.0001061   0.0000186   0.0000037  -0.0000002  -0.0000042  -0.9409461   0.2875644
0.0498916    -0.9997852  -0.0000801   0.0000211   0.0000029  -0.0000045  -0.0000018  -0.9408737   0.2876173
0.0505050    -0.9997975  -0.0000847   0.0000158   0.0000035  -0.0000103  -0.0000166  -0.9409469   0.2876108
0.0511258    -0.9997009  -0.0001340   0.0000120  -0.0000020  -0.0000017  -0.0000074  -0.9409396   0.2877756
0.0517543    -0.9997811  -0.0001011   0.0000155   0.0000045  -0.0000078  -0.0000062  -0.9409543   0.2877150
0.0523906    -0.9997353  -0.0001309   0.0000259  -0.0000001   0.0000057  -0.0000072  -0.9408638   0.2877875
0.0530346    -0.9998112  -0.0000859   0.0000250  -0.0000134   0.0000032  -0.0000115  -0.9408033   0.2878187
0.0536866    -0.9997261  -0.0001424   0.0000301  -0.0000022  -0.0000095  -0.0000167  -0.9408350   0.2878571
0.0543466    -0.9998506  -0.0000963   0.0000223  -0.0000119  -0.0000052  -0.0000006  -0.9407425   0.2878680
0.0550146    -0.9998131  -0.0000928   0.0000091  -0.0000034  -0.0000055  -0.0000045  -0.9407686   0.2879192
0.0556910    -0.9997418  -0.0000737   0.0000234  -0.0000018  -0.0000121  -0.0000102  -0.9406990   0.2879734
0.0563756    -0.9998339   0.0000027   0.0000179   0.0000007   0.0000018  -0.0000108  -0.9407175   0.2881117
0.0570686    -0.9998389  -0.0001915   0.0000165   0.0000006   0.0000006  -0.0000166  -0.9406780   0.2881488
0.0577702    -0.9998127  -0.0001330   0.0000244  -0.0000065  -0.0000013  -0.0000054  -0.9406106   0.2882546
0.0584804    -0.9997762  -0.0001370   0.0000170   0.0000018   0.0000011  -0.0000075  -0.9405687   0.2881916
0.0591993    -0.9997547  -0.0000884   0.0000204  -0.0000039   0.0000087   0.0000003  -0.9405477   0.2882490
0.0599270    -0.9998072  -0.0000357   0.0000230  -0.0000007   0.0000084  -0.0000020  -0.9406534   0.2883762
0.0606637    -0.9999132  -0.0000034   0.0000302  -0.0000071  -0.0000008  -0.0000084  -0.9404613   0.2883609
0.0614095    -0.9998125  -0.0000340   0.0000282  -0.0000015  -0.0000130   0.0000009  -0.9405219   0.2883972
0.0621644    -0.9998143  -0.0001364   0.0000300  -0.0000051  -0.0000010  -0.0000074  -0.9405535   0.2885076
0.0629286    -0.9998124  -0.0001532   0.0000286  -0.0000045  -0.0000052  -0.0000012  -0.9404398   0.2884878
0.0637022    -0.9997798  -0.0001154   0.0000215  -0.0000067   0.0000020  -0.0000046  -0.9403573   0.2886245
0.0644853    -0.9997931  -0.0001049   0.0000325  -0.0000071  -0.0000014  -0.0000039  -0.9404157   0.2886764
0.0652780    -0.9997215  -0.0000552   0.0000187   0.0000034   0.0000039  -0.0000084  -0.9403190   0.2886986
0.0660805    -0.9998386  -0.0000547   0.0000233   0.0000009  -0.0000050  -0.0000067  -0.9402917   0.2888275
0.0668928    -0.9998233  -0.0000773   0.0000275   0.0000014  -0.0000128  -0.0000122  -0.9402203   0.2888212
0.0677152    -0.9998130  -0.0000931   0.0000166  -0.0000064   0.0000000  -0.0000112  -0.9402024   0.2888230
0.0685476    -0.9997417  -0.0000846   0.0000098   0.0000017  -0.0000072  -0.0000117  -0.9401862   0.2888922
0.0693903    -0.9998418  -0.0000864   0.0000165  -0.0000152  -0.0000004  -0.0000041  -0.9401122   0.2890172
0.0702433    -0.9997556  -0.0001344   0.0000183   0.0000058  -0.0000029   0.0000041  -0.9401311   0.2890242
0.0711068    -0.9997451  -0.0001262   0.0000147   0.0000047   0.0000037  -0.0000059  -0.9400895   0.2890692
0.0719810    -0.9996848  -0.0001781   0.0000289   0.0000014  -0.0000091   0.0000050  -0.9400307   0.2890734
0.0728659    -0.9998015  -0.0001070   0.0000161   0.0000044   0.0000052  -0.0000014  -0.9399982   0.2891921
0.0737616    -0.9997807  -0.0002088   0.0000236  -0.0000121  -0.0000012   0.0000004  -0.9399166   0.2892475
0.0746684    -0.9997240  -0.0001210   0.0000132   0.0000023   0.0000073  -0.0000086  -0.9399425   0.2892933
0.0755863    -0.9997683  -0.0000423   0.0000268  -0.0000021  -0.0000051  -0.0000018  -0.9398644   0.2893296
0.0765155    -0.9997655  -0.0000980   0.0000167  -0.0000061  -0.0000040  -0.0000102  -0.9398543   0.2893451
0.0774561    -0.9998114  -0.0001598   0.0000207  -0.0000113   0.0000021  -0.0000132  -0.9397228   0.2894283
0.0784083    -0.9997551  -0.0001733   0.0000206  -0.0000049   0.0000033   0.0000006  -0.9396576   0.2894038
0.0793722    -0.9996870  -0.0001456   0.0000231  -0.0000084  -0.0000042  -0.0000104  -0.9396161   0.2895158
0.0803479    -0.9997338  -0.0001133   0.0000159  -0.0000005   0.0000014  -0.0000099  -0.9396115   0.2895176
0.0813357    -0.9997089  -0.0001314   0.0000215   0.0000024  -0.0000006  -0.0000007  -0.9394970   0.2895606
0.0823356    -0.9997519  -0.0001347   0.0000118  -0.0000082  -0.0000053  -0.0000076  -0.9394075   0.2896695
0.0833477    -0.9997011  -0.0002022   0.0000230   0.0000014   0.0000061  -0.0000029  -0.9393761   0.2896456
0.0843723    -0.9998038  -0.0002012   0.0000265  -0.0000163   0.0000086  -0.0000037  -0.9393115   0.2897923
0.0854095    -0.9997209  -0.0001637   0.0000173  -0.0000082  -0.0000026  -0.0000074  -0.9392051   0.2896720
0.0864595    -0.9997729  -0.0001450   0.0000196  -0.0000015  -0.0000029   0.0000073  -0.9391912   0.2898053
0.0875224    -0.9997664  -0.0000802   0.0000177  -0.0000057   0.0000034  -0.0000104  -0.9391330   0.2897833
0.0885983    -0.9996834  -0.0001092   0.0000340  -0.0000084  -0.0000022  -0.0000038  -0.9390844   0.2898074
0.0896875    -0.9996954  -0.0001919   0.0000213  -0.0000067   0.0000089  -0.0000091  -0.9389901   0.2898603
0.0907900    -0.9997541  -0.0001650   0.0000219  -0.0000068  -0.0000058  -0.0000009  -0.9389029   0.2897670
0.0919061    -0.9997453  -0.0001993   0.0000215  -0.0000049   0.0000026   0.0000009  -0.9387465   0.2898359
0.0930359    -0.9996949  -0.0002000   0.0000184  -0.0000040   0.0000012   0.0000016  -0.9387368   0.2897206
0.0941797    -0.9997939  -0.0002009   0.0000226   0.0000022   0.0000025   0.0000095  -0.9386642   0.2897788
0.0953374    -0.9997415  -0.0002159   0.0000106  -0.0000014  -0.0000047   0.0000036  -0.9386589   0.2896874
0.0965094    -0.9997484  -0.0001279   0.0000221  -0.0000070   0.0000008  -0.0000022  -0.9385277   0.2897067
0.0976959    -0.9997478  -0.0001435   0.0000186   0.0000001   0.0000064  -0.0000051  -0.9385353   0.2896980
0.0988969    -0.9997341  -0.0001670   0.0000214   0.0000027  -0.0000068  -0.0000015  -0.9384663   0.2896201
0.1001126    -0.9998253  -0.0002796   0.0000154   0.0000022  -0.0000042  -0.0000113  -0.9384273   0.2896009
0.1013433    -0.9997611  -0.0002081   0.0000345   0.0000010  -0.0000066  -0.0000005  -0.9384162   0.2895283
0.1025892    -0.9997988  -0.0001708   0.0000170  -0.0000050  -0.0000089  -0.0000156  -0.9383242   0.2894642
0.1038503    -0.9997929  -0.0002176   0.0000234  -0.0000147  -0.0000061   0.0000026  -0.9383898   0.2893628
0.1051270    -0.9998006  -0.0002387   0.0000294   0.0000039  -0.0000042   0.0000032  -0.9384645   0.2893710
0.1064193    -0.9997920  -0.0001680   0.0000229   0.0000043  -0.0000009  -0.0000043  -0.9385210   0.2892712
0.1077276    -0.9998166  -0.0002588   0.0000205   0.0000016  -0.0000010   0.0000042  -0.9385561   0.2893075
0.1090519    -0.9998080  -0.0001986   0.0000142  -0.0000034   0.0000081   0.0000023  -0.9386699   0.2891948
0.1103925    -0.9998920  -0.0002041   0.0000145  -0.0000045  -0.0000053  -0.0000082  -0.9386504   0.2892372
0.1117496    -0.9997879  -0.0001759   0.0000195  -0.0000065   0.0000070  -0.0000009  -0.9387449   0.2892651
0.1131233    -0.9997730  -0.0001795   0.0000227  -0.0000075  -0.0000109  -0.0000063  -0.9388706   0.2892237
0.1145140    -0.9998182  -0.0002459   0.0000141   0.0000008  -0.0000020  -0.0000139  -0.9389367   0.2893050
0.1159217    -0.9997819  -0.0001189   0.0000309  -0.0000189  -0.0000058  -0.0000006  -0.9389502   0.2893045
0.1173468    -0.9998501  -0.0002047   0.0000081  -0.0000080   0.0000043  -0.0000100  -0.9390159   0.2893834
0.1187893    -0.9998535  -0.0002270   0.0000148  -0.0000092  -0.0000015  -0.0000112  -0.9391408   0.2894386
0.1202497    -0.9998306  -0.0001871   0.0000229  -0.0000070  -0.0000076  -0.0000202  -0.9391425   0.2894774
0.1217279    -0.9998456  -0.0001325   0.0000168  -0.0000055   0.0000047   0.0000067  -0.9391774   0.2895602
0.1232243    -0.9998770  -0.0001638   0.0000137  -0.0000048  -0.0000059  -0.0000097  -0.9393238   0.2897100
0.1247392    -0.9997461  -0.0001571   0.0000083  -0.0000073  -0.0000005  -0.0000021  -0.9393441   0.2897610
0.1262726    -0.9998118  -0.0001924   0.0000153  -0.0000046  -0.0000082  -0.0000107  -0.9393835   0.2898578
0.1278249    -0.9998455  -0.0002073   0.0000175  -0.0000105  -0.0000011  -0.0000062  -0.9393711   0.2899272
0.1293963    -0.9997953  -0.0001910   0.0000284  -0.0000189  -0.0000038  -0.0000042  -0.9394349   0.2900448
0.1309870    -0.9997753  -0.0002179   0.0000235  -0.0000005   0.0000004  -0.0000140  -0.9394403   0.2901690
0.1325973    -0.9997686  -0.0002310   0.0000161  -0.0000040  -0.0000006   0.0000020  -0.9394429   0.2901727
0.1342273    -0.9998690  -0.0001832   0.0000142  -0.0000119  -0.0000030  -0.0000066  -0.9395119   0.2902830
0.1358774    -0.9998058  -0.0003144   0.0000144  -0.0000009  -0.0000045   0.0000028  -0.9394840   0.2904587
0.1375478    -0.9998427  -0.0002384   0.0000194  -0.0000030   0.0000041  -0.0000011  -0.9395102   0.2904983
0.1392387    -0.9998258  -0.0002598   0.0000139  -0.0000080  -0.0000016  -0.0000030  -0.9394896   0.2906542
0.1409504    -0.9998398  -0.0002532   0.0000185  -0.0000080  -0.0000098  -0.0000030  -0.9395416   0.2907525
0.1426831    -0.9998333  -0.0001709   0.0000131  -0.0000061  -0.0000051  -0.0000032  -0.9395182   0.2907696
0.1444371    -0.9998056  -0.0003085   0.0000190  -0.0000097   0.0000040  -0.0000025  -0.9394529   0.2909111
0.1462127    -0.9998585  -0.0002245   0.0000130   0.0000002   0.0000011  -0.0000080  -0.9395321   0.2910522
0.1480102    -0.9998675  -0.0002699   0.0000063  -0.0000101  -0.0000016  -0.0000117  -0.9394888   0.2911476
0.1498297    -0.9998293  -0.0001873   0.0000166  -0.0000045  -0.0000046   0.0000006  -0.9394295   0.2911965
0.1516716    -0.9998346  -0.0002531   0.0000207  -0.0000033  -0.0000031   0.0000037  -0.9394114   0.2913293
0.1535361    -0.9998479  -0.0002572   0.0000161  -0.0000068  -0.0000056  -0.0000089  -0.9394468   0.2914228
0.1554236    -0.9998734  -0.0003384   0.0000253  -0.0000051   0.0000006   0.0000022  -0.9394299   0.2915906
0.1573342    -0.9997748  -0.0003639   0.0000201   0.0000013  -0.0000109  -0.0000090  -0.9393141   0.2916879
0.1592684    -0.9998700  -0.0002051   0.0000081  -0.0000181   0.0000048   0.0000032  -0.9394186   0.2917255
0.1612263    -0.9997901  -0.0002258   0.0000178  -0.0000073   0.0000049  -0.0000010  -0.9393069   0.2918717
0.1632083    -0.9997665  -0.0003069   0.0000139  -0.0000059   0.0000052  -0.0000046  -0.9393931   0.2919294
0.1652147    -0.9998103  -0.0003869   0.0000242  -0.0000014  -0.0000054   0.0000015  -0.9392935   0.2920767
0.1672457    -0.9997364  -0.0003274   0.0000211   0.0000026   0.0000058  -0.0000092  -0.9392819   0.2921465
0.1693017    -0.9998073  -0.0002341   0.0000197   0.0000090  -0.0000093  -0.0000026  -0.9392562   0.2921591
0.1713829    -0.9998324  -0.0002386   0.0000120   0.0000009  -0.0000062  -0.0000029  -0.9392212   0.2923577
0.1734898    -0.9999011  -0.0003339   0.0000172  -0.0000115  -0.0000008   0.0000005  -0.9391912   0.2923584
0.1756225    -0.9997995  -0.0002838   0.0000256  -0.0000129   0.0000067  -0.0000024  -0.9391699   0.2925539
0.1777815    -0.9998418  -0.0002452   0.0000115  -0.0000058  -0.0000031  -0.0000086  -0.9390592   0.2925714
0.1799670    -0.9997226  -0.0002688   0.0000169  -0.0000096  -0.0000053  -0.0000102  -0.9390654   0.2927581
0.1821794    -0.9997848  -0.0003328   0.0000169   0.0000058   0.0000027  -0.0000042  -0.9390483   0.2928551
0.1844190    -0.9998104  -0.0002940   0.0000237   0.0000003  -0.0000014  -0.0000113  -0.9391059   0.2929285
0.1866861    -0.9997770  -0.0003783   0.0000175   0.0000003  -0.0000025  -0.0000085  -0.9389236   0.2930493
0.1889811    -0.9998504  -0.0003065   0.0000176  -0.0000076  -0.0000052  -0.0000045  -0.9389341   0.2931909
0.1913043    -0.9997828  -0.0003463   0.0000088  -0.0000022  -0.0000022  -0.0000077  -0.9389398   0.2931881
0.1936560    -0.9998218  -0.0003392   0.0000069  -0.0000061  -0.0000029   0.0000011  -0.9388743   0.2934055
0.1960367    -0.9998450  -0.0003677   0.0000227  -0.0000031  -0.0000034  -0.0000113  -0.9388666   0.2935421
0.1984466    -0.9997871  -0.0003937   0.0000139  -0.0000027  -0.0000069  -0.0000007  -0.9388003   0.2935264
0.2008861    -0.9997969  -0.0003690   0.0000184  -0.0000034  -0.0000035  -0.0000135  -0.9388468   0.2937072
0.2033557    -0.9998436  -0.0003443   0.0000180  -0.0000042  -0.0000017  -0.0000072  -0.9388149   0.2937507
0.2058556    -0.9998450  -0.0003294   0.0000191  -0.0000071   0.0000063  -0.0000012  -0.9386165   0.2938308
0.2083862    -0.9998277  -0.0003514   0.0000126  -0.0000013  -0.0000007  -0.0000098  -0.9386430   0.2939738
0.2109480    -0.9997735  -0.0003879   0.0000154  -0.0000008  -0.0000041   0.0000037  -0.9386125   0.2940661
0.2135412    -0.9997742  -0.0003917   0.0000137  -0.0000017   0.0000026  -0.0000099  -0.9385548   0.2941996
0.2161663    -0.9998465  -0.0003668   0.0000106  -0.0000063   0.0000069  -0.0000061  -0.9385860   0.2942747
0.2188237    -0.9999017  -0.0003137   0.0000038  -0.0000113  -0.0000015  -0.0000051  -0.9385893   0.2944157
0.2215137    -0.9998246  -0.0003967   0.0000106  -0.0000031  -0.0000176  -0.0000081  -0.9384733   0.2944849
0.2242369    -0.9997986  -0.0003349   0.0000124  -0.0000046  -0.0000093  -0.0000156  -0.9383799   0.2946712
0.2269935    -0.9998784  -0.0003972   0.0000120   0.0000019  -0.0000070  -0.0000102  -0.9383557   0.2947396
0.2297839    -0.9997818  -0.0004292   0.0000157  -0.0000092   0.0000008  -0.0000095  -0.9383288   0.2948782
0.2326087    -0.9997937  -0.0003607   0.0000128  -0.0000124  -0.0000072  -0.0000042  -0.9383012   0.2949777
0.2354682    -0.9997852  -0.0003697   0.0000138  -0.0000019   0.0000062  -0.0000025  -0.9382314   0.2950852
0.2383629    -0.9997935  -0.0003960   0.0000135  -0.0000059   0.0000095  -0.0000077  -0.9382402   0.2951383
0.2412932    -0.9998499  -0.0004311   0.0000161   0.0000023  -0.0000204  -0.0000146  -0.9381400   0.2952565
0.2442594    -0.9997916  -0.0004564   0.0000136  -0.0000132  -0.0000093   0.0000065  -0.9381314   0.2954319
0.2472622    -0.9998064  -0.0004355   0.0000100  -0.0000069  -0.0000034  -0.0000044  -0.9381191   0.2955686
0.2503018    -0.9997525  -0.0004435   0.0000229  -0.0000054  -0.0000125  -0.0000093  -0.9379876   0.2957517
0.2533788    -0.9998084  -0.0004617   0.0000147  -0.0000128  -0.0000040   0.0000031  -0.9379655   0.2957465
0.2564937    -0.9997729  -0.0005019   0.0000152  -0.0000100  -0.0000017  -0.0000116  -0.9379517   0.2958429
0.2596468    -0.9998554  -0.0004346   0.0000080  -0.0000140  -0.0000103  -0.0000019  -0.9378675   0.2960615
0.2628387    -0.9998091  -0.0004878   0.0000178  -0.0000039   0.0000019   0.0000031  -0.9378421   0.2962113
0.2660699    -0.9997867  -0.0004541   0.0000052  -0.0000056   0.0000030  -0.0000001  -0.9377637   0.2962477
0.2693407    -0.9998333  -0.0004687   0.0000157   0.0000025   0.0000029   0.0000017  -0.9376920   0.2964796
0.2726518    -0.9998497  -0.0004599   0.0000172   0.0000018   0.0000098  -0.0000065  -0.9376563   0.2965318
0.2760036    -0.9998148  -0.0004974   0.0000154   0.0000001  -0.0000009  -0.0000004  -0.9376370   0.2967253
0.2793966    -0.9998815  -0.0004658   0.0000060  -0.0000179   0.0000015  -0.0000069  -0.9375655   0.2967840
0.2828312    -0.9997839  -0.0004957   0.0000133  -0.0000029  -0.0000054  -0.0000065  -0.9375553   0.2969881
0.2863082    -0.9998156  -0.0005161   0.0000128  -0.0000013  -0.0000069  -0.0000156  -0.9374514   0.2970842
0.2898278    -0.9998185  -0.0004856   0.0000164  -0.0000118   0.0000011  -0.0000148  -0.9373987   0.2972562
0.2933907    -0.9997894  -0.0005749   0.0000180  -0.0000001  -0.0000071  -0.0000110  -0.9374491   0.2973166
0.2969975    -0.9997147  -0.0005454   0.0000130  -0.0000025   0.0000025  -0.0000002  -0.9373918   0.2974570
0.3006485    -0.9998056  -0.0005285   0.0000134   0.0000006  -0.0000037  -0.0000003  -0.9372446   0.2976492
0.3043445    -0.9998062  -0.0005858   0.0000104  -0.0000094   0.0000030  -0.0000090  -0.9372233   0.2977212
0.3080858    -0.9998780  -0.0006502   0.0000214  -0.0000068   0.0000008  -0.0000047  -0.9371217   0.2978439
0.3118732    -0.9998845  -0.0005624   0.0000054  -0.0000026  -0.0000029  -0.0000037  -0.9370846   0.2981255
0.3157071    -0.9997623  -0.0005176   0.0000129  -0.0000127   0.0000001  -0.0000051  -0.9369519   0.2981806
0.3195882    -0.9998052  -0.0006164   0.0000190   0.0000000  -0.0000056  -0.0000075  -0.9369621   0.2983713
0.3235170    -0.9998232  -0.0006633   0.0000072   0.0000036   0.0000005  -0.0000101  -0.9368877   0.2985743
0.3274941    -0.9997603  -0.0005915   0.0000147  -0.0000035  -0.0000171  -0.0000030  -0.9368245   0.2986018
0.3315200    -0.9997899  -0.0005958   0.0000241  -0.0000020  -0.0000011  -0.0000002  -0.9366881   0.2987612
0.3355955    -0.9997854  -0.0005925   0.0000001   0.0000010   0.0000024  -0.0000098  -0.9367534   0.2988743
0.3397210    -0.9997674  -0.0006157   0.0000112  -0.0000057  -0.0000033  -0.0000140  -0.9366286   0.2991156
0.3438973    -0.9997840  -0.0006616   0.0000087  -0.0000055   0.0000025  -0.0000018  -0.9365542   0.2991742
0.3481249    -0.9997280  -0.0006434   0.0000161  -0.0000017  -0.0000090  -0.0000003  -0.9365513   0.2993079
0.3524045    -0.9998017  -0.0005746   0.0000232  -0.0000123   0.0000071  -0.0000049  -0.9364981   0.2994654
0.3567367    -0.9997935  -0.0006426   0.0000045  -0.0000075   0.0000048  -0.0000006  -0.9364733   0.2996630
0.3611221    -0.9997506  -0.0006137   0.0000099  -0.0000082  -0.0000009  -0.0000053  -0.9363157   0.2998125
0.3655615    -0.9997525  -0.0006842   0.0000203  -0.0000141   0.0000008   0.0000035  -0.9362350   0.2999891
0.3700554    -0.9997211  -0.0007344   0.0000047  -0.0000030  -0.0000078   0.0000013  -0.9361766   0.3001423
0.3746046    -0.9997366  -0.0007221  -0.0000003   0.0000070  -0.0000074   0.0000052  -0.9360952   0.3002810
0.3792097    -0.9998056  -0.0006295   0.0000134  -0.0000066   0.0000027  -0.0000014  -0.9360310   0.3005167
0.3838714    -0.9997188  -0.0007385   0.0000174   0.0000033  -0.0000147   0.0000006  -0.9360487   0.3006684
0.3885905    -0.9997208  -0.0007923   0.0000081   0.0000018   0.0000014  -0.0000025  -0.9359445   0.3008066
0.3933675    -0.9997724  -0.0007694   0.0000049  -0.0000022  -0.0000064  -0.0000079  -0.9358374   0.3010662
0.3982033    -0.9997585  -0.0007020   0.0000075  -0.0000025   0.0000045  -0.0000028  -0.9357388   0.3011775
0.4030985    -0.9997361  -0.0008275   0.0000095  -0.0000078  -0.0000013  -0.0000019  -0.9356822   0.3013380
0.4080538    -0.9997652  -0.0007132   0.0000235  -0.0000039   0.0000088  -0.0000011  -0.9356213   0.3015114
0.4130701    -0.9997647  -0.0007863   0.0000200   0.0000059  -0.0000030  -0.0000011  -0.9354990   0.3017008
0.4181481    -0.9997122  -0.0007589   0.0000088  -0.0000084  -0.0000217  -0.0000123  -0.9354835   0.3019167
0.4232885    -0.9997394  -0.0007717   0.0000174  -0.0000020   0.0000013  -0.0000042  -0.9353929   0.3020374
0.4284921    -0.9998031  -0.0008082   0.0000136  -0.0000022   0.0000050  -0.0000019  -0.9353126   0.3021829
0.4337597    -0.9997708  -0.0007850   0.0000072  -0.0000016  -0.0000025  -0.0000129  -0.9351899   0.3024178
0.4390920    -0.9997868  -0.0008220   0.0000156   0.0000092   0.0000014  -0.0000040  -0.9351455   0.3026475
0.4444898    -0.9997196  -0.0008016   0.0000043  -0.0000007   0.0000003  -0.0000071  -0.9350953   0.3028394
0.4499541    -0.9997876  -0.0008285   0.0000128  -0.0000116   0.0000018   0.0000071  -0.9349420   0.3029515
0.4554854    -0.9997205  -0.0008304   0.0000060   0.0000016  -0.0000024   0.0000004  -0.9349191   0.3031716
0.4610848    -0.9998003  -0.0008917   0.0000060  -0.0000029   0.0000036  -0.0000010  -0.9347462   0.3034583
0.4667531    -0.9997399  -0.0009026   0.0000083  -0.0000049  -0.0000048  -0.0000122  -0.9347264   0.3035858
0.4724910    -0.9997705  -0.0008361   0.0000193  -0.0000106   0.0000114  -0.0000039  -0.9345766   0.3037551
0.4782994    -0.9997538  -0.0008014   0.0000200  -0.0000013  -0.0000062  -0.0000052  -0.9345650   0.3040264
0.4841793    -0.9997799  -0.0009561   0.0000093   0.0000051   0.0000106   0.0000023  -0.9344129   0.3041643
0.4901314    -0.9997995  -0.0009536   0.0000068  -0.0000027   0.0000062  -0.0000086  -0.9344641   0.3044346
0.4961567    -0.9997869  -0.0009849   0.0000118   0.0000104  -0.0000058  -0.0000014  -0.9343045   0.3046205
0.5022561    -0.9997997  -0.0009740   0.0000135   0.0000045  -0.0000017  -0.0000053  -0.9341865   0.3048411
0.5084304    -0.9997396  -0.0009465   0.0000081  -0.0000007  -0.0000013  -0.0000019  -0.9340425   0.3051119
0.5146807    -0.9997593  -0.0009272   0.0000129  -0.0000021  -0.0000092  -0.0000063  -0.9339961   0.3052493
0.5210078    -0.9997423  -0.0009314   0.0000094  -0.0000011   0.0000043  -0.0000041  -0.9338725   0.3054744
0.5274126    -0.9997607  -0.0010030   0.0000019   0.0000003  -0.0000064  -0.0000075  -0.9338402   0.3057256
0.5338963    -0.9998208  -0.0010149  -0.0000008   0.0000025   0.0000003   0.0000057  -0.9337405   0.3059158
0.5404596    -0.9997396  -0.0011082   0.0000025  -0.0000017  -0.0000084   0.0000050  -0.9336710   0.3062319
0.5471036    -0.9997850  -0.0010111   0.0000007  -0.0000120  -0.0000094  -0.0000065  -0.9335276   0.3063257
0.5538292    -0.9997394  -0.0010216   0.0000034   0.0000006   0.0000020  -0.0000054  -0.9334165   0.3066357
0.5606376    -0.9997300  -0.0010521   0.0000151  -0.0000050  -0.0000026  -0.0000073  -0.9332411   0.3068205
0.5675297    -0.9998297  -0.0011452   0.0000099  -0.0000036  -0.0000022  -0.0000028  -0.9331879   0.3071370
0.5745064    -0.9997178  -0.0011249   0.0000094  -0.0000096   0.0000018   0.0000011  -0.9330557   0.3073340
0.5815690    -0.9997553  -0.0010931  -0.0000045   0.0000094   0.0000020   0.0000047  -0.9330523   0.3075216
0.5887183    -0.9998075  -0.0010288   0.0000109   0.0000011  -0.0000109  -0.0000114  -0.9328489   0.3077647
0.5959556    -0.9997700  -0.0011059   0.0000030  -0.0000059  -0.0000057  -0.0000093  -0.9327533   0.3080503
0.6032818    -0.9997110  -0.0011146   0.0000121   0.0000021  -0.0000051  -0.0000031  -0.9326622   0.3083318
0.6106981    -0.9997832  -0.0012132   0.0000091  -0.0000051   0.0000033  -0.0000101  -0.9325332   0.3086434
0.6182056    -0.9998112  -0.0011270   0.0000186   0.0000004   0.0000045  -0.0000047  -0.9324797   0.3087512
0.6258053    -0.9997643  -0.0012048   0.0000061   0.0000063  -0.0000036   0.0000009  -0.9323100   0.3090988
0.6334985    -0.9997126  -0.0011754   0.0000033  -0.0000124   0.0000043  -0.0000057  -0.9322906   0.3093580
0.6412862    -0.9997636  -0.0012586   0.0000170  -0.0000034  -0.0000087  -0.0000039  -0.9320162   0.3096498
0.6491697    -0.9997301  -0.0013174   0.0000004  -0.0000020  -0.0000025   0.0000017  -0.9320639   0.3099768
0.6571501    -0.9997188  -0.0011921   0.0000024   0.0000026  -0.0000156  -0.0000076  -0.9318527   0.3101546
0.6652286    -0.9997409  -0.0012086   0.0000049   0.0000008   0.0000013  -0.0000025  -0.9317385   0.3105023
0.6734064    -0.9997514  -0.0012383   0.0000140   0.0000096  -0.0000007  -0.0000128  -0.9316249   0.3107810
0.6816848    -0.9996810  -0.0012416   0.0000165   0.0000028  -0.0000108  -0.0000052  -0.9314518   0.3109770
0.6900649    -0.9997805  -0.0012264   0.0000110  -0.0000076  -0.0000001  -0.0000024  -0.9313558   0.3112493
0.6985480    -0.9996450  -0.0013306   0.0000158   0.0000108  -0.0000011  -0.0000022  -0.9312130   0.3116300
0.7071355    -0.9996934  -0.0013396   0.0000079  -0.0000085   0.0000024  -0.0000047  -0.9311384   0.3119213
0.7158284    -0.9997461  -0.0013351   0.0000131  -0.0000009   0.0000018  -0.0000044  -0.9310515   0.3121998
0.7246283    -0.9997234  -0.0013890   0.0000019   0.0000016  -0.0000065  -0.0000022  -0.9308397   0.3124587
0.7335363    -0.9997095  -0.0014326   0.0000120  -0.0000089   0.0000072  -0.0000030  -0.9308036   0.3127722
0.7425539    -0.9997268  -0.0013961   0.0000136  -0.0000043  -0.0000014  -0.0000051  -0.9306783   0.3131388
0.7516822    -0.9997886  -0.0013673   0.0000099   0.0000011  -0.0000061   0.0000039  -0.9304417   0.3133883
0.7609229    -0.9998173  -0.0014127   0.0000027  -0.0000013  -0.0000108  -0.0000073  -0.9302693   0.3136903
0.7702771    -0.9996792  -0.0015139   0.0000210  -0.0000023   0.0000060  -0.0000118  -0.9301103   0.3139566
0.7797463    -0.9996498  -0.0014984   0.0000130   0.0000045  -0.0000053  -0.0000039  -0.9299867   0.3143409
0.7893319    -0.9996186  -0.0015009   0.0000003   0.0000114  -0.0000011  -0.0000039  -0.9298566   0.3146606
0.7990353    -0.9997136  -0.0014787  -0.0000007  -0.0000042   0.0000108   0.0000006  -0.9297423   0.3149845
0.8088580    -0.9997246  -0.0015902   0.0000159  -0.0000142  -0.0000011  -0.0000043  -0.9295781   0.3153214
0.8188015    -0.9997648  -0.0015906   0.0000140   0.0000055  -0.0000041  -0.0000032  -0.9294537   0.3156519
0.8288673    -0.9996789  -0.0016239   0.0000116   0.0000040  -0.0000032  -0.0000065  -0.9292674   0.3159989
0.8390567    -0.9997328  -0.0015562   0.0000069  -0.0000094   0.0000029  -0.0000167  -0.9291964   0.3163791
0.8493714    -0.9997227  -0.0016502   0.0000084  -0.0000047   0.0000081  -0.0000012  -0.9290133   0.3166715
0.8598130    -0.9997448  -0.0016656   0.0000068   0.0000028   0.0000073  -0.0000083  -0.9288463   0.3170546
0.8703829    -0.9997636  -0.0016623   0.0000130   0.0000081   0.0000037  -0.0000044  -0.9286617   0.3173866
0.8810827    -0.9997382  -0.0016390   0.0000053   0.0000059  -0.0000029  -0.0000054  -0.9285109   0.3178376
0.8919140    -0.9997612  -0.0016465   0.0000043   0.0000076   0.0000023  -0.0000108  -0.9283561   0.3181357
0.9028786    -0.9997191  -0.0017424   0.0000044  -0.0000047  -0.0000092   0.0000004  -0.9281942   0.3185210
0.9139779    -0.9998454  -0.0017396   0.0000164  -0.0000017  -0.0000026  -0.0000067  -0.9280326   0.3189216
0.9252136    -0.9998670  -0.0017434   0.0000057  -0.0000015  -0.0000001  -0.0000139  -0.9278553   0.3192816
0.9365875    -0.9997543  -0.0018334  -0.0000012   0.0000130  -0.0000034   0.0000006  -0.9276938   0.3196557
0.9481012    -0.9997963  -0.0018162   0.0000078   0.0000046  -0.0000017  -0.0000055  -0.9275186   0.3200543
0.9597564    -0.9997348  -0.0018774   0.0000049   0.0000119  -0.0000017  -0.0000023  -0.9273121   0.3204456
0.9715549    -0.9996731  -0.0019540   0.0000071   0.0000046  -0.0000036  -0.0000012  -0.9271461   0.3208858
0.9834985    -0.9997058  -0.0019020   0.0000142   0.0000010  -0.0000065  -0.0000013  -0.9270109   0.3212321
0.9955889    -0.9997259  -0.0019056  -0.0000006  -0.0000002  -0.0000032  -0.0000050  -0.9268638   0.3216050
1.0078279    -0.9997393  -0.0018597   0.0000078  -0.0000010   0.0000107  -0.0000079  -0.9265545   0.3220619
1.0202173    -0.9997262  -0.0019257   0.0000176  -0.0000036   0.0000011  -0.0000053  -0.9264578   0.3224213
1.0327591    -0.9997424  -0.0019393   0.0000055   0.0000164  -0.0000039  -0.0000004  -0.9262505   0.3229331
1.0454551    -0.9997421  -0.0020558   0.0000034  -0.0000069   0.0000008  -0.0000101  -0.9260666   0.3233381
1.0583071    -0.9997640  -0.0020067   0.0000137   0.0000060  -0.0000013   0.0000049  -0.9258682   0.3237213
1.0713171    -0.9997741  -0.0020863   0.0000037   0.0000033  -0.0000064   0.0000018  -0.9255917   0.3241481
1.0844871    -0.9997710  -0.0021013   0.0000126  -0.0000012  -0.0000048   0.0000027  -0.9254617   0.3245377
1.0978189    -0.9996913  -0.0021462   0.0000119   0.0000014   0.0000007   0.0000068  -0.9252756   0.3250599
1.1113147    -0.9997257  -0.0021067  -0.0000023  -0.0000079  -0.0000006  -0.0000055  -0.9250334   0.3254274
1.1249763    -0.9997727  -0.0021914   0.0000125   0.0000037  -0.0000013  -0.0000018  -0.9248774   0.3259905
1.1388059    -0.9996944  -0.0022279   0.0000020   0.0000069  -0.0000019  -0.0000060  -0.9247198   0.3264517
1.1528056    -0.9997409  -0.0022357   0.0000142  -0.0000057  -0.0000044  -0.0000036  -0.9244583   0.3268988
1.1669773    -0.9997063  -0.0022090  -0.0000085   0.0000015  -0.0000009  -0.0000082  -0.9242727   0.3273953
1.1813232    -0.9997275  -0.0022829   0.0000120   0.0000015  -0.0000031  -0.0000048  -0.9240773   0.3278585
1.1958455    -0.9997465  -0.0023150   0.0000076   0.0000089   0.0000009   0.0000004  -0.9238039   0.3283554
1.2105463    -0.9997430  -0.0023497   0.0000031   0.0000033  -0.0000031  -0.0000085  -0.9236208   0.3288517
1.2254278    -0.9997840  -0.0023423   0.0000044   0.0000043  -0.0000064   0.0000002  -0.9233540   0.3293477
1.2404923    -0.9997298  -0.0023624   0.0000130  -0.0000006   0.0000005  -0.0000006  -0.9232183   0.3298264
1.2557420    -0.9996143  -0.0024165   0.0000086  -0.0000054   0.0000060  -0.0000034  -0.9229541   0.3303611
1.2711791    -0.9997443  -0.0025428   0.0000099   0.0000009   0.0000058   0.0000032  -0.9226769   0.3308420
1.2868060    -0.9997354  -0.0024672   0.0000077   0.0000150  -0.0000086   0.0000018  -0.9224299   0.3313969
1.3026251    -0.9997403  -0.0025123   0.0000116   0.0000046   0.0000010  -0.0000178  -0.9221532   0.3319239
1.3186385    -0.9997221  -0.0025779   0.0000110  -0.0000001  -0.0000032  -0.0000001  -0.9219294   0.3324706
1.3348489    -0.9996987  -0.0025755  -0.0000012   0.0000074  -0.0000022  -0.0000067  -0.9217568   0.3330027
1.3512585    -0.9997379  -0.0026021   0.0000176   0.0000100  -0.0000067  -0.0000152  -0.9214508   0.3335168
1.3678698    -0.9997600  -0.0026001   0.0000054  -0.0000050  -0.0000091  -0.0000157  -0.9212825   0.3340755
1.3846854    -0.9996993  -0.0026864   0.0000096  -0.0000017   0.0000027  -0.0000135  -0.9210106   0.3347380
1.4017077    -0.9997431  -0.0026911   0.0000104   0.0000023   0.0000041   0.0000045  -0.9207423   0.3352204
1.4189392    -0.9997078  -0.0027789   0.0000032   0.0000079   0.0000006   0.0000001  -0.9205003   0.3357456
1.4363825    -0.9997480  -0.0027494   0.0000009   0.0000103  -0.0000072  -0.0000012  -0.9202484   0.3363581
1.4540403    -0.9997509  -0.0027735   0.0000062   0.0000029  -0.0000064  -0.0000011  -0.9199559   0.3369570
1.4719152    -0.9996523  -0.0028313  -0.0000044   0.0000131   0.0000078   0.0000075  -0.9197156   0.3376479
1.4900098    -0.9997601  -0.0028686  -0.0000058   0.0000058   0.0000059  -0.0000025  -0.9193985   0.3381595
1.5083269    -0.9997111  -0.0029204   0.0000051   0.0000067  -0.0000053   0.0000013  -0.9191216   0.3387463
1.5268691    -0.9998442  -0.0029263   0.0000104   0.0000076   0.0000075  -0.0000016  -0.9188447   0.3393919
1.5456392    -0.9996932  -0.0030238   0.0000046   0.0000093  -0.0000034  -0.0000016  -0.9186352   0.3399954
1.5646402    -0.9997302  -0.0031139   0.0000204   0.0000048   0.0000027  -0.0000022  -0.9183255   0.3407034
1.5838747    -0.9997326  -0.0029632   0.0000036   0.0000105  -0.0000058   0.0000018  -0.9180071   0.3413056
1.6033456    -0.9997118  -0.0031695   0.0000130   0.0000085  -0.0000038   0.0000005  -0.9178175   0.3419714
1.6230559    -0.9997469  -0.0031664   0.0000056  -0.0000021   0.0000040  -0.0000088  -0.9174998   0.3426997
1.6430085    -0.9997462  -0.0031202  -0.0000013   0.0000160  -0.0000092  -0.0000087  -0.9171685   0.3433497
1.6632064    -0.9996645  -0.0032125  -0.0000046   0.0000011  -0.0000108  -0.0000073  -0.9168588   0.3440620
1.6836526    -0.9997237  -0.0032468  -0.0000028   0.0000070   0.0000037  -0.0000099  -0.9166106   0.3447857
1.7043502    -0.9997022  -0.0032844   0.0000178  -0.0000008   0.0000002  -0.0000113  -0.9161800   0.3455200
1.7253021    -0.9997516  -0.0033725   0.0000118   0.0000059  -0.0000079  -0.0000040  -0.9159925   0.3461715
1.7465117    -0.9996854  -0.0033800   0.0000075  -0.0000024   0.0000025  -0.0000055  -0.9157903   0.3469968
1.7679820    -0.9996906  -0.0033842   0.0000056   0.0000068  -0.0000045   0.0000031  -0.9154066   0.3477171
1.7897162    -0.9997110  -0.0034713  -0.0000019   0.0000072  -0.0000016  -0.0000074  -0.9151174   0.3484560
1.8117176    -0.9997196  -0.0035071   0.0000058   0.0000030  -0.0000088  -0.0000035  -0.9147761   0.3493066
1.8339895    -0.9997838  -0.0035223   0.0000103   0.0000057  -0.0000118  -0.0000034  -0.9144893   0.3500739
1.8565352    -0.9997599  -0.0035844  -0.0000052   0.0000024  -0.0000061  -0.0000007  -0.9141587   0.3508992
1.8793580    -0.9996738  -0.0035860   0.0000009   0.0000117   0.0000050  -0.0000067  -0.9138773   0.3516445
1.9024614    -0.9997195  -0.0036713   0.0000116   0.0000168   0.0000034   0.0000019  -0.9136433   0.3524820
1.9258488    -0.9997304  -0.0036832   0.0000118   0.0000083  -0.0000040  -0.0000066  -0.9132013   0.3533232
1.9495237    -0.9996802  -0.0038423   0.0000104   0.0000168  -0.0000036  -0.0000086  -0.9128573   0.3542622
1.9734897    -0.9996934  -0.0037997   0.0000076   0.0000076  -0.0000027  -0.0000027  -0.9124967   0.3551210
1.9977503    -0.9997175  -0.0038629   0.0000059   0.0000146  -0.0000022  -0.0000100  -0.9121862   0.3560367
2.0223091    -0.9997293  -0.0038946   0.0000093   0.0000170   0.0000036  -0.0000066  -0.9117146   0.3569520
2.0471698    -0.9997231  -0.0040604   0.0000116   0.0000056   0.0000021  -0.0000058  -0.9112576   0.3578717
2.0723362    -0.9997063  -0.0040009   0.0000024   0.0000123  -0.0000052  -0.0000109  -0.9108508   0.3587810
2.0978119    -0.9997065  -0.0040616   0.0000039   0.0000093  -0.0000046  -0.0000081  -0.9103719   0.3597379
2.1236008    -0.9996934  -0.0041199   0.0000048   0.0000180  -0.0000093  -0.0000004  -0.9098752   0.3606545
2.1497067    -0.9997085  -0.0041556   0.0000004   0.0000136  -0.0000046  -0.0000022  -0.9093895   0.3616367
2.1761336    -0.9996989  -0.0042674   0.0000054   0.0000170  -0.0000068  -0.0000094  -0.9089004   0.3624516
2.2028853    -0.9997628  -0.0043053   0.0000081   0.0000181  -0.0000069  -0.0000036  -0.9082573   0.3634525
2.2299659    -0.9997349  -0.0042826   0.0000118   0.0000134  -0.0000041  -0.0000103  -0.9079217   0.3643863
2.2573794    -0.9997322  -0.0044278   0.0000167   0.0000087  -0.0000005   0.0000045  -0.9073349   0.3653268
2.2851299    -0.9997449  -0.0044989   0.0000089   0.0000131  -0.0000203  -0.0000078  -0.9067572   0.3662666
2.3132216    -0.9997553  -0.0044608   0.0000111   0.0000111  -0.0000061  -0.0000051  -0.9062437   0.3671181
2.3416586    -0.9996949  -0.0045856   0.0000080   0.0000063   0.0000013  -0.0000147  -0.9056892   0.3680784
2.3704451    -0.9997436  -0.0046791   0.0000034   0.0000119  -0.0000051  -0.0000091  -0.9051684   0.3691096
2.3995856    -0.9997535  -0.0046682   0.0000117   0.0000230  -0.0000066  -0.0000082  -0.9045189   0.3700807
2.4290843    -0.9997783  -0.0047014   0.0000039   0.0000057  -0.0000003  -0.0000136  -0.9041214   0.3709168
2.4589456    -0.9996980  -0.0047816   0.0000164   0.0000077  -0.0000015  -0.0000055  -0.9035454   0.3719175
2.4891740    -0.9997698  -0.0048117   0.0000082   0.0000142   0.0000065   0.0000046  -0.9030067   0.3729132
2.5197740    -0.9997087  -0.0048924   0.0000080   0.0000144  -0.0000101  -0.0000049  -0.9025121   0.3739415
2.5507502    -0.9997205  -0.0049135   0.0000002   0.0000251  -0.0000041   0.0000006  -0.9019500   0.3748543
2.5821072    -0.9996837  -0.0050090   0.0000047   0.0000131   0.0000005  -0.0000009  -0.9013914   0.3758758
2.6138496    -0.9997665  -0.0051189   0.0000027   0.0000172  -0.0000073  -0.0000027  -0.9007222   0.3768633
2.6459823    -0.9997498  -0.0050835   0.0000171   0.0000133  -0.0000029   0.0000048  -0.9001987   0.3779199
2.6785100    -0.9996811  -0.0052051   0.0000028   0.0000177  -0.0000082  -0.0000121  -0.8996597   0.3790409
2.7114376    -0.9997471  -0.0052791   0.0000200   0.0000060  -0.0000063  -0.0000062  -0.8990225   0.3800620
2.7447699    -0.9997424  -0.0053806  -0.0000014   0.0000249   0.0000017  -0.0000063  -0.8984440   0.3810689
2.7785120    -0.9997734  -0.0054113   0.0000119   0.0000096  -0.0000026  -0.0000068  -0.8978285   0.3821643
2.8126689    -0.9997643  -0.0054739   0.0000031   0.0000159  -0.0000122   0.0000035  -0.8973122   0.3833147
2.8472457    -0.9997505  -0.0054981   0.0000030   0.0000104  -0.0000035  -0.0000070  -0.8967607   0.3844286
2.8822476    -0.9997154  -0.0056314   0.0000175   0.0000132   0.0000060   0.0000022  -0.8961782   0.3855124
2.9176798    -0.9997694  -0.0056737  -0.0000003   0.0000192  -0.0000007  -0.0000141  -0.8955195   0.3866086
2.9535475    -0.9996636  -0.0057893   0.0000056   0.0000204  -0.0000058  -0.0000054  -0.8949483   0.3878070
2.9898562    -0.9997258  -0.0058255   0.0000107   0.0000131  -0.0000028  -0.0000049  -0.8942470   0.3890268
3.0266112    -0.9996713  -0.0058690   0.0000092   0.0000098  -0.0000014  -0.0000102  -0.8936296   0.3901293
3.0638180    -0.9996780  -0.0059432   0.0000031   0.0000138  -0.0000027  -0.0000106  -0.8929854   0.3913348
3.1014823    -0.9997640  -0.0060363   0.0000093   0.0000030   0.0000122   0.0000001  -0.8923790   0.3926033
3.1396096    -0.9997631  -0.0060889   0.0000037   0.0000028   0.0000007  -0.0000151  -0.8916534   0.3937399
3.1782055    -0.9998071  -0.0061594   0.0000043   0.0000192  -0.0000052  -0.0000060  -0.8910269   0.3950064
3.2172760    -0.9997605  -0.0061469   0.0000141   0.0000219  -0.0000021  -0.0000025  -0.8903442   0.3962763
3.2568267    -0.9997711  -0.0062844   0.0000191   0.0000099   0.0000000   0.0000010  -0.8897056   0.3975141
3.2968637    -0.9997527  -0.0063530   0.0000081   0.0000036   0.0000079  -0.0000071  -0.8889123   0.3988380
3.3373928    -0.9997051  -0.0064463   0.0000057   0.0000189  -0.0000055  -0.0000043  -0.8882090   0.4000991
3.3784202    -0.9997729  -0.0065289   0.0000040   0.0000226   0.0000017  -0.0000115  -0.8874257   0.4014749
3.4199519    -0.9997453  -0.0065805   0.0000147   0.0000215  -0.0000018  -0.0000072  -0.8867184   0.4027799
3.4619942    -0.9997104  -0.0066946   0.0000161   0.0000111   0.0000094  -0.0000015  -0.8859021   0.4040620
3.5045533    -0.9997510  -0.0066926   0.0000006   0.0000276  -0.0000130  -0.0000043  -0.8851955   0.4055343
3.5476356    -0.9997141  -0.0068950   0.0000071   0.0000191  -0.0000032  -0.0000072  -0.8844131   0.4068135
3.5912475    -0.9996712  -0.0069463   0.0000052   0.0000133   0.0000050  -0.0000068  -0.8835820   0.4081858
3.6353956    -0.9997032  -0.0070936   0.0000072   0.0000180  -0.0000033   0.0000033  -0.8828196   0.4096963
3.6800864    -0.9997248  -0.0071433   0.0000096   0.0000231  -0.0000019  -0.0000012  -0.8820544   0.4111741
3.7253266    -0.9998231  -0.0072331   0.0000101   0.0000209  -0.0000012   0.0000029  -0.8812237   0.4125975
3.7711229    -0.9998000  -0.0073157   0.0000034   0.0000140   0.0000036  -0.0000073  -0.8804596   0.4140384
3.8174822    -0.9997595  -0.0074103   0.0000026   0.0000197   0.0000054  -0.0000037  -0.8795996   0.4154965
3.8644115    -0.9997975  -0.0074488   0.0000123   0.0000145  -0.0000027  -0.0000005  -0.8788628   0.4170898
3.9119176    -0.9998041  -0.0075873   0.0000097   0.0000211   0.0000050  -0.0000047  -0.8780034   0.4186069
3.9600077    -0.9997107  -0.0076498   0.0000050   0.0000116  -0.0000003  -0.0000106  -0.8772529   0.4201030
4.0086890    -0.9997910  -0.0076983   0.0000125   0.0000199  -0.0000001  -0.0000011  -0.8762245   0.4216955
4.0579688    -0.9997227  -0.0077753   0.0000035   0.0000225   0.0000105  -0.0000087  -0.8753939   0.4232443
4.1078544    -0.9997565  -0.0078798   0.0000047   0.0000106   0.0000009  -0.0000062  -0.8745147   0.4247613
4.1583532    -0.9998069  -0.0080737  -0.0000024   0.0000154  -0.0000076  -0.0000134  -0.8735491   0.4263804
4.2094729    -0.9997995  -0.0081492   0.0000106   0.0000196  -0.0000130  -0.0000085  -0.8727399   0.4279787
4.2612209    -0.9997604  -0.0081842   0.0000068   0.0000337   0.0000049  -0.0000003  -0.8717528   0.4295703
4.3136051    -0.9997883  -0.0083117   0.0000106   0.0000239   0.0000094  -0.0000038  -0.8707551   0.4312195
4.3666333    -0.9997213  -0.0084842   0.0000079   0.0000222  -0.0000042  -0.0000094  -0.8698497   0.4329018
4.4203134    -0.9997635  -0.0085322   0.0000083   0.0000195  -0.0000094  -0.0000055  -0.8687537   0.4345216
4.4746534    -0.9997746  -0.0086334   0.0000133   0.0000183  -0.0000100  -0.0000040  -0.8676684   0.4362446
4.5296613    -0.9997680  -0.0087178   0.0000000   0.0000270  -0.0000140  -0.0000062  -0.8666960   0.4379928
4.5853455    -0.9997966  -0.0088015   0.0000091   0.0000272   0.0000126  -0.0000056  -0.8655878   0.4397037
4.6417143    -0.9997711  -0.0089398   0.0000077   0.0000205   0.0000038  -0.0000010  -0.8644354   0.4412928
4.6987760    -0.9997546  -0.0090393   0.0000039   0.0000215  -0.0000146  -0.0000077  -0.8633619   0.4429503
4.7565392    -0.9997745  -0.0091900   0.0000099   0.0000195  -0.0000048  -0.0000118  -0.8622112   0.4446939
4.8150125    -0.9998366  -0.0093510   0.0000049   0.0000262   0.0000012  -0.0000054  -0.8610678   0.4463435
4.8742045    -0.9997355  -0.0094577   0.0000086   0.0000265   0.0000013  -0.0000100  -0.8598778   0.4479819
4.9341243    -0.9997796  -0.0095142   0.0000073   0.0000284  -0.0000079  -0.0000109  -0.8588102   0.4494953
4.9947807    -0.9997081  -0.0096303   0.0000037   0.0000229  -0.0000006  -0.0000013  -0.8578174   0.4510817
5.0561827    -0.9998684  -0.0098042   0.0000049   0.0000275  -0.0000007  -0.0000055  -0.8568059   0.4527803
5.1183396    -0.9998224  -0.0098350   0.0000137   0.0000355   0.0000014  -0.0000067  -0.8558557   0.4544847
5.1812606    -0.9997999  -0.0099881   0.0000060   0.0000244   0.0000041   0.0000007  -0.8549632   0.4562606
5.2449550    -0.9997689  -0.0102078   0.0000052   0.0000275  -0.0000038  -0.0000165  -0.8540537   0.4582926
5.3094325    -0.9997630  -0.0101841   0.0000092   0.0000373  -0.0000002  -0.0000129  -0.8530595   0.4601084
5.3747026    -0.9997878  -0.0103631   0.0000087   0.0000350  -0.0000032  -0.0000010  -0.8520304   0.4623129
5.4407751    -0.9997235  -0.0105131   0.0000088   0.0000338   0.0000050  -0.0000045  -0.8508710   0.4642557
5.5076599    -0.9997581  -0.0105811   0.0000133   0.0000290  -0.0000117  -0.0000096  -0.8497691   0.4663224
5.5753669    -0.9997955  -0.0107488   0.0000081   0.0000288   0.0000046  -0.0000046  -0.8485973   0.4684798
5.6439062    -0.9996077  -0.0108308   0.0000043   0.0000285   0.0000020  -0.0000020  -0.8474325   0.4705647
5.7132881    -0.9997320  -0.0109960   0.0000216   0.0000191  -0.0000053  -0.0000021  -0.8461542   0.4727491
5.7835229    -0.9997197  -0.0111541   0.0000102   0.0000389   0.0000120  -0.0000015  -0.8448744   0.4749231
5.8546211    -0.9997050  -0.0113032   0.0000053   0.0000347   0.0000019  -0.0000059  -0.8436650   0.4771559
5.9265934    -0.9997874  -0.0113542   0.0000096   0.0000216   0.0000031  -0.0000032  -0.8422969   0.4793258
5.9994504    -0.9997860  -0.0115489   0.0000072   0.0000255  -0.0000047  -0.0000054  -0.8409209   0.4814409
6.0732031    -0.9996969  -0.0116893   0.0000173   0.0000386  -0.0000113  -0.0000100  -0.8395623   0.4836481
6.1478624    -0.9997439  -0.0117847   0.0000105   0.0000358   0.0000063  -0.0000045  -0.8381859   0.4858738
6.2234396    -0.9997519  -0.0119258   0.0000144   0.0000202  -0.0000013  -0.0000036  -0.8366054   0.4881844
6.2999458    -0.9998137  -0.0121253   0.0000086   0.0000360  -0.0000015  -0.0000074  -0.8352632   0.4904485
6.3773925    -0.9997615  -0.0122844   0.0000108   0.0000326  -0.0000065  -0.0000109  -0.8337530   0.4927246
6.4557914    -0.9997512  -0.0123253   0.0000068   0.0000463   0.0000019  -0.0000044  -0.8322471   0.4949631
6.5351539    -0.9997742  -0.0125467   0.0000147   0.0000308  -0.0000016   0.0000001  -0.8307492   0.4973691
6.6154922    -0.9997662  -0.0127161   0.0000065   0.0000383   0.0000017  -0.0000067  -0.8291662   0.4997310
6.6968180    -0.9997033  -0.0128721   0.0000103   0.0000295  -0.0000013  -0.0000054  -0.8275994   0.5021189
6.7791436    -0.9997977  -0.0130121   0.0000111   0.0000354  -0.0000036  -0.0000061  -0.8260330   0.5044637
6.8624812    -0.9997310  -0.0131787   0.0000017   0.0000340  -0.0000017  -0.0000108  -0.8244187   0.5069328
6.9468433    -0.9997200  -0.0134435   0.0000150   0.0000286  -0.0000075   0.0000006  -0.8228260   0.5093485
7.0322425    -0.9997492  -0.0135166   0.0000001   0.0000323  -0.0000001  -0.0000017  -0.8211146   0.5118158
7.1186916    -0.9997791  -0.0136641   0.0000042   0.0000348   0.0000055  -0.0000068  -0.8194095   0.5143454
7.2062034    -0.9997480  -0.0138960   0.0000001   0.0000367  -0.0000054  -0.0000028  -0.8176992   0.5169044
7.2947909    -0.9997196  -0.0139761   0.0000146   0.0000409  -0.0000060  -0.0000003  -0.8159561   0.5194736
7.3844675    -0.9997482  -0.0141367   0.0000076   0.0000332  -0.0000109  -0.0000018  -0.8142863   0.5220747
7.4752466    -0.9997795  -0.0143444   0.0000013   0.0000396   0.0000062  -0.0000064  -0.8124937   0.5246904
7.5671416    -0.9997261  -0.0144705   0.0000044   0.0000375  -0.0000101   0.0000033  -0.8107805   0.5273408
7.6601662    -0.9997837  -0.0146260  -0.0000025   0.0000376  -0.0000032  -0.0000058  -0.8089321   0.5300260
7.7543345    -0.9997509  -0.0149038   0.0000088   0.0000351  -0.0000011  -0.0000027  -0.8070409   0.5328550
7.8496604    -0.9997436  -0.0151063  -0.0000015   0.0000412  -0.0000081  -0.0000079  -0.8052010   0.5356596
7.9461581    -0.9997715  -0.0152340   0.0000018   0.0000424  -0.0000041  -0.0000001  -0.8031845   0.5385086
8.0438422    -0.9998185  -0.0154730   0.0000120   0.0000387  -0.0000019   0.0000034  -0.8012046   0.5413537
8.1427270    -0.9997173  -0.0156601  -0.0000028   0.0000373   0.0000042   0.0000010  -0.7990345   0.5443276
8.2428275    -0.9997862  -0.0158140   0.0000069   0.0000401   0.0000016   0.0000028  -0.7968067   0.5471867
8.3441586    -0.9997051  -0.0160615   0.0000133   0.0000417  -0.0000017   0.0000017  -0.7946318   0.5499687
8.4467353    -0.9997493  -0.0162525   0.0000098   0.0000494   0.0000085  -0.0000037  -0.7923743   0.5529673
8.5505731    -0.9997659  -0.0164630  -0.0000009   0.0000499   0.0000036  -0.0000037  -0.7900742   0.5557386
8.6556873    -0.9998548  -0.0166805   0.0000032   0.0000493   0.0000022  -0.0000069  -0.7877981   0.5586649
8.7620937    -0.9997688  -0.0168129   0.0000131   0.0000519  -0.0000146  -0.0000022  -0.7855033   0.5615264
8.8698082    -0.9997226  -0.0170148  -0.0000044   0.0000485   0.0000006  -0.0000076  -0.7831491   0.5644380
8.9788469    -0.9997701  -0.0173192   0.0000029   0.0000385   0.0000057  -0.0000060  -0.7808526   0.5673655
9.0892260    -0.9997309  -0.0173887   0.0000046   0.0000538  -0.0000017  -0.0000065  -0.7784899   0.5703176
9.2009621    -0.9997784  -0.0176279   0.0000150   0.0000477  -0.0000012  -0.0000011  -0.7759998   0.5733714
9.3140717    -0.9997294  -0.0177930   0.0000103   0.0000634   0.0000038   0.0000058  -0.7735743   0.5763568
9.4285718    -0.9998334  -0.0180802   0.0000079   0.0000601  -0.0000053  -0.0000121  -0.7711036   0.5794398
9.5444795    -0.9997968  -0.0183144   0.0000067   0.0000428  -0.0000082   0.0000062  -0.7685506   0.5825374
9.6618121    -0.9996900  -0.0185135   0.0000168   0.0000472   0.0000018  -0.0000043  -0.7660223   0.5856292
9.7805870    -0.9997456  -0.0187381   0.0000113   0.0000611   0.0000009   0.0000032  -0.7634060   0.5888029
9.9008221    -0.9996884  -0.0189081   0.0000065   0.0000514   0.0000039  -0.0000012  -0.7607542   0.5920226
10.0225353   -0.9997377  -0.0191515   0.0000030   0.0000397  -0.0000049  -0.0000083  -0.7581033   0.5951324
10.1457447   -0.9997807  -0.0194518   0.0000122   0.0000529  -0.0000039  -0.0000058  -0.7553612   0.5984296
10.2704688   -0.9997547  -0.0196461   0.0000095   0.0000538  -0.0000041  -0.0000085  -0.7526769   0.6017045
10.3967261   -0.9997524  -0.0198755   0.0000080   0.0000475  -0.0000061  -0.0000066  -0.7498397   0.6050384
10.5245356   -0.9997939  -0.0200684   0.0000070   0.0000524  -0.0000079  -0.0000076  -0.7469667   0.6082174
10.6539162   -0.9997699  -0.0203801  -0.0000003   0.0000496   0.0000029   0.0000029  -0.7440703   0.6115378
10.7848873   -0.9997350  -0.0206329   0.0000202   0.0000504   0.0000005  -0.0000063  -0.7411368   0.6149778
10.9174685   -0.9996904  -0.0208755  -0.0000057   0.0000469  -0.0000070  -0.0000035  -0.7381281   0.6183689
11.0516796   -0.9996144  -0.0211882   0.0000111   0.0000605  -0.0000045   0.0000037  -0.7349763   0.6217995
11.1875405   -0.9996618  -0.0214551   0.0000030   0.0000533   0.0000009  -0.0000076  -0.7319551   0.6253218
11.3250716   -0.9996524  -0.0217089   0.0000100   0.0000659  -0.0000013  -0.0000002  -0.7288001   0.6287838
11.4642934   -0.9996557  -0.0219903   0.0000168   0.0000550  -0.0000070  -0.0000020  -0.7255736   0.6322627
11.6052267   -0.9997018  -0.0221172   0.0000002   0.0000539  -0.0000104  -0.0000051  -0.7223402   0.6358978
11.7478926   -0.9996889  -0.0224383   0.0000068   0.0000513  -0.0000036   0.0000009  -0.7190147   0.6394037
11.8923122   -0.9997385  -0.0226660   0.0000153   0.0000547   0.0000007   0.0000002  -0.7156511   0.6429700
12.0385073   -0.9996523  -0.0229400   0.0000081   0.0000510  -0.0000075  -0.0000003  -0.7121713   0.6466395
12.1864995   -0.9997303  -0.0232519   0.0000133   0.0000721  -0.0000044  -0.0000095  -0.7086981   0.6502674
12.3363111   -0.9996114  -0.0235928   0.0000169   0.0000629  -0.0000098  -0.0000015  -0.7052440   0.6539590
12.4879643   -0.9996869  -0.0238561   0.0000099   0.0000647  -0.0000047  -0.0000026  -0.7015574   0.6576797
12.6414818   -0.9997163  -0.0241243   0.0000151   0.0000701   0.0000050  -0.0000068  -0.6978449   0.6613944
12.7968866   -0.9996528  -0.0244372   0.0000088   0.0000663   0.0000019  -0.0000131  -0.6941116   0.6651428
12.9542018   -0.9996319  -0.0247219   0.0000145   0.0000622   0.0000027   0.0000004  -0.6903715   0.6689079
13.1134509   -0.9996774  -0.0250261   0.0000091   0.0000666  -0.0000100  -0.0000035  -0.6864955   0.6727020
13.2746577   -0.9996338  -0.0253107   0.0000114   0.0000648  -0.0000033  -0.0000037  -0.6825288   0.6765492
13.4378462   -0.9996902  -0.0255763   0.0000115   0.0000769   0.0000116  -0.0000093  -0.6785797   0.6805044
13.6030409   -0.9996443  -0.0259324   0.0000116   0.0000679   0.0000024  -0.0000091  -0.6744924   0.6843455
13.7702663   -0.9996664  -0.0262752   0.0000019   0.0000727  -0.0000078   0.0000053  -0.6703140   0.6882447
13.9395475   -0.9995971  -0.0266461   0.0000179   0.0000660  -0.0000009  -0.0000010  -0.6661352   0.6921232
14.1109097   -0.9995819  -0.0268632   0.0000128   0.0000748  -0.0000038  -0.0000051  -0.6618006   0.6961022
14.2843785   -0.9996698  -0.0271701   0.0000097   0.0000622   0.0000052   0.0000030  -0.6574447   0.7000021
14.4599797   -0.9996794  -0.0275617   0.0000074   0.0000684   0.0000036  -0.0000067  -0.6530176   0.7040575
14.6377397   -0.9996782  -0.0278299   0.0000113   0.0000803  -0.0000093  -0.0000076  -0.6485291   0.7080584
14.8176850   -0.9996121  -0.0282632   0.0000120   0.0000732  -0.0000131   0.0000027  -0.6439510   0.7120446
14.9998423   -0.9995735  -0.0285771   0.0000137   0.0000694  -0.0000022  -0.0000131  -0.6392536   0.7161155
15.1842390   -0.9996495  -0.0289450   0.0000109   0.0000787  -0.0000130   0.0000049  -0.6344815   0.7202062
15.3709024   -0.9995100  -0.0293039   0.0000116   0.0000750  -0.0000048   0.0000017  -0.6297241   0.7242485
15.5598606   -0.9995390  -0.0296665   0.0000072   0.0000810  -0.0000054  -0.0000108  -0.6248621   0.7283607
15.7511417   -0.9995411  -0.0300478   0.0000010   0.0000753   0.0000019  -0.0000063  -0.6198680   0.7325479
15.9447743   -0.9995414  -0.0302914   0.0000182   0.0000704   0.0000020  -0.0000005  -0.6148227   0.7366409
16.1407872   -0.9995612  -0.0307431   0.0000041   0.0000780  -0.0000153  -0.0000110  -0.6095775   0.7408179
16.3392097   -0.9995715  -0.0311257   0.0000061   0.0000873  -0.0000056   0.0000011  -0.6043237   0.7450111
16.5400716   -0.9996260  -0.0314973   0.0000180   0.0000794  -0.0000077   0.0000002  -0.5990279   0.7492048
16.7434026   -0.9995782  -0.0318505   0.0000128   0.0000829  -0.0000112  -0.0000024  -0.5935454   0.7533613
16.9492333   -0.9995223  -0.0322606   0.0000038   0.0000852   0.0000049   0.0000022  -0.5880423   0.7577115
17.1575942   -0.9994612  -0.0326756   0.0000061   0.0000805  -0.0000039   0.0000064  -0.5824226   0.7618352
17.3685166   -0.9995167  -0.0329927   0.0000087   0.0000847  -0.0000002   0.0000013  -0.5767305   0.7661086
17.5820320   -0.9994350  -0.0333965   0.0000146   0.0000806  -0.0000036  -0.0000010  -0.5708657   0.7702965
17.7981721   -0.9994792  -0.0338534   0.0000138   0.0000967  -0.0000008  -0.0000063  -0.5649477   0.7746078
18.0169693   -0.9994806  -0.0343056   0.0000164   0.0000899  -0.0000148   0.0000015  -0.5589829   0.7788677
18.2384562   -0.9995431  -0.0346908   0.0000093   0.0000871  -0.0000088  -0.0000066  -0.5528978   0.7832294
18.4626659   -0.9994394  -0.0351528   0.0000148   0.0000900   0.0000017  -0.0000043  -0.5466180   0.7874117
18.6896319   -0.9994402  -0.0354810   0.0000207   0.0000950  -0.0000066   0.0000047  -0.5403799   0.7916946
18.9193880   -0.9994250  -0.0358944   0.0000139   0.0001034  -0.0000040  -0.0000020  -0.5338648   0.7960754
19.1519686   -0.9994239  -0.0364106   0.0000113   0.0000921   0.0000009  -0.0000067  -0.5272533   0.8003731
19.3874083   -0.9994264  -0.0368326   0.0000124   0.0000954  -0.0000090  -0.0000072  -0.5205907   0.8046701
19.6257423   -0.9994030  -0.0372779   0.0000148   0.0000906  -0.0000034  -0.0000054  -0.5139282   0.8090026
19.8670063   -0.9994031  -0.0377382   0.0000119   0.0001023  -0.0000003  -0.0000053  -0.5070653   0.8132444
20.1112361   -0.9994044  -0.0381411   0.0000077   0.0001056   0.0000014   0.0000039  -0.5000667   0.8175503
20.3584684   -0.9992988  -0.0386019   0.0000090   0.0001053  -0.0000109  -0.0000031  -0.4928451   0.8218131
20.6087399   -0.9993055  -0.0392084   0.0000211   0.0001052   0.0000064  -0.0000074  -0.4856078   0.8260492
20.8620881   -0.9992822  -0.0396087   0.0000072   0.0001108  -0.0000070   0.0000015  -0.4781752   0.8303917
21.1185507   -0.9992784  -0.0400821   0.0000085   0.0001035  -0.0000055   0.0000029  -0.4706816   0.8346281
21.3781661   -0.9993039  -0.0405297   0.0000157   0.0001166  -0.0000035  -0.0000010  -0.4630449   0.8387695
21.6409730   -0.9993196  -0.0410629   0.0000119   0.0001060  -0.0000039  -0.0000078  -0.4552968   0.8429882
21.9070107   -0.9992955  -0.0415457   0.0000054   0.0001021  -0.0000070   0.0000040  -0.4474480   0.8472129
22.1763188   -0.9992523  -0.0421001   0.0000191   0.0001096  -0.0000040   0.0000040  -0.4393970   0.8514093
22.4489376   -0.9991833  -0.0425449   0.0000153   0.0001103  -0.0000043  -0.0000038  -0.4312338   0.8556008
22.7249077   -0.9991432  -0.0430924   0.0000145   0.0001067  -0.0000006  -0.0000028  -0.4229033   0.8597198
23.0042705   -0.9992474  -0.0436286   0.0000134   0.0001134  -0.0000025   0.0000032  -0.4144679   0.8638397
23.2870675   -0.9991173  -0.0441401   0.0000150   0.0001115  -0.0000063   0.0000051  -0.4059703   0.8679089
23.5733409   -0.9990873  -0.0446780   0.0000110   0.0001157  -0.0000101  -0.0000119  -0.3971808   0.8719871
23.8631337   -0.9990811  -0.0452052   0.0000021   0.0001173  -0.0000095   0.0000009  -0.3882574   0.8759217
24.1564889   -0.9990915  -0.0457548   0.0000146   0.0001166  -0.0000145   0.0000020  -0.3793041   0.8799030
24.4534504   -0.9990272  -0.0463497   0.0000204   0.0001234  -0.0000039  -0.0000033  -0.3701540   0.8837846
24.7540625   -0.9990638  -0.0469199   0.0000213   0.0001269  -0.0000011  -0.0000056  -0.3608652   0.8877116
25.0583701   -0.9990375  -0.0474302   0.0000192   0.0001210   0.0000015  -0.0000007  -0.3513553   0.8915770
25.3664186   -0.9989518  -0.0480693   0.0000073   0.0001160  -0.0000058  -0.0000061  -0.3416299   0.8953736
25.6782541   -0.9989293  -0.0486177   0.0000152   0.0001232   0.0000039  -0.0000031  -0.3318719   0.8991532
25.9939230   -0.9989733  -0.0492194   0.0000162   0.0001278  -0.0000041  -0.0000050  -0.3219447   0.9027781
26.3134725   -0.9988888  -0.0497802   0.0000134   0.0001380   0.0000036  -0.0000035  -0.3118192   0.9063520
26.6369503   -0.9988653  -0.0504288   0.0000095   0.0001290  -0.0000030  -0.0000139  -0.3015927   0.9099376
26.9644047   -0.9988590  -0.0510610   0.0000120   0.0001185   0.0000019   0.0000037  -0.2911556   0.9134289
27.2958846   -0.9988559  -0.0516147   0.0000070   0.0001316  -0.0000076   0.0000021  -0.2805167   0.9167797
27.6314394   -0.9987856  -0.0523284   0.0000189   0.0001392  -0.0000017  -0.0000051  -0.2698048   0.9201340
27.9711193   -0.9987266  -0.0528716   0.0000143   0.0001351   0.0000071  -0.0000031  -0.2588429   0.9232956
28.3149750   -0.9987587  -0.0534989   0.0000106   0.0001466   0.0000039  -0.0000051  -0.2477763   0.9264440
28.6630578   -0.9987338  -0.0542205   0.0000157   0.0001323  -0.0000087  -0.0000003  -0.2365017   0.9294491
29.0154196   -0.9985874  -0.0547643   0.0000175   0.0001454  -0.0000064  -0.0000030  -0.2250419   0.9323611
29.3721131   -0.9986351  -0.0555101   0.0000139   0.0001489   0.0000014  -0.0000039  -0.2134533   0.9351741
29.7331915   -0.9985761  -0.0561946   0.0000149   0.0001447  -0.0000054  -0.0000036  -0.2016027   0.9379710
30.0987087   -0.9986171  -0.0569646   0.0000180   0.0001412  -0.0000033   0.0000123  -0.1897006   0.9405994
30.4687194   -0.9984787  -0.0575676   0.0000131   0.0001478  -0.0000021  -0.0000058  -0.1775500   0.9431766
30.8432786   -0.9984885  -0.0582428   0.0000084   0.0001460  -0.0000102   0.0000030  -0.1652043   0.9454509
31.2224424   -0.9985056  -0.0589912   0.0000141   0.0001600   0.0000061   0.0000027  -0.1527992   0.9476807
31.6062674   -0.9984001  -0.0596029   0.0000094   0.0001496  -0.0000091  -0.0000072  -0.1400337   0.9498177
31.9948108   -0.9983636  -0.0603906   0.0000072   0.0001610   0.0000000   0.0000043  -0.1271896   0.9518871
32.3881306   -0.9983401  -0.0611169   0.0000118   0.0001630  -0.0000007  -0.0000042  -0.1141830   0.9537462
32.7862857   -0.9982796  -0.0619077   0.0000045   0.0001460  -0.0000070  -0.0000062  -0.1009629   0.9553778
33.1893353   -0.9982291  -0.0626367   0.0000153   0.0001620  -0.0000018  -0.0000006  -0.0875903   0.9570247
33.5973398   -0.9981878  -0.0634433   0.0000105   0.0001646   0.0000037  -0.0000116  -0.0740442   0.9583378
34.0103599   -0.9981570  -0.0641460   0.0000011   0.0001729  -0.0000011   0.0000036  -0.0602129   0.9594876
34.4284574   -0.9980277  -0.0650589   0.0000257   0.0001675  -0.0000075  -0.0000028  -0.0465159   0.9606917
34.8516946   -0.9979947  -0.0657809   0.0000168   0.0001615  -0.0000053   0.0000028  -0.0322434   0.9616950
35.2801349   -0.9979765  -0.0665050  -0.0000008   0.0001757  -0.0000032  -0.0000036  -0.0177784   0.9624635
35.7138420   -0.9979390  -0.0672978   0.0000115   0.0001631  -0.0000069  -0.0000060  -0.0032039   0.9628964
36.1528808   -0.9978692  -0.0681564   0.0000152   0.0001712  -0.0000086  -0.0000063   0.0115347   0.9632563
36.5973168   -0.9979145  -0.0690006   0.0000140   0.0001769   0.0000000  -0.0000055   0.0264333   0.9633738
37.0472164   -0.9977920  -0.0698844   0.0000141   0.0001802  -0.0000010  -0.0000025   0.0415912   0.9631242
37.5026467   -0.9977086  -0.0707319   0.0000137   0.0001759   0.0000005  -0.0000051   0.0569194   0.9628974
37.9636757   -0.9976054  -0.0714333   0.0000174   0.0001868  -0.0000025  -0.0000048   0.0726387   0.9619464
38.4303722   -0.9975680  -0.0723616   0.0000082   0.0001833   0.0000012  -0.0000023   0.0881824   0.9611452
38.9028060   -0.9975206  -0.0733408   0.0000130   0.0001865   0.0000032   0.0000041   0.1040381   0.9599848
39.3810475   -0.9974652  -0.0742290   0.0000181   0.0001822  -0.0000019   0.0000034   0.1201362   0.9586652
39.8651681   -0.9974287  -0.0751022   0.0000142   0.0001916  -0.0000008   0.0000047   0.1362896   0.9569852
40.3552402   -0.9973458  -0.0760499   0.0000223   0.0002025   0.0000052   0.0000025   0.1527017   0.9550329
40.8513368   -0.9972149  -0.0769725   0.0000117   0.0002005  -0.0000009  -0.0000083   0.1693457   0.9526915
41.3535320   -0.9972261  -0.0778804   0.0000214   0.0002023  -0.0000069  -0.0000035   0.1860114   0.9501695
41.8619009   -0.9970610  -0.0788234   0.0000169   0.0002098  -0.0000012   0.0000013   0.2030277   0.9472720
42.3765193   -0.9970122  -0.0798523   0.0000125   0.0002031   0.0000010  -0.0000008   0.2201222   0.9440599
42.8974639   -0.9968868  -0.0807688   0.0000132   0.0002069  -0.0000026   0.0000052   0.2373514   0.9404513
43.4248127   -0.9968552  -0.0816960   0.0000249   0.0001935   0.0000010  -0.0000060   0.2547651   0.9366341
43.9586443   -0.9967525  -0.0827403   0.0000229   0.0002043   0.0000045  -0.0000092   0.2723270   0.9323410
44.4990385   -0.9967519  -0.0837485   0.0000187   0.0002120  -0.0000060   0.0000010   0.2900678   0.9276746
45.0460758   -0.9966404  -0.0847882   0.0000198   0.0002140   0.0000030   0.0000042   0.3079234   0.9226692
45.5998380   -0.9965128  -0.0857703   0.0000115   0.0002137  -0.0000014  -0.0000026   0.3258964   0.9172927
46.1604077   -0.9964686  -0.0868570   0.0000198   0.0002242  -0.0000057  -0.0000096   0.3439905   0.9114112
46.7278686   -0.9963466  -0.0879222   0.0000206   0.0002124  -0.0000078  -0.0000061   0.3622095   0.9051561
47.3023055   -0.9962810  -0.0889767   0.0000146   0.0002366  -0.0000035   0.0000063   0.3805383   0.8984954
47.8838040   -0.9961177  -0.0900384   0.0000157   0.0002249   0.0000035  -0.0000116   0.3990787   0.8913030
48.4724511   -0.9959954  -0.0912013   0.0000147   0.0002190  -0.0000043   0.0000037   0.4175483   0.8837820
49.0683345   -0.9959975  -0.0922864   0.0000195   0.0002339  -0.0000065   0.0000016   0.4362200   0.8757527
49.6715433   -0.9958581  -0.0934229   0.0000134   0.0002351  -0.0000056  -0.0000091   0.4548566   0.8672616
50.2821675   -0.9957104  -0.0945391   0.0000092   0.0002512  -0.0000049  -0.0000026   0.4737366   0.8581977
50.9002982   -0.9956074  -0.0956861   0.0000199   0.0002486  -0.0000001  -0.0000023   0.4925113   0.8486204
51.5260277   -0.9955813  -0.0968415   0.0000073   0.0002423   0.0000016  -0.0000145   0.5114078   0.8386844
52.1594495   -0.9955300  -0.0980399   0.0000211   0.0002593   0.0000007  -0.0000111   0.5302185   0.8281260
52.8006581   -0.9952886  -0.0992046   0.0000190   0.0002560   0.0000019  -0.0000070   0.5491565   0.8169084
53.4497492   -0.9951663  -0.1004165   0.0000203   0.0002555   0.0000038  -0.0000035   0.5682259   0.8053365
54.1068198   -0.9950171  -0.1015886   0.0000193   0.0002619   0.0000014  -0.0000070   0.5870810   0.7931806
54.7719678   -0.9949141  -0.1028892   0.0000122   0.0002568  -0.0000080  -0.0000108   0.6059003   0.7804755
55.4452927   -0.9947517  -0.1041931   0.0000152   0.0002682  -0.0000031   0.0000036   0.6248029   0.7668483
56.1268950   -0.9946320  -0.1054360   0.0000028   0.0002569  -0.0000012  -0.0000006   0.6436129   0.7528409
56.8168763   -0.9944524  -0.1067313   0.0000218   0.0002694  -0.0000113  -0.0000002   0.6623330   0.7382715
57.5153398   -0.9943217  -0.1080039   0.0000111   0.0002748  -0.0000006  -0.0000099   0.6809259   0.7230836
58.2223896   -0.9941893  -0.1093357   0.0000164   0.0002667   0.0000062  -0.0000063   0.6993919   0.7071741
58.9381314   -0.9940608  -0.1106791   0.0000256   0.0002792   0.0000077  -0.0000018   0.7177304   0.6906869
59.6626719   -0.9938893  -0.1119503   0.0000200   0.0002779   0.0000018  -0.0000044   0.7358872   0.6734457
60.3961194   -0.9937168  -0.1133024   0.0000131   0.0002893  -0.0000076  -0.0000076   0.7539451   0.6555725
61.1385834   -0.9935508  -0.1147841   0.0000148   0.0002905   0.0000077  -0.0000151   0.7717916   0.6369847
61.8901746   -0.9934172  -0.1161494   0.0000190   0.0002949  -0.0000007  -0.0000055   0.7892939   0.6177425
62.6510053   -0.9932580  -0.1175542   0.0000152   0.0002960  -0.0000042  -0.0000129   0.8065969   0.5978861
63.4211891   -0.9931180  -0.1189607   0.0000287   0.0002912  -0.0000005   0.0000010   0.8236544   0.5771804
64.2008409   -0.9928733  -0.1204064   0.0000127   0.0002988  -0.0000013  -0.0000071   0.8403290   0.5559154
64.9900772   -0.9927180  -0.1218545   0.0000179   0.0003075   0.0000060  -0.0000039   0.8567017   0.5338548
65.7890158   -0.9925409  -0.1233462   0.0000142   0.0003116   0.0000066  -0.0000067   0.8726612   0.5111127
66.5977759   -0.9923150  -0.1248569   0.0000186   0.0003120  -0.0000110   0.0000004   0.8881822   0.4875516
67.4164783   -0.9921410  -0.1262647   0.0000165   0.0003201   0.0000024  -0.0000098   0.9034119   0.4632958
68.2452452   -0.9917989  -0.1278923   0.0000199   0.0003158  -0.0000016  -0.0000030   0.9180764   0.4384124
69.0842003   -0.9916943  -0.1294399   0.0000070   0.0003325  -0.0000021  -0.0000152   0.9322427   0.4127304
69.9334689   -0.9914907  -0.1308229   0.0000241   0.0003415  -0.0000106  -0.0000085   0.9455765   0.3863505
70.7931778   -0.9911592  -0.1328204   0.0000239   0.0003380   0.0000082  -0.0000021   0.9591080   0.3591561
71.6634552   -0.9909599  -0.1344109   0.0000342   0.0003394  -0.0000035  -0.0000070   0.9716677   0.3310241
72.5444312   -0.9908266  -0.1360132   0.0000196   0.0003556   0.0000123   0.0000005   0.9836817   0.3023485
73.4362373   -0.9907416  -0.1376929   0.0000190   0.0003536  -0.0000012  -0.0000107   0.9948434   0.2729349
74.3390065   -0.9904046  -0.1391370   0.0000272   0.0003535   0.0000080  -0.0000129   1.0046945   0.2431284
75.2528737   -0.9901149  -0.1408722   0.0000214   0.0003672  -0.0000040  -0.0000102   1.0143737   0.2123149
76.1779753   -0.9898945  -0.1425163   0.0000180   0.0003564  -0.0000051  -0.0000124   1.0232854   0.1808396
77.1144493   -0.9895869  -0.1443582   0.0000130   0.0003625  -0.0000026  -0.0000045   1.0313023   0.1486103
78.0624357   -0.9893065  -0.1461091   0.0000119   0.0003765  -0.0000029  -0.0000080   1.0384154   0.1157628
79.0220759   -0.9890048  -0.1478534   0.0000292   0.0003669   0.0000002  -0.0000036   1.0445212   0.0821697
79.9935132   -0.9888064  -0.1496248   0.0000238   0.0003787   0.0000041  -0.0000131   1.0496229   0.0480313
80.9768926   -0.9885000  -0.1515147   0.0000189   0.0003690  -0.0000064  -0.0000116   1.0537186   0.0132410
81.9723609   -0.9881421  -0.1532719   0.0000166   0.0003915   0.0000053  -0.0000071   1.0567157  -0.0222640
82.9800667   -0.9878414  -0.1551434   0.0000184   0.0003899  -0.0000016  -0.0000180   1.0586042  -0.0582525
84.0001605   -0.9875422  -0.1570646   0.0000262   0.0003994   0.0000053  -0.0000160   1.0593000  -0.0947391
85.0327946   -0.9872350  -0.1589719   0.0000202   0.0003937   0.0000022  -0.0000081   1.0586965  -0.1319093
86.0781231   -0.9869006  -0.1608928   0.0000178   0.0004004   0.0000029  -0.0000101   1.0568105  -0.1694968
87.1363020   -0.9865999  -0.1628375   0.0000303   0.0004188   0.0000048  -0.0000041   1.0536046  -0.2074041
88.2074894   -0.9862538  -0.1647551   0.0000276   0.0004094  -0.0000051  -0.0000155   1.0489040  -0.2458368
89.2918452   -0.9858553  -0.1667995   0.0000128   0.0004282  -0.0000005  -0.0000021   1.0430306  -0.2849234
90.3895312   -0.9855061  -0.1687349   0.0000152   0.0004182  -0.0000024  -0.0000180   1.0355088  -0.3237174
91.5007114   -0.9851457  -0.1708492   0.0000165   0.0004219  -0.0000084  -0.0000163   1.0264270  -0.3630294
92.6255515   -0.9847532  -0.1728577   0.0000186   0.0004305  -0.0000034  -0.0000041   1.0155656  -0.4024850
93.7642195   -0.9844022  -0.1749910   0.0000236   0.0004300  -0.0000052  -0.0000188   1.0031624  -0.4420937
94.9168855   -0.9839759  -0.1770803   0.0000336   0.0004533  -0.0000125  -0.0000104   0.9892346  -0.4818269
96.0837215   -0.9835844  -0.1792282   0.0000140   0.0004344  -0.0000039  -0.0000178   0.9734644  -0.5215695
97.2649017   -0.9831325  -0.1813917   0.0000235   0.0004709  -0.0000004  -0.0000104   0.9559370  -0.5609835
98.4606024   -0.9826952  -0.1834686   0.0000215   0.0004646  -0.0000038  -0.0000064   0.9365502  -0.6005025
99.6710021   -0.9823157  -0.1857329   0.0000155   0.0004697  -0.0000145  -0.0000062   0.9153443  -0.6396754
100.8962816  -0.9819113  -0.1880168   0.0000084   0.0004753  -0.0000102  -0.0000124   0.8922365  -0.6784421
102.1366237  -0.9814665  -0.1901552   0.0000258   0.0004758   0.0000052  -0.0000179   0.8671283  -0.7166929
103.3922136  -0.9809732  -0.1924753   0.0000219   0.0004712  -0.0000096  -0.0000112   0.8401955  -0.7544722
104.6632389  -0.9806295  -0.1947740   0.0000109   0.0004889  -0.0000105  -0.0000055   0.8113415  -0.7912682
105.9498891  -0.9802157  -0.1965545   0.0000318   0.0004914  -0.0000069  -0.0000089   0.7803574  -0.8250929
107.2523564  -0.9789781  -0.2001884   0.0000061   0.0005022  -0.0000016  -0.0000085   0.7458400  -0.8653272
108.5708353  -0.9786358  -0.2025418   0.0000200   0.0004930  -0.0000106  -0.0000041   0.7121824  -0.8993932
109.9055225  -0.9798598  -0.2038114   0.0000353   0.0005039   0.0000076  -0.0000064   0.6774515  -0.9319120
111.2566174  -0.9780717  -0.2066953   0.0000252   0.0005135  -0.0000017  -0.0000120   0.6366632  -0.9623526
112.6243216  -0.9773949  -0.2093763   0.0000186   0.0005211   0.0000017  -0.0000150   0.5956314  -0.9930429
114.0088393  -0.9768061  -0.2118184   0.0000257   0.0005237  -0.0000127  -0.0000032   0.5528684  -1.0220177
115.4103773  -0.9763003  -0.2144507   0.0000131   0.0005418  -0.0000076  -0.0000214   0.5080600  -1.0493846
116.8291446  -0.9756431  -0.2169771   0.0000209   0.0005476   0.0000125  -0.0000049   0.4616156  -1.0748125
118.2653533  -0.9750592  -0.2195684   0.0000110   0.0005429  -0.0000004  -0.0000118   0.4131618  -1.0983546
119.7192175  -0.9743809  -0.2221005   0.0000274   0.0005443  -0.0000147  -0.0000006   0.3630310  -1.1198741
121.1909545  -0.9737566  -0.2248206   0.0000247   0.0005477  -0.0000096  -0.0000137   0.3112472  -1.1389094
122.6807839  -0.9730869  -0.2275265   0.0000215   0.0005474  -0.0000186  -0.0000183   0.2578829  -1.1556283
124.1889281  -0.9724758  -0.2301881   0.0000308   0.0005774   0.0000025  -0.0000021   0.2030196  -1.1697805
125.7156123  -0.9717535  -0.2330073   0.0000205   0.0005968  -0.0000108  -0.0000053   0.1468018  -1.1813263
127.2610644  -0.9711557  -0.2356977   0.0000386   0.0005752  -0.0000061  -0.0000096   0.0899457  -1.1898236
128.8255151  -0.9703881  -0.2385078   0.0000263   0.0006008  -0.0000125  -0.0000101   0.0310541  -1.1954536
130.4091980  -0.9696090  -0.2414204   0.0000074   0.0006079  -0.0000132  -0.0000125  -0.0282397  -1.1979713
132.0123495  -0.9689210  -0.2442599   0.0000169   0.0006142  -0.0000062  -0.0000027  -0.0885005  -1.1971293
133.6352088  -0.9681248  -0.2471856   0.0000338   0.0006146  -0.0000239  -0.0000059  -0.1491135  -1.1931309
135.2780184  -0.9673798  -0.2501116   0.0000128   0.0006252  -0.0000031  -0.0000057  -0.2103454  -1.1854267
136.9410235  -0.9665590  -0.2530704   0.0000157   0.0006394  -0.0000093  -0.0000137  -0.2717939  -1.1740384
138.6244722  -0.9656811  -0.2560839   0.0000098   0.0006530  -0.0000096  -0.0000023  -0.3330388  -1.1591738
140.3286160  -0.9650077  -0.2590791   0.0000072   0.0006334  -0.0000127  -0.0000127  -0.3943408  -1.1406394
142.0537093  -0.9640602  -0.2616391  -0.0000009   0.0006468  -0.0000183  -0.0000196  -0.4577303  -1.1193078
143.8000095  -0.9629377  -0.2652470   0.0000218   0.0006396  -0.0000058   0.0000000  -0.5114804  -1.0920313
145.5677774  -0.9614757  -0.2688944   0.0000239   0.0006822   0.0000058  -0.0000122  -0.5686752  -1.0596310
147.3572769  -0.9613248  -0.2715400   0.0000087   0.0006843  -0.0000021  -0.0000169  -0.6296031  -1.0274029
149.1687752  -0.9603038  -0.2746810   0.0000065   0.0006833   0.0000015  -0.0000091  -0.6842854  -0.9897038
151.0025426  -0.9592487  -0.2778553   0.0000050   0.0006811  -0.0000053  -0.0000193  -0.7376444  -0.9478988
152.8588530  -0.9585180  -0.2812588   0.0000072   0.0007003  -0.0000013  -0.0000092  -0.7884430  -0.9023780
154.7379834  -0.9573446  -0.2845244   0.0000069   0.0007007  -0.0000086  -0.0000110  -0.8368112  -0.8532143
156.6402144  -0.9562042  -0.2878700   0.0000222   0.0007243  -0.0000084  -0.0000061  -0.8822036  -0.8005717
158.5658301  -0.9551384  -0.2911616   0.0000172   0.0007100  -0.0000037   0.0000147  -0.9241073  -0.7445390
160.5151177  -0.9541746  -0.2947169   0.0000132   0.0007273   0.0000014  -0.0000065  -0.9630209  -0.6849737
162.4883685  -0.9529878  -0.2977065   0.0000179   0.0007233   0.0000013  -0.0000028  -0.9967976  -0.6237559
164.4858769  -0.9518388  -0.3016274   0.0000139   0.0007440   0.0000046  -0.0000033  -1.0278789  -0.5582318
166.5079411  -0.9505613  -0.3050780   0.0000047   0.0007512  -0.0000070  -0.0000102  -1.0539276  -0.4910024
168.5548630  -0.9494542  -0.3087218  -0.0000165   0.0007853  -0.0000107   0.0000016  -1.0755896  -0.4214285
170.6269483  -0.9480784  -0.3124564   0.0000167   0.0007611  -0.0000006  -0.0000172  -1.0920161  -0.3500769
172.7245062  -0.9469691  -0.3158344   0.0000169   0.0007601   0.0000046  -0.0000030  -1.1035268  -0.2774294
174.8478498  -0.9457604  -0.3197059   0.0000151   0.0007738   0.0000061  -0.0000036  -1.1094082  -0.2032648
176.9972963  -0.9443161  -0.3233422  -0.0000014   0.0007807   0.0000235  -0.0000062  -1.1102204  -0.1277967
179.1731664  -0.9425988  -0.3263132   0.0000112   0.0007856  -0.0000187  -0.0000088  -1.1019377  -0.0580540
181.3757850  -0.9412422  -0.3310764   0.0000076   0.0008190  -0.0000020  -0.0000058  -1.0923748   0.0172629
183.6054809  -0.9401699  -0.3345826   0.0000083   0.0007930  -0.0000115  -0.0000014  -1.0773858   0.0954521
185.8625870  -0.9385182  -0.3384862   0.0000328   0.0008495  -0.0000271  -0.0000083  -1.0548059   0.1676861
188.1474402  -0.9371668  -0.3423493   0.0000079   0.0008521  -0.0000045  -0.0000041  -1.0266452   0.2388777
190.4603817  -0.9353929  -0.3462129  -0.0000172   0.0008583  -0.0000241  -0.0000166  -0.9928692   0.3077410
192.8017567  -0.9335863  -0.3504668   0.0000226   0.0008772   0.0000113  -0.0000080  -0.9528826   0.3737659
195.1719148  -0.9322252  -0.3544380   0.0000068   0.0008672  -0.0000411   0.0000164  -0.9079903   0.4365081
197.5712099  -0.9306867  -0.3583919   0.0000106   0.0008787   0.0000064  -0.0000064  -0.8584258   0.4960860
200.0000000  -0.9288998  -0.3617938  -0.0000065   0.0008843  -0.0000129  -0.0000066  -0.8026131   0.5505821
