! ListType=Log
# MHZ S RI R 50
0.0010000    -0.9988048  -0.0006415  -0.0007995   0.0008164  -0.0000115  -0.0000299  -0.9088780   0.2599563
0.0010123    -0.9987235  -0.0009914  -0.0003360   0.0014185   0.0000121  -0.0000287  -0.9094622   0.2603417
0.0010247    -0.9995815  -0.0005543   0.0020430  -0.0006945  -0.0000157   0.0000266  -0.9095897   0.2591301
0.0010373    -0.9989453  -0.0006944  -0.0003665   0.0016767  -0.0000085  -0.0000056  -0.9097936   0.2598523
0.0010501    -0.9992154  -0.0010447  -0.0000540   0.0016601  -0.0000136  -0.0000118  -0.9091506   0.2596915
0.0010630    -0.9991045  -0.0007644  -0.0007116   0.0014380   0.0000229   0.0000125  -0.9105505   0.2595735
0.0010761    -0.9993815  -0.0010624  -0.0008279   0.0013799  -0.0000149   0.0000095  -0.9107037   0.2587981
0.0010893    -0.9993280  -0.0009043  -0.0008987   0.0013834   0.0000198  -0.0000037  -0.9110865   0.2599258
0.0011027    -0.9989578  -0.0009641  -0.0005870   0.0013675   0.0000030  -0.0000187  -0.9110775   0.2587990
0.0011162    -0.9994182  -0.0005962  -0.0008434   0.0014763  -0.0000056   0.0000030  -0.9120701   0.2584382
0.0011300    -0.9991349  -0.0008923  -0.0007098   0.0013559  -0.0000259  -0.0000173  -0.9112969   0.2587179
0.0011439    -0.9987944  -0.0006908  -0.0010176   0.0013146   0.0000190  -0.0000020  -0.9120502   0.2590832
0.0011579    -0.9994508  -0.0004941  -0.0004245   0.0015950  -0.0000080   0.0000011  -0.9120575   0.2578675
0.0011721    -0.9987517  -0.0011132  -0.0008717   0.0012205   0.0000114  -0.0000118  -0.9124015   0.2585311
0.0011866    -0.9989962  -0.0008195  -0.0004826   0.0013379  -0.0000454  -0.0000152  -0.9122040   0.2582435
0.0012011    -0.9990665  -0.0010898  -0.0005439   0.0012717  -0.0000151   0.0000003  -0.9128818   0.2582597
0.0012159    -0.9989185  -0.0004907  -0.0007715   0.0011509   0.0000208   0.0000031  -0.9136437   0.2584854
0.0012309    -0.9991723  -0.0006692  -0.0008367   0.0008278   0.0000094   0.0000109  -0.9137401   0.2577885
0.0012460    -0.9992573  -0.0006240  -0.0008270   0.0011802  -0.0000062  -0.0000060  -0.9134154   0.2581256
0.0012613    -0.9992219  -0.0006846  -0.0009370   0.0015064   0.0000269  -0.0000021  -0.9147353   0.2579363
0.0012768    -0.9991808  -0.0008151  -0.0005541   0.0010542  -0.0000207   0.0000053  -0.9141770   0.2576231
0.0012925    -0.9992884  -0.0008094  -0.0003508   0.0011639   0.0000140   0.0000076  -0.9151106   0.2580592
0.0013084    -0.9990873  -0.0005732  -0.0006756   0.0010569  -0.0000049   0.0000097  -0.9149123   0.2575421
0.0013245    -0.9992708  -0.0008171  -0.0006370   0.0013330   0.0000181  -0.0000016  -0.9155488   0.2580240
0.0013408    -0.9988207  -0.0011244  -0.0009880   0.0010710   0.0000024  -0.0000096  -0.9153819   0.2572752
0.0013572    -0.9992338  -0.0007985  -0.0004896   0.0015234   0.0000187   0.0000077  -0.9163567   0.2576933
0.0013739    -0.9991457  -0.0005919  -0.0006816   0.0010273   0.0000133   0.0000164  -0.9162218   0.2575399
0.0013908    -0.9993418  -0.0008904  -0.0007594   0.0008900   0.0000136   0.0000045  -0.9169530   0.2576089
0.0014079    -0.9991496  -0.0006217  -0.0004396   0.0012228  -0.0000214  -0.0000005  -0.9167295   0.2573538
0.0014252    -0.9991985  -0.0009370  -0.0006730   0.0012047   0.0000186   0.0000247  -0.9176592   0.2572531
0.0014427    -0.9989741  -0.0005876  -0.0001513   0.0010312  -0.0000097  -0.0000156  -0.9173659   0.2571991
0.0014605    -0.9993713  -0.0006665  -0.0006297   0.0011217   0.0000009  -0.0000180  -0.9180822   0.2573986
0.0014784    -0.9991202  -0.0007931  -0.0006069   0.0010570  -0.0000049   0.0000082  -0.9178605   0.2569127
0.0014966    -0.9994284  -0.0006340  -0.0007300   0.0014184   0.0000002  -0.0000287  -0.9186111   0.2574162
0.0015150    -0.9994225  -0.0008111  -0.0006959   0.0007453   0.0000270   0.0000241  -0.9189818   0.2573396
0.0015336    -0.9993865  -0.0007713  -0.0009843   0.0012145  -0.0000074  -0.0000028  -0.9190102   0.2570696
0.0015525    -0.9994195  -0.0008648  -0.0004203   0.0010084  -0.0000076  -0.0000167  -0.9190290   0.2573496
0.0015716    -0.9992504  -0.0007431  -0.0008276   0.0012037   0.0000126  -0.0000211  -0.9196280   0.2571869
0.0015909    -0.9992364  -0.0007424  -0.0006760   0.0011264   0.0000100  -0.0000345  -0.9199847   0.2575694
0.0016104    -0.9993892  -0.0010690  -0.0006133   0.0013295  -0.0000243   0.0000094  -0.9203199   0.2569523
0.0016302    -0.9992718  -0.0007682  -0.0007724   0.0011765   0.0000135  -0.0000063  -0.9203642   0.2573044
0.0016503    -0.9990688  -0.0007790  -0.0011600   0.0013741   0.0000088  -0.0000100  -0.9213751   0.2574882
0.0016706    -0.9994005  -0.0007729  -0.0004708   0.0010109   0.0000033  -0.0000045  -0.9211996   0.2574022
0.0016911    -0.9993902  -0.0007040  -0.0007847   0.0015938  -0.0000210  -0.0000159  -0.9218180   0.2570958
0.0017119    -0.9995189  -0.0008954  -0.0007909   0.0009159  -0.0000161  -0.0000298  -0.9218589   0.2574357
0.0017329    -0.9992453  -0.0008471  -0.0004999   0.0011186  -0.0000031   0.0000134  -0.9220861   0.2573962
0.0017542    -0.9992482  -0.0010765  -0.0007053   0.0010032   0.0000071   0.0000175  -0.9225671   0.2571541
0.0017758    -0.9994071  -0.0010367  -0.0006666   0.0011702  -0.0000018  -0.0000029  -0.9227763   0.2574617
0.0017976    -0.9992301  -0.0007228  -0.0006480   0.0005946   0.0000059  -0.0000063  -0.9233452   0.2574793
0.0018197    -0.9992794  -0.0007741  -0.0006482   0.0009511  -0.0000150  -0.0000040  -0.9231438   0.2573279
0.0018421    -0.9995426  -0.0008097  -0.0002352   0.0006280   0.0000151  -0.0000070  -0.9238326   0.2577191
0.0018648    -0.9993594  -0.0009627  -0.0006017   0.0011503  -0.0000028   0.0000040  -0.9239003   0.2574820
0.0018877    -0.9995873  -0.0010116  -0.0004874   0.0008882  -0.0000105  -0.0000158  -0.9239804   0.2577066
0.0019109    -0.9994361  -0.0008088  -0.0004026   0.0007821  -0.0000036   0.0000066  -0.9248491   0.2579357
0.0019344    -0.9995322  -0.0012351  -0.0000686   0.0008627  -0.0000050  -0.0000064  -0.9247153   0.2577397
0.0019582    -0.9993819  -0.0010911  -0.0010290   0.0016781   0.0000018  -0.0000051  -0.9248236   0.2579512
0.0019822    -0.9991603  -0.0007356  -0.0004315   0.0014295   0.0000061   0.0000007  -0.9256894   0.2580907
0.0020066    -0.9994564  -0.0010420  -0.0009838   0.0016995   0.0000030   0.0000010  -0.9257598   0.2582423
0.0020313    -0.9995727  -0.0010995  -0.0007793   0.0013717   0.0000072   0.0000076  -0.9261621   0.2581689
0.0020562    -0.9995000  -0.0009565  -0.0006815   0.0011300  -0.0000161  -0.0000018  -0.9265384   0.2580705
0.0020815    -0.9995422  -0.0010255  -0.0005036   0.0008981   0.0000003  -0.0000015  -0.9265952   0.2584793
0.0021071    -0.9996033  -0.0009901  -0.0005503   0.0005958  -0.0000104  -0.0000033  -0.9270215   0.2585237
0.0021330    -0.9994471  -0.0006119  -0.0006061   0.0010137  -0.0000010  -0.0000229  -0.9272019   0.2587586
0.0021592    -0.9995387  -0.0007893  -0.0005273   0.0010269  -0.0000025  -0.0000190  -0.9277383   0.2588852
0.0021858    -0.9995292  -0.0009505  -0.0005082   0.0008140  -0.0000026  -0.0000044  -0.9279115   0.2586740
0.0022126    -0.9995850  -0.0010655  -0.0003661   0.0011646  -0.0000054  -0.0000144  -0.9280733   0.2590422
0.0022398    -0.9996182  -0.0007992  -0.0004187   0.0010142  -0.0000122   0.0000062  -0.9283379   0.2590142
0.0022674    -0.9994389  -0.0009092  -0.0004048   0.0009527   0.0000047  -0.0000181  -0.9287816   0.2593020
0.0022953    -0.9995794  -0.0009355  -0.0006538   0.0011057   0.0000060  -0.0000025  -0.9290308   0.2594769
0.0023235    -0.9997220  -0.0008784  -0.0005524   0.0011770  -0.0000061  -0.0000002  -0.9294341   0.2594680
0.0023520    -0.9995931  -0.0007812  -0.0006091   0.0009260  -0.0000078  -0.0000054  -0.9292532   0.2594361
0.0023809    -0.9996419  -0.0008268  -0.0004512   0.0009438  -0.0000079   0.0000077  -0.9299422   0.2596373
0.0024102    -0.9995649  -0.0009404  -0.0005048   0.0007860   0.0000131   0.0000064  -0.9298942   0.2598229
0.0024398    -0.9996076  -0.0009048  -0.0007737   0.0008075   0.0000033   0.0000032  -0.9303333   0.2599209
0.0024698    -0.9997006  -0.0008736  -0.0004727   0.0007470   0.0000079  -0.0000170  -0.9305707   0.2602177
0.0025002    -0.9997377  -0.0007859  -0.0006632   0.0006772  -0.0000013  -0.0000042  -0.9307198   0.2603729
0.0025309    -0.9995422  -0.0008118  -0.0003697   0.0007980  -0.0000087  -0.0000112  -0.9309336   0.2606611
0.0025621    -0.9996063  -0.0008143  -0.0006717   0.0007906   0.0000070  -0.0000087  -0.9313972   0.2606534
0.0025935    -0.9996340  -0.0008207  -0.0004998   0.0008824  -0.0000057  -0.0000035  -0.9316742   0.2605261
0.0026254    -0.9997661  -0.0008660  -0.0002986   0.0009574  -0.0000042  -0.0000026  -0.9317934   0.2605545
0.0026577    -0.9997085  -0.0007766  -0.0003780   0.0008184  -0.0000107  -0.0000105  -0.9319015   0.2609742
0.0026904    -0.9997863  -0.0010172  -0.0005764   0.0007330  -0.0000128  -0.0000062  -0.9320964   0.2613407
0.0027235    -0.9996934  -0.0009754  -0.0005796   0.0006290  -0.0000013  -0.0000137  -0.9327563   0.2611832
0.0027569    -0.9997610  -0.0007950  -0.0003765   0.0008119  -0.0000088  -0.0000033  -0.9327095   0.2612955
0.0027908    -0.9997234  -0.0009520  -0.0005366   0.0009227   0.0000059  -0.0000083  -0.9327881   0.2617246
0.0028251    -0.9996966  -0.0008724  -0.0003553   0.0007733   0.0000069   0.0000018  -0.9332618   0.2618815
0.0028599    -0.9997431  -0.0009736  -0.0005934   0.0008274  -0.0000022   0.0000010  -0.9334185   0.2618729
0.0028950    -0.9998859  -0.0009196  -0.0005473   0.0008048   0.0000031   0.0000025  -0.9336124   0.2618484
0.0029306    -0.9999662  -0.0009655  -0.0005374   0.0008268  -0.0000042  -0.0000190  -0.9337557   0.2620064
0.0029666    -1.0000260  -0.0008766  -0.0006981   0.0005644   0.0000131  -0.0000065  -0.9339990   0.2622600
0.0030031    -0.9998916  -0.0009912   0.0001250   0.0010180  -0.0000049   0.0000133  -0.9341076   0.2625548
0.0030400    -0.9999102  -0.0009116  -0.0006709   0.0011304  -0.0000027  -0.0000165  -0.9343379   0.2628196
0.0030774    -0.9999110  -0.0008493  -0.0003596   0.0008459  -0.0000097  -0.0000045  -0.9345217   0.2629743
0.0031152    -1.0000375  -0.0008670  -0.0004088   0.0008617   0.0000102   0.0000018  -0.9348862   0.2629809
0.0031535    -0.9999958  -0.0008685  -0.0004892   0.0008586  -0.0000035  -0.0000120  -0.9349260   0.2633534
0.0031923    -0.9998505  -0.0008749  -0.0005671   0.0007017   0.0000126  -0.0000124  -0.9353236   0.2634966
0.0032315    -0.9998156  -0.0008337  -0.0005220   0.0007582  -0.0000004  -0.0000064  -0.9355121   0.2636469
0.0032713    -0.9998006  -0.0009652  -0.0003465   0.0009581   0.0000023  -0.0000089  -0.9356770   0.2636865
0.0033115    -0.9997354  -0.0008775  -0.0005653   0.0006570   0.0000084  -0.0000006  -0.9357024   0.2639999
0.0033522    -0.9998268  -0.0008273  -0.0004395   0.0008395  -0.0000109  -0.0000057  -0.9360229   0.2644064
0.0033934    -0.9998747  -0.0008404  -0.0004170   0.0006227   0.0000014   0.0000021  -0.9362628   0.2642656
0.0034351    -0.9999510  -0.0008204  -0.0003061   0.0007037  -0.0000013   0.0000084  -0.9364516   0.2645556
0.0034773    -0.9999954  -0.0007756  -0.0005121   0.0004546   0.0000084  -0.0000086  -0.9364323   0.2647053
0.0035201    -1.0001321  -0.0006623  -0.0003520   0.0007602   0.0000056  -0.0000029  -0.9367876   0.2648143
0.0035634    -1.0000841  -0.0008651  -0.0006055   0.0005788   0.0000070  -0.0000048  -0.9368663   0.2649771
0.0036072    -0.9999424  -0.0005891  -0.0004888   0.0007301  -0.0000008  -0.0000046  -0.9369396   0.2652301
0.0036515    -0.9998747  -0.0008311  -0.0004043   0.0007414  -0.0000051   0.0000044  -0.9372120   0.2655556
0.0036964    -0.9999337  -0.0008016  -0.0005160   0.0007371  -0.0000114   0.0000007  -0.9371598   0.2658447
0.0037418    -0.9999825  -0.0008479  -0.0004710   0.0007646   0.0000014  -0.0000077  -0.9373776   0.2659021
0.0037878    -1.0000285  -0.0008909  -0.0003737   0.0005216   0.0000009  -0.0000191  -0.9374859   0.2660117
0.0038344    -1.0000970  -0.0007922  -0.0003389   0.0006840   0.0000059  -0.0000063  -0.9376847   0.2663411
0.0038815    -1.0000594  -0.0006861  -0.0002209   0.0009582  -0.0000009   0.0000041  -0.9378065   0.2664228
0.0039293    -1.0001568  -0.0007805  -0.0004608   0.0005384   0.0000049  -0.0000071  -0.9379777   0.2663981
0.0039776    -1.0000513  -0.0007564  -0.0004832   0.0002311  -0.0000018  -0.0000120  -0.9381920   0.2668196
0.0040265    -1.0000932  -0.0007864  -0.0005888   0.0001717   0.0000000   0.0000014  -0.9383100   0.2667670
0.0040759    -0.9999775  -0.0008929  -0.0004254   0.0006343  -0.0000007   0.0000008  -0.9384242   0.2671272
0.0041261    -1.0001129  -0.0006514  -0.0004542   0.0006112   0.0000015  -0.0000048  -0.9385339   0.2672093
0.0041768    -1.0000634  -0.0007678  -0.0005271   0.0006518  -0.0000009   0.0000009  -0.9387328   0.2675105
0.0042281    -1.0000533  -0.0006372  -0.0002815   0.0007052   0.0000064  -0.0000054  -0.9388509   0.2677209
0.0042801    -1.0000786  -0.0006777  -0.0004671   0.0006507   0.0000041  -0.0000002  -0.9389324   0.2679158
0.0043327    -1.0001417  -0.0007258  -0.0004207   0.0005115  -0.0000035  -0.0000042  -0.9390299   0.2683019
0.0043860    -1.0001121  -0.0007546  -0.0002269   0.0005016  -0.0000025   0.0000091  -0.9392749   0.2683077
0.0044399    -1.0000451  -0.0006218  -0.0003827   0.0005080   0.0000007  -0.0000043  -0.9393379   0.2684832
0.0044945    -1.0001721  -0.0007032  -0.0003590   0.0004434  -0.0000065  -0.0000034  -0.9394909   0.2686169
0.0045497    -1.0000443  -0.0007965  -0.0003325   0.0005531  -0.0000109  -0.0000034  -0.9394766   0.2688047
0.0046057    -1.0000109  -0.0006351  -0.0004602   0.0005434  -0.0000053   0.0000049  -0.9395575   0.2689400
0.0046623    -1.0001238  -0.0006172  -0.0004007   0.0005686   0.0000035  -0.0000071  -0.9395089   0.2692334
0.0047196    -1.0000035  -0.0007117  -0.0004357   0.0005314  -0.0000083  -0.0000009  -0.9398293   0.2694102
0.0047776    -1.0002070  -0.0007243  -0.0004271   0.0005334   0.0000065  -0.0000104  -0.9398891   0.2695281
0.0048363    -1.0002201  -0.0005602  -0.0004363   0.0005420   0.0000003  -0.0000094  -0.9399332   0.2697804
0.0048958    -1.0000846  -0.0007300  -0.0004081   0.0005466  -0.0000047  -0.0000137  -0.9400721   0.2700554
0.0049560    -1.0001741  -0.0006019  -0.0003178   0.0004055  -0.0000099  -0.0000067  -0.9402632   0.2701632
0.0050169    -1.0002684  -0.0005623  -0.0004567   0.0007460  -0.0000178   0.0000051  -0.9403351   0.2701639
0.0050786    -1.0001830  -0.0005861  -0.0003305   0.0005168   0.0000062   0.0000011  -0.9403187   0.2703988
0.0051410    -1.0002471  -0.0004872  -0.0003708   0.0005113  -0.0000039  -0.0000105  -0.9404152   0.2706001
0.0052042    -1.0000417  -0.0006556  -0.0003774   0.0004255   0.0000035  -0.0000032  -0.9405021   0.2708001
0.0052682    -1.0001493  -0.0005811  -0.0003493   0.0005658   0.0000060  -0.0000054  -0.9406327   0.2710467
0.0053330    -1.0002517  -0.0006301  -0.0003950   0.0005373  -0.0000089  -0.0000088  -0.9406896   0.2711812
0.0053985    -1.0001780  -0.0006723  -0.0003620   0.0005595  -0.0000131  -0.0000073  -0.9407775   0.2713440
0.0054649    -1.0002554  -0.0006297  -0.0005237   0.0005781   0.0000164  -0.0000018  -0.9409076   0.2714998
0.0055321    -1.0002355  -0.0004453  -0.0004100   0.0004671  -0.0000015  -0.0000112  -0.9409565   0.2716945
0.0056001    -1.0002753  -0.0005741  -0.0004066   0.0005885   0.0000146   0.0000031  -0.9411138   0.2719386
0.0056689    -1.0003121  -0.0007150  -0.0003755   0.0005135  -0.0000082  -0.0000200  -0.9411273   0.2720064
0.0057386    -1.0001842  -0.0006557  -0.0004717   0.0003626   0.0000036  -0.0000155  -0.9411893   0.2721200
0.0058091    -1.0002867  -0.0005067  -0.0005271   0.0004184   0.0000022   0.0000047  -0.9411386   0.2723728
0.0058806    -1.0003088  -0.0004876  -0.0003931   0.0004245  -0.0000013  -0.0000061  -0.9411190   0.2724188
0.0059529    -1.0003059  -0.0005161  -0.0007424   0.0003099  -0.0000054  -0.0000104  -0.9412062   0.2727041
0.0060260    -1.0001390  -0.0006656  -0.0003197   0.0004977  -0.0000053  -0.0000183  -0.9412507   0.2727098
0.0061001    -1.0002938  -0.0004952  -0.0003796   0.0004645  -0.0000142  -0.0000055  -0.9413455   0.2729546
0.0061751    -1.0002667  -0.0004878  -0.0003383   0.0004021   0.0000003   0.0000049  -0.9413314   0.2731470
0.0062510    -1.0002037  -0.0004495  -0.0005356   0.0005549  -0.0000030  -0.0000002  -0.9415101   0.2732916
0.0063279    -1.0002704  -0.0005678  -0.0004011   0.0004069  -0.0000043  -0.0000012  -0.9416430   0.2734560
0.0064056    -1.0002244  -0.0004379  -0.0003748   0.0003821   0.0000044  -0.0000061  -0.9416371   0.2736081
0.0064844    -1.0003131  -0.0004911  -0.0003547   0.0003802   0.0000000  -0.0000076  -0.9416977   0.2736701
0.0065641    -1.0004193  -0.0004453  -0.0002996   0.0004362  -0.0000063  -0.0000193  -0.9415242   0.2737903
0.0066448    -1.0001835  -0.0004121  -0.0004171   0.0003899   0.0000005  -0.0000093  -0.9416728   0.2739591
0.0067265    -1.0002764  -0.0002763  -0.0003727   0.0003290  -0.0000082   0.0000041  -0.9417777   0.2741424
0.0068092    -1.0002857  -0.0003179  -0.0004224   0.0004335   0.0000036   0.0000010  -0.9418365   0.2743665
0.0068929    -1.0003426  -0.0003819  -0.0004120   0.0003634   0.0000128  -0.0000086  -0.9418909   0.2744498
0.0069776    -1.0003404  -0.0004402  -0.0003457   0.0004006   0.0000024  -0.0000116  -0.9420478   0.2746782
0.0070634    -1.0003545  -0.0005174  -0.0004790   0.0003756   0.0000023  -0.0000052  -0.9419420   0.2748400
0.0071502    -1.0003231  -0.0005459  -0.0004168   0.0003807   0.0000031  -0.0000154  -0.9419125   0.2748555
0.0072381    -1.0003592  -0.0004304  -0.0004039   0.0004128  -0.0000033  -0.0000122  -0.9418756   0.2750367
0.0073271    -1.0003475  -0.0004573  -0.0001229   0.0002440  -0.0000089  -0.0000030  -0.9420109   0.2752536
0.0074172    -1.0001709  -0.0004515  -0.0003960   0.0003883   0.0000121  -0.0000083  -0.9421284   0.2753567
0.0075084    -1.0003295  -0.0003930  -0.0003676   0.0003345   0.0000064  -0.0000108  -0.9421577   0.2755385
0.0076007    -1.0003328  -0.0004152  -0.0004190   0.0003529   0.0000004  -0.0000116  -0.9421461   0.2756577
0.0076941    -1.0003089  -0.0003452  -0.0001635   0.0005904  -0.0000021   0.0000084  -0.9421786   0.2759126
0.0077887    -1.0002664  -0.0003851  -0.0002951   0.0003367   0.0000107  -0.0000020  -0.9421820   0.2759312
0.0078844    -1.0003347  -0.0003125   0.0002411   0.0001064  -0.0000035  -0.0000018  -0.9422685   0.2760016
0.0079814    -1.0003069  -0.0004369  -0.0004733   0.0003746   0.0000006  -0.0000059  -0.9422404   0.2762762
0.0080795    -1.0003252  -0.0004373  -0.0003610   0.0003539   0.0000058  -0.0000034  -0.9423989   0.2763341
0.0081788    -1.0003606  -0.0002622  -0.0003607   0.0003228  -0.0000045   0.0000043  -0.9422137   0.2765218
0.0082793    -1.0004032  -0.0003738  -0.0003020   0.0002651  -0.0000005  -0.0000093  -0.9423942   0.2765888
0.0083811    -1.0003994  -0.0003230  -0.0003022   0.0003360  -0.0000037   0.0000070  -0.9423573   0.2767983
0.0084842    -1.0003595  -0.0004022  -0.0003854   0.0003698  -0.0000016   0.0000005  -0.9423313   0.2768930
0.0085885    -1.0003306  -0.0003636  -0.0003921   0.0003201   0.0000015  -0.0000070  -0.9424398   0.2769427
0.0086940    -1.0003822  -0.0002951  -0.0004562   0.0002917   0.0000127  -0.0000141  -0.9423699   0.2771411
0.0088009    -1.0003837  -0.0003300  -0.0004435   0.0003202   0.0000002   0.0000062  -0.9423860   0.2772914
0.0089091    -1.0003292  -0.0003938  -0.0003647   0.0002552   0.0000024  -0.0000112  -0.9423989   0.2774866
0.0090186    -1.0003894  -0.0002093  -0.0003326   0.0003878  -0.0000090  -0.0000046  -0.9424998   0.2774735
0.0091295    -1.0003019  -0.0002535  -0.0002922   0.0003091   0.0000055  -0.0000005  -0.9425199   0.2777457
0.0092417    -1.0004389  -0.0003438  -0.0003643   0.0003061   0.0000093  -0.0000054  -0.9424069   0.2777833
0.0093553    -1.0005190  -0.0002461  -0.0003426   0.0002960   0.0000041  -0.0000095  -0.9424297   0.2779104
0.0094703    -1.0002973  -0.0002752  -0.0004602   0.0002737   0.0000006   0.0000108  -0.9425230   0.2779699
0.0095868    -1.0004241  -0.0002732  -0.0003463   0.0002644  -0.0000033  -0.0000074  -0.9424579   0.2781670
0.0097046    -1.0003754  -0.0001997  -0.0003621   0.0003217  -0.0000017   0.0000127  -0.9425030   0.2781965
0.0098239    -1.0003957  -0.0003067  -0.0003225   0.0002638  -0.0000008   0.0000001  -0.9425577   0.2783250
0.0099447    -1.0004528  -0.0003190  -0.0003816   0.0002922  -0.0000004  -0.0000051  -0.9425478   0.2783615
0.0100669    -1.0004650  -0.0003284  -0.0003396   0.0001252  -0.0000093  -0.0000186  -0.9425242   0.2785836
0.0101907    -1.0004544  -0.0002553  -0.0004409   0.0002256  -0.0000033  -0.0000092  -0.9425358   0.2786114
0.0103160    -1.0003310  -0.0002717  -0.0003489   0.0002812   0.0000116  -0.0000083  -0.9425019   0.2787091
0.0104428    -1.0003350  -0.0002501  -0.0003267   0.0002730  -0.0000035   0.0000003  -0.9425838   0.2789201
0.0105712    -1.0003968  -0.0003247  -0.0003403   0.0002879   0.0000088   0.0000015  -0.9425830   0.2789347
0.0107011    -1.0003083  -0.0003512  -0.0004216   0.0002844   0.0000044  -0.0000051  -0.9426090   0.2791118
0.0108327    -1.0004410  -0.0001773  -0.0004270   0.0002384   0.0000012  -0.0000062  -0.9425325   0.2791449
0.0109658    -1.0003644  -0.0002358  -0.0002126   0.0002073  -0.0000070  -0.0000045  -0.9426464   0.2792784
0.0111006    -1.0003840  -0.0002821  -0.0003953   0.0002940  -0.0000041  -0.0000068  -0.9426136   0.2795289
0.0112371    -1.0003514  -0.0002274  -0.0004011   0.0002863  -0.0000054   0.0000003  -0.9426557   0.2794251
0.0113752    -1.0003614  -0.0001929  -0.0003423   0.0002224  -0.0000107   0.0000007  -0.9425597   0.2795968
0.0115151    -1.0003029  -0.0003785  -0.0004278   0.0001639   0.0000003  -0.0000004  -0.9427017   0.2798539
0.0116566    -1.0004724  -0.0001290  -0.0003172   0.0002617  -0.0000025  -0.0000093  -0.9425976   0.2797545
0.0117999    -1.0003703  -0.0002402  -0.0003237   0.0002270  -0.0000078  -0.0000039  -0.9426702   0.2800117
0.0119450    -1.0009740   0.0011453  -0.0004048   0.0002166  -0.0000012   0.0000006  -0.9434624   0.2782170
0.0120918    -1.0004200  -0.0003558  -0.0004082   0.0001815   0.0000006  -0.0000104  -0.9426943   0.2801527
0.0122405    -1.0004407  -0.0001514  -0.0003235   0.0002819  -0.0000107   0.0000039  -0.9427471   0.2801706
0.0123910    -1.0003513  -0.0003111  -0.0003645   0.0002582  -0.0000042  -0.0000100  -0.9426088   0.2804391
0.0125433    -1.0004963  -0.0001448  -0.0003864   0.0002244  -0.0000016   0.0000043  -0.9427097   0.2803775
0.0126975    -1.0004702  -0.0002148  -0.0003836   0.0002975  -0.0000036  -0.0000023  -0.9425424   0.2804387
0.0128536    -1.0003517  -0.0002176  -0.0003342   0.0002471   0.0000036  -0.0000033  -0.9426407   0.2806492
0.0130116    -1.0003651  -0.0001222  -0.0004615   0.0002826   0.0000031   0.0000037  -0.9426215   0.2806846
0.0131716    -1.0004959  -0.0001628  -0.0003446   0.0001991  -0.0000045   0.0000010  -0.9426642   0.2806807
0.0133335    -1.0004633  -0.0002826  -0.0004664   0.0002662  -0.0000017  -0.0000095  -0.9425145   0.2809397
0.0134974    -1.0003782  -0.0002383  -0.0004226   0.0002122   0.0000014  -0.0000020  -0.9425677   0.2809175
0.0136633    -1.0003425  -0.0002260  -0.0003020   0.0002396   0.0000013  -0.0000062  -0.9426221   0.2811150
0.0138313    -1.0003490  -0.0001887  -0.0003064   0.0003043  -0.0000014  -0.0000050  -0.9425397   0.2811490
0.0140013    -1.0003745  -0.0002557  -0.0002638   0.0000732  -0.0000043  -0.0000027  -0.9426175   0.2812854
0.0141734    -1.0004047  -0.0002093  -0.0002876   0.0001963  -0.0000133  -0.0000052  -0.9426482   0.2814176
0.0143477    -1.0003730  -0.0002599  -0.0003364   0.0001586   0.0000019  -0.0000050  -0.9426134   0.2813920
0.0145240    -1.0003635  -0.0001546  -0.0003453   0.0002612   0.0000018   0.0000028  -0.9426510   0.2814696
0.0147026    -1.0004350  -0.0001491  -0.0003121   0.0001643   0.0000098  -0.0000082  -0.9425887   0.2815431
0.0148833    -1.0004599  -0.0002342  -0.0001618   0.0002555  -0.0000038  -0.0000085  -0.9425701   0.2817147
0.0150663    -1.0003936  -0.0002477  -0.0004436   0.0001956   0.0000025  -0.0000094  -0.9425500   0.2817628
0.0152515    -1.0003495  -0.0001405  -0.0003332   0.0001381  -0.0000064  -0.0000097  -0.9425577   0.2819218
0.0154390    -1.0004375  -0.0001572  -0.0003391   0.0002571  -0.0000151   0.0000062  -0.9425825   0.2819117
0.0156288    -1.0005245  -0.0001626  -0.0003961   0.0001453  -0.0000092  -0.0000074  -0.9426634   0.2819290
0.0158209    -1.0004166  -0.0002381  -0.0003812   0.0001916  -0.0000031  -0.0000088  -0.9425187   0.2819562
0.0160154    -1.0003836  -0.0002305  -0.0004203   0.0001675   0.0000012  -0.0000067  -0.9425096   0.2821765
0.0162123    -1.0003542  -0.0001481  -0.0003635   0.0001228  -0.0000041  -0.0000005  -0.9424733   0.2823458
0.0164116    -1.0003964  -0.0001655  -0.0003518   0.0002449   0.0000020  -0.0000133  -0.9425390   0.2823374
0.0166134    -1.0003948  -0.0001290  -0.0004311   0.0001821   0.0000025   0.0000024  -0.9424725   0.2825105
0.0168176    -1.0003796  -0.0000375  -0.0003927   0.0001991   0.0000023  -0.0000011  -0.9425681   0.2824212
0.0170243    -1.0003961  -0.0001470  -0.0004357   0.0002116  -0.0000044  -0.0000021  -0.9425075   0.2825839
0.0172336    -1.0003886  -0.0001468  -0.0004682   0.0001576   0.0000039  -0.0000065  -0.9424701   0.2825693
0.0174455    -1.0002861  -0.0001721  -0.0002525   0.0000785  -0.0000069   0.0000054  -0.9424511   0.2826684
0.0176599    -1.0004058  -0.0001216  -0.0005617   0.0001770  -0.0000030  -0.0000096  -0.9424459   0.2827776
0.0178770    -1.0004191  -0.0001303  -0.0003952   0.0000840  -0.0000056   0.0000042  -0.9424224   0.2829245
0.0180968    -1.0004399  -0.0000936  -0.0003613   0.0002588  -0.0000086  -0.0000035  -0.9424302   0.2828374
0.0183193    -1.0004971  -0.0001443  -0.0004340   0.0002100   0.0000087  -0.0000044  -0.9424509   0.2830002
0.0185445    -1.0005297  -0.0001138  -0.0003260   0.0001175   0.0000103  -0.0000060  -0.9424455   0.2830423
0.0187724    -1.0004671  -0.0002424  -0.0003172  -0.0001172   0.0000036   0.0000011  -0.9423371   0.2830841
0.0190032    -1.0002840  -0.0001392  -0.0005937   0.0000186  -0.0000030  -0.0000051  -0.9424280   0.2831313
0.0192368    -1.0003811  -0.0001241  -0.0003082  -0.0000636   0.0000020   0.0000008  -0.9425254   0.2832695
0.0194733    -1.0004582  -0.0001240  -0.0005224   0.0001163   0.0000098  -0.0000044  -0.9424154   0.2833488
0.0197127    -1.0004774   0.0000057  -0.0003307   0.0001892  -0.0000072  -0.0000149  -0.9423865   0.2834325
0.0199550    -1.0004127  -0.0001076  -0.0003517   0.0000460  -0.0000085  -0.0000115  -0.9424142   0.2834576
0.0202003    -1.0004026  -0.0001255  -0.0003575   0.0001589  -0.0000027  -0.0000121  -0.9424186   0.2834956
0.0204487    -1.0003782  -0.0000931  -0.0002761   0.0000986  -0.0000126  -0.0000027  -0.9423482   0.2836018
0.0207001    -1.0003191  -0.0001806  -0.0005383   0.0001490  -0.0000050  -0.0000153  -0.9422820   0.2836091
0.0209545    -1.0003946  -0.0002117  -0.0003865   0.0001533  -0.0000042  -0.0000062  -0.9422991   0.2836966
0.0212121    -1.0003602  -0.0001616  -0.0004414   0.0002560   0.0000013   0.0000014  -0.9422630   0.2838958
0.0214729    -1.0006023  -0.0001269  -0.0003660   0.0001087  -0.0000082  -0.0000137  -0.9423046   0.2839225
0.0217369    -1.0004038  -0.0000759  -0.0004512   0.0001364   0.0000177  -0.0000012  -0.9422967   0.2839207
0.0220041    -1.0003499  -0.0001246  -0.0004598   0.0002688  -0.0000034  -0.0000052  -0.9423316   0.2839710
0.0222746    -1.0003525  -0.0000650  -0.0004018   0.0001859   0.0000044  -0.0000094  -0.9421834   0.2840686
0.0225484    -1.0004196  -0.0000826  -0.0004651   0.0001262  -0.0000069   0.0000029  -0.9421589   0.2840821
0.0228256    -1.0003191  -0.0001376  -0.0004344   0.0001495  -0.0000015   0.0000000  -0.9422130   0.2841121
0.0231062    -1.0003657  -0.0001122  -0.0004330   0.0001059  -0.0000071  -0.0000067  -0.9422103   0.2841453
0.0233902    -1.0003277  -0.0000567  -0.0003962   0.0001591  -0.0000062   0.0000041  -0.9421501   0.2842650
0.0236778    -1.0003525  -0.0000437  -0.0004359   0.0001531   0.0000026  -0.0000065  -0.9421274   0.2843437
0.0239689    -0.9995997   0.0011096  -0.0006760   0.0001884  -0.0000034  -0.0000028  -0.9431943   0.2849166
0.0242635    -1.0005306  -0.0001049  -0.0004254   0.0001182   0.0000020  -0.0000015  -0.9421554   0.2844378
0.0245618    -1.0003343  -0.0000137  -0.0007322   0.0001954  -0.0000175  -0.0000006  -0.9420997   0.2845678
0.0248637    -1.0004122  -0.0001555  -0.0004205   0.0000939  -0.0000010  -0.0000011  -0.9421057   0.2846436
0.0251694    -1.0004004  -0.0000669  -0.0004607   0.0000888  -0.0000045  -0.0000092  -0.9421237   0.2846718
0.0254788    -1.0003994  -0.0001077  -0.0003772   0.0001494  -0.0000051  -0.0000060  -0.9420106   0.2847303
0.0257920    -1.0004692  -0.0000910  -0.0004304   0.0001086   0.0000011  -0.0000116  -0.9420984   0.2848583
0.0261091    -1.0004645  -0.0000903  -0.0004538   0.0001442   0.0000032  -0.0000093  -0.9419308   0.2848252
0.0264301    -1.0003835  -0.0001195  -0.0003902   0.0001400   0.0000051  -0.0000114  -0.9420806   0.2849199
0.0267550    -1.0005110  -0.0001107  -0.0004414   0.0001452  -0.0000017   0.0000036  -0.9419236   0.2849455
0.0270839    -1.0004491  -0.0000816  -0.0004854   0.0001421  -0.0000150  -0.0000070  -0.9420152   0.2849370
0.0274168    -1.0004309  -0.0001579  -0.0004041   0.0001899  -0.0000071  -0.0000091  -0.9419723   0.2849874
0.0277539    -1.0003866  -0.0000042  -0.0004730   0.0001778  -0.0000055  -0.0000124  -0.9418585   0.2850718
0.0280951    -1.0004768  -0.0000904  -0.0003613   0.0000824  -0.0000084  -0.0000131  -0.9418695   0.2851680
0.0284404    -1.0004313  -0.0001019  -0.0004518   0.0001092  -0.0000050  -0.0000027  -0.9418926   0.2852433
0.0287901    -1.0004329  -0.0000453  -0.0004495   0.0001075  -0.0000104  -0.0000071  -0.9419360   0.2851845
0.0291440    -1.0003087  -0.0000781  -0.0004595   0.0001444   0.0000046  -0.0000088  -0.9418947   0.2853351
0.0295023    -1.0004723  -0.0000745  -0.0004650   0.0000822   0.0000158   0.0000033  -0.9418181   0.2853636
0.0298649    -1.0004340  -0.0000650  -0.0004317   0.0001472   0.0000090  -0.0000008  -0.9418149   0.2853996
0.0302321    -1.0004589  -0.0001175  -0.0005077   0.0001493   0.0000043  -0.0000058  -0.9417208   0.2854923
0.0306037    -1.0004181  -0.0000682  -0.0005028   0.0001309  -0.0000045  -0.0000008  -0.9417143   0.2855678
0.0309799    -1.0003450  -0.0000048  -0.0004919   0.0001473  -0.0000045   0.0000013  -0.9418265   0.2855831
0.0313608    -1.0003935  -0.0001401  -0.0004017   0.0001113   0.0000041  -0.0000197  -0.9417779   0.2856653
0.0317463    -1.0004102  -0.0000305  -0.0004694   0.0001196  -0.0000047   0.0000050  -0.9416988   0.2857371
0.0321366    -1.0004363  -0.0001098  -0.0004814   0.0001932   0.0000041  -0.0000031  -0.9417880   0.2857474
0.0325316    -1.0004595  -0.0001168  -0.0004481   0.0002194   0.0000030  -0.0000159  -0.9416747   0.2858300
0.0329316    -1.0003891  -0.0000466  -0.0004766   0.0001206   0.0000071  -0.0000175  -0.9416642   0.2859160
0.0333364    -1.0004688  -0.0001901  -0.0004412   0.0000895   0.0000033  -0.0000037  -0.9416956   0.2859965
0.0337462    -1.0004143   0.0000333  -0.0005246   0.0001568   0.0000003   0.0000066  -0.9415459   0.2858363
0.0341610    -1.0004242  -0.0001159  -0.0004986   0.0001508   0.0000031  -0.0000018  -0.9415890   0.2860550
0.0345810    -1.0003952  -0.0001272  -0.0005000   0.0001530   0.0000025  -0.0000054  -0.9415994   0.2860402
0.0350061    -1.0003523  -0.0000244  -0.0004477   0.0001445   0.0000041   0.0000028  -0.9416480   0.2861025
0.0354365    -1.0003719   0.0000096  -0.0004770   0.0002110   0.0000008  -0.0000113  -0.9415532   0.2862356
0.0358721    -1.0004463   0.0000073  -0.0003680   0.0001984   0.0000027   0.0000040  -0.9415274   0.2861881
0.0363131    -1.0004543  -0.0000177  -0.0004895   0.0001456  -0.0000035  -0.0000022  -0.9415787   0.2862180
0.0367595    -1.0004187  -0.0001043  -0.0004074   0.0001740  -0.0000029  -0.0000134  -0.9414277   0.2863980
0.0372114    -1.0004538  -0.0001152  -0.0003996   0.0001792   0.0000021  -0.0000147  -0.9414660   0.2864445
0.0376688    -1.0004698  -0.0001388  -0.0004448   0.0000698  -0.0000015  -0.0000004  -0.9414265   0.2864517
0.0381319    -1.0004893  -0.0000459  -0.0004833   0.0002362  -0.0000009  -0.0000148  -0.9414994   0.2864761
0.0386006    -1.0003786  -0.0000742  -0.0005172   0.0001204  -0.0000001  -0.0000062  -0.9414738   0.2866139
0.0390752    -1.0004684  -0.0000252  -0.0005065   0.0001388   0.0000058  -0.0000044  -0.9413666   0.2865701
0.0395555    -1.0003793  -0.0001076  -0.0003643   0.0000379  -0.0000018  -0.0000008  -0.9413887   0.2866159
0.0400418    -1.0004292  -0.0000421  -0.0006786   0.0000785  -0.0000059  -0.0000090  -0.9414225   0.2867169
0.0405340    -1.0004523  -0.0000425  -0.0005738   0.0003491   0.0000032  -0.0000083  -0.9413678   0.2866962
0.0410323    -1.0003668  -0.0000905  -0.0004620   0.0001342   0.0000113  -0.0000063  -0.9412536   0.2867964
0.0415368    -1.0004016  -0.0000860  -0.0004884   0.0001769  -0.0000101   0.0000046  -0.9413906   0.2868516
0.0420474    -1.0004475  -0.0001053  -0.0004431   0.0002409  -0.0000032  -0.0000059  -0.9413047   0.2867908
0.0425643    -1.0004091  -0.0000332  -0.0006165   0.0001613   0.0000041  -0.0000041  -0.9412317   0.2868349
0.0430875    -1.0004254  -0.0001634  -0.0004980   0.0001789   0.0000041  -0.0000004  -0.9413051   0.2869693
0.0436172    -1.0003924  -0.0001238  -0.0004864   0.0001779  -0.0000077  -0.0000074  -0.9412355   0.2870156
0.0441534    -1.0004529  -0.0000614  -0.0005197   0.0001623   0.0000004  -0.0000073  -0.9411886   0.2871031
0.0446962    -1.0004420  -0.0000872  -0.0004679   0.0001781  -0.0000045  -0.0000057  -0.9411981   0.2871376
0.0452457    -1.0003493  -0.0000834  -0.0004817   0.0001778   0.0000028  -0.0000074  -0.9411458   0.2871384
0.0458019    -1.0003853  -0.0001408  -0.0004938   0.0002021   0.0000017  -0.0000085  -0.9411226   0.2871739
0.0463649    -1.0004416  -0.0001287  -0.0004737   0.0001894   0.0000098   0.0000013  -0.9410879   0.2872438
0.0469349    -1.0003916  -0.0000538  -0.0004523   0.0001680  -0.0000076  -0.0000056  -0.9410962   0.2873527
0.0475119    -1.0003566  -0.0000294  -0.0004847   0.0001968   0.0000017  -0.0000071  -0.9410704   0.2873649
0.0480960    -1.0004191  -0.0000296  -0.0004937   0.0001738  -0.0000044  -0.0000019  -0.9409973   0.2874680
0.0486872    -1.0003320  -0.0001841  -0.0004335   0.0001542  -0.0000129  -0.0000110  -0.9409651   0.2874875
0.0492857    -1.0004118  -0.0001213  -0.0004829   0.0001706  -0.0000002  -0.0000042  -0.9409461   0.2875644
0.0498916    -1.0004552  -0.0000146  -0.0005005   0.0001600  -0.0000045  -0.0000018  -0.9408737   0.2876173
0.0505050    -1.0004285  -0.0000297  -0.0004949   0.0001952  -0.0000103  -0.0000166  -0.9409469   0.2876108
0.0511258    -1.0003742  -0.0000803  -0.0005182   0.0002205  -0.0000017  -0.0000074  -0.9409396   0.2877756
0.0517543    -1.0004492  -0.0001412  -0.0005208   0.0001866  -0.0000078  -0.0000062  -0.9409543   0.2877150
0.0523906    -1.0003707  -0.0001244  -0.0004855   0.0002485   0.0000057  -0.0000072  -0.9408638   0.2877875
0.0530346    -1.0004142  -0.0001330  -0.0004733   0.0002037   0.0000032  -0.0000115  -0.9408033   0.2878187
0.0536866    -1.0003856  -0.0001185  -0.0004897   0.0001898  -0.0000095  -0.0000167  -0.9408350   0.2878571
0.0543466    -1.0003992  -0.0001022  -0.0004661   0.0002310  -0.0000052  -0.0000006  -0.9407425   0.2878680
0.0550146    -1.0003566  -0.0001470  -0.0004774   0.0002479  -0.0000055  -0.0000045  -0.9407686   0.2879192
0.0556910    -1.0003441  -0.0001082  -0.0005145   0.0002663  -0.0000121  -0.0000102  -0.9406990   0.2879734
0.0563756    -1.0004375  -0.0000233  -0.0004197   0.0002200   0.0000018  -0.0000108  -0.9407175   0.2881117
0.0570686    -1.0004348  -0.0002304  -0.0005046   0.0002322   0.0000006  -0.0000166  -0.9406780   0.2881488
0.0577702    -1.0004249  -0.0001104  -0.0004579   0.0002161  -0.0000013  -0.0000054  -0.9406106   0.2882546
0.0584804    -1.0004024  -0.0001141  -0.0005110   0.0002420   0.0000011  -0.0000075  -0.9405687   0.2881916
0.0591993    -1.0004063  -0.0000499  -0.0004561   0.0002537   0.0000087   0.0000003  -0.9405477   0.2882490
0.0599270    -1.0004482  -0.0000905  -0.0005239   0.0002004   0.0000084  -0.0000020  -0.9406534   0.2883762
0.0606637    -1.0005035  -0.0000348  -0.0006809   0.0003949  -0.0000008  -0.0000084  -0.9404613   0.2883609
0.0614095    -1.0004545  -0.0000874  -0.0007313  -0.0000310  -0.0000130   0.0000009  -0.9405219   0.2883972
0.0621644    -1.0004017  -0.0001995  -0.0004928   0.0002451  -0.0000010  -0.0000074  -0.9405535   0.2885076
0.0629286    -1.0004488  -0.0001220  -0.0004879   0.0002008  -0.0000052  -0.0000012  -0.9404398   0.2884878
0.0637022    -1.0003949  -0.0000706  -0.0005025   0.0002259   0.0000020  -0.0000046  -0.9403573   0.2886245
0.0644853    -1.0003708  -0.0001112  -0.0005088   0.0002108  -0.0000014  -0.0000039  -0.9404157   0.2886764
0.0652780    -1.0003743  -0.0000879  -0.0004818   0.0002471   0.0000039  -0.0000084  -0.9403190   0.2886986
0.0660805    -1.0003812  -0.0000671  -0.0004812   0.0002495  -0.0000050  -0.0000067  -0.9402917   0.2888275
0.0668928    -1.0004321  -0.0001249  -0.0004780   0.0002796  -0.0000128  -0.0000122  -0.9402203   0.2888212
0.0677152    -1.0004261  -0.0000942  -0.0005056   0.0002349   0.0000000  -0.0000112  -0.9402024   0.2888230
0.0685476    -1.0004239  -0.0001483  -0.0004799   0.0002488  -0.0000072  -0.0000117  -0.9401862   0.2888922
0.0693903    -1.0005062  -0.0001029  -0.0005013   0.0002445  -0.0000004  -0.0000041  -0.9401122   0.2890172
0.0702433    -1.0004369  -0.0001534  -0.0005423   0.0002183  -0.0000029   0.0000041  -0.9401311   0.2890242
0.0711068    -1.0004053  -0.0001524  -0.0005233   0.0003818   0.0000037  -0.0000059  -0.9400895   0.2890692
0.0719810    -1.0003691  -0.0001506  -0.0004938   0.0002038  -0.0000091   0.0000050  -0.9400307   0.2890734
0.0728659    -1.0003857  -0.0000908  -0.0004746   0.0002696   0.0000052  -0.0000014  -0.9399982   0.2891921
0.0737616    -1.0004362  -0.0001816  -0.0004372   0.0002306  -0.0000012   0.0000004  -0.9399166   0.2892475
0.0746684    -1.0003494  -0.0000413  -0.0005230   0.0002573   0.0000073  -0.0000086  -0.9399425   0.2892933
0.0755863    -1.0004017  -0.0000847  -0.0004563   0.0002371  -0.0000051  -0.0000018  -0.9398644   0.2893296
0.0765155    -1.0004121  -0.0001456  -0.0004902   0.0002618  -0.0000040  -0.0000102  -0.9398543   0.2893451
0.0774561    -1.0004231  -0.0001081  -0.0004865   0.0002515   0.0000021  -0.0000132  -0.9397228   0.2894283
0.0784083    -1.0003244  -0.0001943  -0.0005166   0.0002578   0.0000033   0.0000006  -0.9396576   0.2894038
0.0793722    -1.0003583  -0.0001244  -0.0004908   0.0002448  -0.0000042  -0.0000104  -0.9396161   0.2895158
0.0803479    -1.0003263  -0.0001194  -0.0004922   0.0002889   0.0000014  -0.0000099  -0.9396115   0.2895176
0.0813357    -1.0003900  -0.0001660  -0.0005074   0.0002748  -0.0000006  -0.0000007  -0.9394970   0.2895606
0.0823356    -1.0003729  -0.0001166  -0.0005126   0.0002996  -0.0000053  -0.0000076  -0.9394075   0.2896695
0.0833477    -1.0003640  -0.0001729  -0.0005284   0.0002703   0.0000061  -0.0000029  -0.9393761   0.2896456
0.0843723    -1.0004196  -0.0001203  -0.0004846   0.0002755   0.0000086  -0.0000037  -0.9393115   0.2897923
0.0854095    -1.0003526  -0.0002512  -0.0005156   0.0002622  -0.0000026  -0.0000074  -0.9392051   0.2896720
0.0864595    -1.0004431  -0.0001013  -0.0005323   0.0002643  -0.0000029   0.0000073  -0.9391912   0.2898053
0.0875224    -1.0002771  -0.0001264  -0.0004654   0.0002662   0.0000034  -0.0000104  -0.9391330   0.2897833
0.0885983    -1.0003722  -0.0001562  -0.0005000   0.0002664  -0.0000022  -0.0000038  -0.9390844   0.2898074
0.0896875    -1.0003124  -0.0002261  -0.0004079   0.0003628   0.0000089  -0.0000091  -0.9389901   0.2898603
0.0907900    -1.0003912  -0.0001819  -0.0004930   0.0002951  -0.0000058  -0.0000009  -0.9389029   0.2897670
0.0919061    -1.0002708  -0.0002193  -0.0004975   0.0002522   0.0000026   0.0000009  -0.9387465   0.2898359
0.0930359    -1.0002647  -0.0002128  -0.0004873   0.0002594   0.0000012   0.0000016  -0.9387368   0.2897206
0.0941797    -1.0004424  -0.0002089  -0.0004889   0.0002937   0.0000025   0.0000095  -0.9386642   0.2897788
0.0953374    -1.0003780  -0.0003121  -0.0005262   0.0002636  -0.0000047   0.0000036  -0.9386589   0.2896874
0.0965094    -1.0002980  -0.0001754  -0.0004214   0.0000306   0.0000008  -0.0000022  -0.9385277   0.2897067
0.0976959    -1.0003654  -0.0002238  -0.0004450   0.0002924   0.0000064  -0.0000051  -0.9385353   0.2896980
0.0988969    -1.0003301  -0.0002628  -0.0005202   0.0002386  -0.0000068  -0.0000015  -0.9384663   0.2896201
0.1001126    -1.0003571  -0.0002531  -0.0004792   0.0002834  -0.0000042  -0.0000113  -0.9384273   0.2896009
0.1013433    -1.0003631  -0.0002716  -0.0004864   0.0003265  -0.0000066  -0.0000005  -0.9384162   0.2895283
0.1025892    -1.0003630  -0.0002467  -0.0004435   0.0003321  -0.0000089  -0.0000156  -0.9383242   0.2894642
0.1038503    -1.0003522  -0.0002843  -0.0004887   0.0002967  -0.0000061   0.0000026  -0.9383898   0.2893628
0.1051270    -1.0003714  -0.0002755  -0.0004834   0.0003128  -0.0000042   0.0000032  -0.9384645   0.2893710
0.1064193    -1.0004328  -0.0002177  -0.0004979   0.0002897  -0.0000009  -0.0000043  -0.9385210   0.2892712
0.1077276    -1.0004109  -0.0003360  -0.0004822   0.0002386  -0.0000010   0.0000042  -0.9385561   0.2893075
0.1090519    -1.0004294  -0.0002483  -0.0005462   0.0003051   0.0000081   0.0000023  -0.9386699   0.2891948
0.1103925    -1.0005239  -0.0003010  -0.0004849   0.0003341  -0.0000053  -0.0000082  -0.9386504   0.2892372
0.1117496    -1.0004260  -0.0003045  -0.0006336  -0.0000320   0.0000070  -0.0000009  -0.9387449   0.2892651
0.1131233    -1.0004040  -0.0002137  -0.0004671   0.0003067  -0.0000109  -0.0000063  -0.9388706   0.2892237
0.1145140    -1.0004502  -0.0002992  -0.0005103   0.0003583  -0.0000020  -0.0000139  -0.9389367   0.2893050
0.1159217    -1.0004431  -0.0002565  -0.0004522   0.0003484  -0.0000058  -0.0000006  -0.9389502   0.2893045
0.1173468    -1.0004918  -0.0003177  -0.0005156   0.0003118   0.0000043  -0.0000100  -0.9390159   0.2893834
0.1187893    -1.0004818  -0.0002731  -0.0004904   0.0003353  -0.0000015  -0.0000112  -0.9391408   0.2894386
0.1202497    -1.0004218  -0.0002015  -0.0004646   0.0003045  -0.0000076  -0.0000202  -0.9391425   0.2894774
0.1217279    -1.0004164  -0.0002088  -0.0004759   0.0003534   0.0000047   0.0000067  -0.9391774   0.2895602
0.1232243    -1.0004438  -0.0002969  -0.0005076   0.0003541  -0.0000059  -0.0000097  -0.9393238   0.2897100
0.1247392    -1.0003201  -0.0002348  -0.0004942   0.0003245  -0.0000005  -0.0000021  -0.9393441   0.2897610
0.1262726    -1.0004306  -0.0002428  -0.0004882   0.0003385  -0.0000082  -0.0000107  -0.9393835   0.2898578
0.1278249    -1.0004358  -0.0002168  -0.0005060   0.0002915  -0.0000011  -0.0000062  -0.9393711   0.2899272
0.1293963    -1.0004352  -0.0002588  -0.0004570   0.0002378  -0.0000038  -0.0000042  -0.9394349   0.2900448
0.1309870    -1.0004545  -0.0002786  -0.0004921   0.0003343   0.0000004  -0.0000140  -0.9394403   0.2901690
0.1325973    -1.0003949  -0.0002629  -0.0003130   0.0003045  -0.0000006   0.0000020  -0.9394429   0.2901727
0.1342273    -1.0004537  -0.0002918  -0.0005020   0.0003698  -0.0000030  -0.0000066  -0.9395119   0.2902830
0.1358774    -1.0003656  -0.0003456  -0.0005737   0.0003987  -0.0000045   0.0000028  -0.9394840   0.2904587
0.1375478    -1.0004724  -0.0002428  -0.0005016   0.0003517   0.0000041  -0.0000011  -0.9395102   0.2904983
0.1392387    -1.0003699  -0.0003054  -0.0005008   0.0003348  -0.0000016  -0.0000030  -0.9394896   0.2906542
0.1409504    -1.0004732  -0.0003529  -0.0005029   0.0003741  -0.0000098  -0.0000030  -0.9395416   0.2907525
0.1426831    -1.0003730  -0.0003426  -0.0004896   0.0003774  -0.0000051  -0.0000032  -0.9395182   0.2907696
0.1444371    -1.0003851  -0.0002896  -0.0004694   0.0003836   0.0000040  -0.0000025  -0.9394529   0.2909111
0.1462127    -1.0004212  -0.0002450  -0.0004948   0.0003645   0.0000011  -0.0000080  -0.9395321   0.2910522
0.1480102    -1.0004596  -0.0002932  -0.0005079   0.0003871  -0.0000016  -0.0000117  -0.9394888   0.2911476
0.1498297    -1.0004242  -0.0003186  -0.0004830   0.0003940  -0.0000046   0.0000006  -0.9394295   0.2911965
0.1516716    -1.0004507  -0.0003783  -0.0004764   0.0004019  -0.0000031   0.0000037  -0.9394114   0.2913293
0.1535361    -1.0005075  -0.0003556  -0.0005096   0.0003785  -0.0000056  -0.0000089  -0.9394468   0.2914228
0.1554236    -1.0004411  -0.0003423  -0.0004829   0.0003787   0.0000006   0.0000022  -0.9394299   0.2915906
0.1573342    -1.0004849  -0.0004117  -0.0005891   0.0004607  -0.0000109  -0.0000090  -0.9393141   0.2916879
0.1592684    -1.0004242  -0.0003356  -0.0004892   0.0004003   0.0000048   0.0000032  -0.9394186   0.2917255
0.1612263    -1.0003985  -0.0002689  -0.0005099   0.0003725   0.0000049  -0.0000010  -0.9393069   0.2918717
0.1632083    -1.0004382  -0.0003413  -0.0004819   0.0003422   0.0000052  -0.0000046  -0.9393931   0.2919294
0.1652147    -1.0003474  -0.0003871  -0.0004856   0.0003891  -0.0000054   0.0000015  -0.9392935   0.2920767
0.1672457    -1.0002859  -0.0004311  -0.0005237   0.0004328   0.0000058  -0.0000092  -0.9392819   0.2921465
0.1693017    -1.0004153  -0.0003322  -0.0005059   0.0004335  -0.0000093  -0.0000026  -0.9392562   0.2921591
0.1713829    -1.0004803  -0.0003140  -0.0004022   0.0002605  -0.0000062  -0.0000029  -0.9392212   0.2923577
0.1734898    -1.0005004  -0.0003868  -0.0004612   0.0004736  -0.0000008   0.0000005  -0.9391912   0.2923584
0.1756225    -1.0004150  -0.0003077  -0.0004952   0.0004335   0.0000067  -0.0000024  -0.9391699   0.2925539
0.1777815    -1.0004250  -0.0003390  -0.0005063   0.0004259  -0.0000031  -0.0000086  -0.9390592   0.2925714
0.1799670    -1.0004096  -0.0003792  -0.0005218   0.0004726  -0.0000053  -0.0000102  -0.9390654   0.2927581
0.1821794    -1.0004197  -0.0004331  -0.0005070   0.0004684   0.0000027  -0.0000042  -0.9390483   0.2928551
0.1844190    -1.0004988  -0.0003665  -0.0004950   0.0004649  -0.0000014  -0.0000113  -0.9391059   0.2929285
0.1866861    -1.0004366  -0.0003801  -0.0005174   0.0005284  -0.0000025  -0.0000085  -0.9389236   0.2930493
0.1889811    -1.0003568  -0.0004317  -0.0005166   0.0004543  -0.0000052  -0.0000045  -0.9389341   0.2931909
0.1913043    -1.0004538  -0.0004287  -0.0005172   0.0004704  -0.0000022  -0.0000077  -0.9389398   0.2931881
0.1936560    -1.0004336  -0.0003862  -0.0005174   0.0004887  -0.0000029   0.0000011  -0.9388743   0.2934055
0.1960367    -1.0004933  -0.0004410  -0.0004780   0.0005004  -0.0000034  -0.0000113  -0.9388666   0.2935421
0.1984466    -1.0003947  -0.0003794  -0.0005224   0.0004999  -0.0000069  -0.0000007  -0.9388003   0.2935264
0.2008861    -1.0004947  -0.0004430  -0.0005215   0.0004848  -0.0000035  -0.0000135  -0.9388468   0.2937072
0.2033557    -1.0003872  -0.0004225  -0.0005251   0.0004505  -0.0000017  -0.0000072  -0.9388149   0.2937507
0.2058556    -1.0004561  -0.0004688  -0.0005412   0.0005298   0.0000063  -0.0000012  -0.9386165   0.2938308
0.2083862    -1.0005159  -0.0004585  -0.0005097   0.0005340  -0.0000007  -0.0000098  -0.9386430   0.2939738
0.2109480    -1.0004473  -0.0004492  -0.0005189   0.0005181  -0.0000041   0.0000037  -0.9386125   0.2940661
0.2135412    -1.0004234  -0.0004039  -0.0005202   0.0005663   0.0000026  -0.0000099  -0.9385548   0.2941996
0.2161663    -1.0005118  -0.0004520  -0.0005210   0.0005513   0.0000069  -0.0000061  -0.9385860   0.2942747
0.2188237    -1.0004876  -0.0004465  -0.0005186   0.0005349  -0.0000015  -0.0000051  -0.9385893   0.2944157
0.2215137    -1.0004857  -0.0005054  -0.0005168   0.0005699  -0.0000176  -0.0000081  -0.9384733   0.2944849
0.2242369    -1.0004751  -0.0004253  -0.0005148   0.0005496  -0.0000093  -0.0000156  -0.9383799   0.2946712
0.2269935    -1.0004818  -0.0005132  -0.0005417   0.0005810  -0.0000070  -0.0000102  -0.9383557   0.2947396
0.2297839    -1.0004771  -0.0004921  -0.0005133   0.0005506   0.0000008  -0.0000095  -0.9383288   0.2948782
0.2326087    -1.0004462  -0.0004364  -0.0005384   0.0006304  -0.0000072  -0.0000042  -0.9383012   0.2949777
0.2354682    -1.0004506  -0.0004984  -0.0005492   0.0005582   0.0000062  -0.0000025  -0.9382314   0.2950852
0.2383629    -1.0004360  -0.0005130  -0.0005313   0.0005865   0.0000095  -0.0000077  -0.9382402   0.2951383
0.2412932    -1.0004607  -0.0005851  -0.0005170   0.0006242  -0.0000204  -0.0000146  -0.9381400   0.2952565
0.2442594    -1.0004787  -0.0004848  -0.0005126   0.0006170  -0.0000093   0.0000065  -0.9381314   0.2954319
0.2472622    -1.0003829  -0.0004818  -0.0005056   0.0006202  -0.0000034  -0.0000044  -0.9381191   0.2955686
0.2503018    -1.0004251  -0.0006137  -0.0004993   0.0006314  -0.0000125  -0.0000093  -0.9379876   0.2957517
0.2533788    -1.0004963  -0.0006022  -0.0005463   0.0006072  -0.0000040   0.0000031  -0.9379655   0.2957465
0.2564937    -1.0005268  -0.0005792  -0.0005487   0.0006056  -0.0000017  -0.0000116  -0.9379517   0.2958429
0.2596468    -1.0004965  -0.0005492  -0.0005334   0.0006573  -0.0000103  -0.0000019  -0.9378675   0.2960615
0.2628387    -1.0004317  -0.0006245  -0.0005382   0.0006608   0.0000019   0.0000031  -0.9378421   0.2962113
0.2660699    -1.0005170  -0.0004815  -0.0005357   0.0006606   0.0000030  -0.0000001  -0.9377637   0.2962477
0.2693407    -1.0004722  -0.0005985  -0.0005422   0.0006935   0.0000029   0.0000017  -0.9376920   0.2964796
0.2726518    -1.0004333  -0.0005601  -0.0005128   0.0006615   0.0000098  -0.0000065  -0.9376563   0.2965318
0.2760036    -1.0004820  -0.0005466  -0.0005211   0.0006644  -0.0000009  -0.0000004  -0.9376370   0.2967253
0.2793966    -1.0005016  -0.0006439  -0.0005450   0.0006842   0.0000015  -0.0000069  -0.9375655   0.2967840
0.2828312    -1.0004431  -0.0005695  -0.0005520   0.0007057  -0.0000054  -0.0000065  -0.9375553   0.2969881
0.2863082    -1.0004555  -0.0005785  -0.0005455   0.0006988  -0.0000069  -0.0000156  -0.9374514   0.2970842
0.2898278    -1.0003779  -0.0006192  -0.0005255   0.0006721   0.0000011  -0.0000148  -0.9373987   0.2972562
0.2933907    -1.0004417  -0.0006212  -0.0005407   0.0007287  -0.0000071  -0.0000110  -0.9374491   0.2973166
0.2969975    -1.0004161  -0.0006039  -0.0005792   0.0007417   0.0000025  -0.0000002  -0.9373918   0.2974570
0.3006485    -1.0004801  -0.0005833  -0.0005833   0.0007852  -0.0000037  -0.0000003  -0.9372446   0.2976492
0.3043445    -1.0004421  -0.0007224  -0.0005742   0.0007633   0.0000030  -0.0000090  -0.9372233   0.2977212
0.3080858    -1.0005185  -0.0007231  -0.0005361   0.0007781   0.0000008  -0.0000047  -0.9371217   0.2978439
0.3118732    -1.0005099  -0.0006157  -0.0005672   0.0007935  -0.0000029  -0.0000037  -0.9370846   0.2981255
0.3157071    -1.0003677  -0.0006226  -0.0005450   0.0007578   0.0000001  -0.0000051  -0.9369519   0.2981806
0.3195882    -1.0005282  -0.0006933  -0.0005495   0.0008034  -0.0000056  -0.0000075  -0.9369621   0.2983713
0.3235170    -1.0005495  -0.0007482  -0.0005774   0.0008047   0.0000005  -0.0000101  -0.9368877   0.2985743
0.3274941    -1.0005196  -0.0006037  -0.0005742   0.0008010  -0.0000171  -0.0000030  -0.9368245   0.2986018
0.3315200    -1.0004962  -0.0006715  -0.0005823   0.0008499  -0.0000011  -0.0000002  -0.9366881   0.2987612
0.3355955    -1.0004495  -0.0006927  -0.0004887   0.0007952   0.0000024  -0.0000098  -0.9367534   0.2988743
0.3397210    -1.0004238  -0.0006396  -0.0005562   0.0008577  -0.0000033  -0.0000140  -0.9366286   0.2991156
0.3438973    -1.0005320  -0.0006730  -0.0005770   0.0009061   0.0000025  -0.0000018  -0.9365542   0.2991742
0.3481249    -1.0003980  -0.0007452  -0.0005645   0.0008913  -0.0000090  -0.0000003  -0.9365513   0.2993079
0.3524045    -1.0005037  -0.0007052  -0.0005332   0.0008816   0.0000071  -0.0000049  -0.9364981   0.2994654
0.3567367    -1.0004770  -0.0007109  -0.0005595   0.0008860   0.0000048  -0.0000006  -0.9364733   0.2996630
0.3611221    -1.0004502  -0.0007051  -0.0005482   0.0009322  -0.0000009  -0.0000053  -0.9363157   0.2998125
0.3655615    -1.0004790  -0.0007493  -0.0003984   0.0008389   0.0000008   0.0000035  -0.9362350   0.2999891
0.3700554    -1.0004417  -0.0007923  -0.0006323   0.0009799  -0.0000078   0.0000013  -0.9361766   0.3001423
0.3746046    -1.0003982  -0.0008394  -0.0005129   0.0009715  -0.0000074   0.0000052  -0.9360952   0.3002810
0.3792097    -1.0005438  -0.0007619  -0.0005702   0.0009881   0.0000027  -0.0000014  -0.9360310   0.3005167
0.3838714    -1.0003859  -0.0008055  -0.0005662   0.0009803  -0.0000147   0.0000006  -0.9360487   0.3006684
0.3885905    -1.0004819  -0.0008357  -0.0005381   0.0009690   0.0000014  -0.0000025  -0.9359445   0.3008066
0.3933675    -1.0005173  -0.0008742  -0.0005838   0.0010175  -0.0000064  -0.0000079  -0.9358374   0.3010662
0.3982033    -1.0004866  -0.0008394  -0.0005878   0.0010214   0.0000045  -0.0000028  -0.9357388   0.3011775
0.4030985    -1.0004340  -0.0009157  -0.0006105   0.0010492  -0.0000013  -0.0000019  -0.9356822   0.3013380
0.4080538    -1.0005132  -0.0008110  -0.0006025   0.0010683   0.0000088  -0.0000011  -0.9356213   0.3015114
0.4130701    -1.0004529  -0.0008978  -0.0005644   0.0010520  -0.0000030  -0.0000011  -0.9354990   0.3017008
0.4181481    -1.0004347  -0.0007960  -0.0005806   0.0010558  -0.0000217  -0.0000123  -0.9354835   0.3019167
0.4232885    -1.0004631  -0.0008712  -0.0005800   0.0010632   0.0000013  -0.0000042  -0.9353929   0.3020374
0.4284921    -1.0003940  -0.0009451  -0.0005656   0.0010893   0.0000050  -0.0000019  -0.9353126   0.3021829
0.4337597    -1.0004695  -0.0008649  -0.0005743   0.0011055  -0.0000025  -0.0000129  -0.9351899   0.3024178
0.4390920    -1.0004779  -0.0009387  -0.0006040   0.0011637   0.0000014  -0.0000040  -0.9351455   0.3026475
0.4444898    -1.0004822  -0.0008536  -0.0006043   0.0011435   0.0000003  -0.0000071  -0.9350953   0.3028394
0.4499541    -1.0005154  -0.0008982  -0.0005829   0.0011631   0.0000018   0.0000071  -0.9349420   0.3029515
0.4554854    -1.0004215  -0.0009331  -0.0005761   0.0011730  -0.0000024   0.0000004  -0.9349191   0.3031716
0.4610848    -1.0005012  -0.0009557  -0.0005988   0.0012177   0.0000036  -0.0000010  -0.9347462   0.3034583
0.4667531    -1.0004283  -0.0009957  -0.0006170   0.0013069  -0.0000048  -0.0000122  -0.9347264   0.3035858
0.4724910    -1.0004153  -0.0008993  -0.0005703   0.0014291   0.0000114  -0.0000039  -0.9345766   0.3037551
0.4782994    -1.0005030  -0.0009183  -0.0005629   0.0012901  -0.0000062  -0.0000052  -0.9345650   0.3040264
0.4841793    -1.0004568  -0.0010381  -0.0005834   0.0012651   0.0000106   0.0000023  -0.9344129   0.3041643
0.4901314    -1.0004218  -0.0010312  -0.0005897   0.0012592   0.0000062  -0.0000086  -0.9344641   0.3044346
0.4961567    -1.0004362  -0.0010849  -0.0005831   0.0012920  -0.0000058  -0.0000014  -0.9343045   0.3046205
0.5022561    -1.0005250  -0.0011210  -0.0005602   0.0012709  -0.0000017  -0.0000053  -0.9341865   0.3048411
0.5084304    -1.0005040  -0.0010719  -0.0006969   0.0014722  -0.0000013  -0.0000019  -0.9340425   0.3051119
0.5146807    -1.0005560  -0.0010278  -0.0008538   0.0013047  -0.0000092  -0.0000063  -0.9339961   0.3052493
0.5210078    -1.0004522  -0.0010967  -0.0005814   0.0013310   0.0000043  -0.0000041  -0.9338725   0.3054744
0.5274126    -1.0004754  -0.0010677  -0.0005961   0.0013561  -0.0000064  -0.0000075  -0.9338402   0.3057256
0.5338963    -1.0004656  -0.0011154  -0.0005830   0.0014020   0.0000003   0.0000057  -0.9337405   0.3059158
0.5404596    -1.0004836  -0.0011759  -0.0005932   0.0013994  -0.0000084   0.0000050  -0.9336710   0.3062319
0.5471036    -1.0004763  -0.0010915  -0.0004473   0.0012711  -0.0000094  -0.0000065  -0.9335276   0.3063257
0.5538292    -1.0004565  -0.0010704  -0.0007388   0.0013679   0.0000020  -0.0000054  -0.9334165   0.3066357
0.5606376    -1.0004876  -0.0011181  -0.0003918   0.0014445  -0.0000026  -0.0000073  -0.9332411   0.3068205
0.5675297    -1.0004671  -0.0012025  -0.0004683   0.0017183  -0.0000022  -0.0000028  -0.9331879   0.3071370
0.5745064    -1.0004276  -0.0012095  -0.0010929   0.0012178   0.0000018   0.0000011  -0.9330557   0.3073340
0.5815690    -1.0004924  -0.0011602  -0.0004860   0.0017858   0.0000020   0.0000047  -0.9330523   0.3075216
0.5887183    -1.0004898  -0.0011803  -0.0004374   0.0016741  -0.0000109  -0.0000114  -0.9328489   0.3077647
0.5959556    -1.0004621  -0.0012182  -0.0005798   0.0015300  -0.0000057  -0.0000093  -0.9327533   0.3080503
0.6032818    -1.0005039  -0.0012722  -0.0005804   0.0015858  -0.0000051  -0.0000031  -0.9326622   0.3083318
0.6106981    -1.0004323  -0.0012231  -0.0006151   0.0015878   0.0000033  -0.0000101  -0.9325332   0.3086434
0.6182056    -1.0005629  -0.0011997  -0.0005820   0.0015944   0.0000045  -0.0000047  -0.9324797   0.3087512
0.6258053    -1.0004643  -0.0013210  -0.0005979   0.0016309  -0.0000036   0.0000009  -0.9323100   0.3090988
0.6334985    -1.0004608  -0.0013376  -0.0006029   0.0016063   0.0000043  -0.0000057  -0.9322906   0.3093580
0.6412862    -1.0004338  -0.0013963  -0.0006055   0.0016682  -0.0000087  -0.0000039  -0.9320162   0.3096498
0.6491697    -1.0004919  -0.0013232  -0.0005827   0.0016724  -0.0000025   0.0000017  -0.9320639   0.3099768
0.6571501    -1.0005408  -0.0013056  -0.0005948   0.0017271  -0.0000156  -0.0000076  -0.9318527   0.3101546
0.6652286    -1.0004900  -0.0013106  -0.0006322   0.0017549   0.0000013  -0.0000025  -0.9317385   0.3105023
0.6734064    -1.0005908  -0.0013364  -0.0007708   0.0019137  -0.0000007  -0.0000128  -0.9316249   0.3107810
0.6816848    -1.0004398  -0.0013118  -0.0003496   0.0017229  -0.0000108  -0.0000052  -0.9314518   0.3109770
0.6900649    -1.0005267  -0.0013350  -0.0008663   0.0018406  -0.0000001  -0.0000024  -0.9313558   0.3112493
0.6985480    -1.0004247  -0.0014707  -0.0005841   0.0018169  -0.0000011  -0.0000022  -0.9312130   0.3116300
0.7071355    -1.0005182  -0.0014554  -0.0005219   0.0017160   0.0000024  -0.0000047  -0.9311384   0.3119213
0.7158284    -1.0005731  -0.0014132  -0.0005602   0.0018311   0.0000018  -0.0000044  -0.9310515   0.3121998
0.7246283    -1.0005498  -0.0014886  -0.0003691   0.0018200  -0.0000065  -0.0000022  -0.9308397   0.3124587
0.7335363    -1.0004208  -0.0014328  -0.0009036   0.0019287   0.0000072  -0.0000030  -0.9308036   0.3127722
0.7425539    -1.0005162  -0.0015360  -0.0006511   0.0020636  -0.0000014  -0.0000051  -0.9306783   0.3131388
0.7516822    -1.0005065  -0.0015526  -0.0007294   0.0018676  -0.0000061   0.0000039  -0.9304417   0.3133883
0.7609229    -1.0005636  -0.0015690  -0.0003516   0.0021499  -0.0000108  -0.0000073  -0.9302693   0.3136903
0.7702771    -1.0005281  -0.0015555  -0.0009659   0.0018939   0.0000060  -0.0000118  -0.9301103   0.3139566
0.7797463    -1.0005291  -0.0015185  -0.0008819   0.0020199  -0.0000053  -0.0000039  -0.9299867   0.3143409
0.7893319    -1.0004569  -0.0016569  -0.0007815   0.0019510  -0.0000011  -0.0000039  -0.9298566   0.3146606
0.7990353    -1.0005098  -0.0016607  -0.0005989   0.0021005   0.0000108   0.0000006  -0.9297423   0.3149845
0.8088580    -1.0004912  -0.0017015  -0.0005851   0.0021038  -0.0000011  -0.0000043  -0.9295781   0.3153214
0.8188015    -1.0004363  -0.0017128  -0.0005868   0.0021212  -0.0000041  -0.0000032  -0.9294537   0.3156519
0.8288673    -1.0005177  -0.0016831  -0.0003889   0.0022251  -0.0000032  -0.0000065  -0.9292674   0.3159989
0.8390567    -1.0005313  -0.0016864  -0.0005831   0.0021629   0.0000029  -0.0000167  -0.9291964   0.3163791
0.8493714    -1.0005068  -0.0017764  -0.0005817   0.0022085   0.0000081  -0.0000012  -0.9290133   0.3166715
0.8598130    -1.0004551  -0.0017229  -0.0004672   0.0024107   0.0000073  -0.0000083  -0.9288463   0.3170546
0.8703829    -1.0005244  -0.0017570  -0.0005209   0.0022771   0.0000037  -0.0000044  -0.9286617   0.3173866
0.8810827    -1.0005134  -0.0017488  -0.0005540   0.0021589  -0.0000029  -0.0000054  -0.9285109   0.3178376
0.8919140    -1.0005378  -0.0018348  -0.0006023   0.0023373   0.0000023  -0.0000108  -0.9283561   0.3181357
0.9028786    -1.0005175  -0.0018008  -0.0009971   0.0027045  -0.0000092   0.0000004  -0.9281942   0.3185210
0.9139779    -1.0005664  -0.0018121  -0.0005913   0.0024092  -0.0000026  -0.0000067  -0.9280326   0.3189216
0.9252136    -1.0005633  -0.0018910  -0.0005925   0.0024362  -0.0000001  -0.0000139  -0.9278553   0.3192816
0.9365875    -1.0005004  -0.0019193  -0.0005739   0.0024520  -0.0000034   0.0000006  -0.9276938   0.3196557
0.9481012    -1.0005262  -0.0018859  -0.0005673   0.0024775  -0.0000017  -0.0000055  -0.9275186   0.3200543
0.9597564    -1.0004591  -0.0019245  -0.0005848   0.0025267  -0.0000017  -0.0000023  -0.9273121   0.3204456
0.9715549    -1.0005066  -0.0019614  -0.0005727   0.0025491  -0.0000036  -0.0000012  -0.9271461   0.3208858
0.9834985    -1.0004904  -0.0020351  -0.0006042   0.0025986  -0.0000065  -0.0000013  -0.9270109   0.3212321
0.9955889    -1.0006033  -0.0020329  -0.0005919   0.0026370  -0.0000032  -0.0000050  -0.9268638   0.3216050
1.0078279    -1.0004684  -0.0019787  -0.0005751   0.0026388   0.0000107  -0.0000079  -0.9265545   0.3220619
1.0202173    -1.0005263  -0.0020257  -0.0005987   0.0026395   0.0000011  -0.0000053  -0.9264578   0.3224213
1.0327591    -1.0004974  -0.0020415  -0.0005685   0.0026930  -0.0000039  -0.0000004  -0.9262505   0.3229331
1.0454551    -1.0005556  -0.0021822  -0.0005779   0.0027011   0.0000008  -0.0000101  -0.9260666   0.3233381
1.0583071    -1.0005186  -0.0021291  -0.0006043   0.0027653  -0.0000013   0.0000049  -0.9258682   0.3237213
1.0713171    -1.0005359  -0.0021393  -0.0005666   0.0027847  -0.0000064   0.0000018  -0.9255917   0.3241481
1.0844871    -1.0005107  -0.0021348  -0.0005796   0.0028366  -0.0000048   0.0000027  -0.9254617   0.3245377
1.0978189    -1.0005078  -0.0022468  -0.0005885   0.0028768   0.0000007   0.0000068  -0.9252756   0.3250599
1.1113147    -1.0004905  -0.0022711  -0.0005993   0.0029178  -0.0000006  -0.0000055  -0.9250334   0.3254274
1.1249763    -1.0004959  -0.0022679  -0.0005711   0.0029434  -0.0000013  -0.0000018  -0.9248774   0.3259905
1.1388059    -1.0005578  -0.0022579  -0.0005929   0.0029931  -0.0000019  -0.0000060  -0.9247198   0.3264517
1.1528056    -1.0005776  -0.0023090  -0.0005227   0.0030834  -0.0000044  -0.0000036  -0.9244583   0.3268988
1.1669773    -1.0005353  -0.0023422  -0.0005538   0.0030388  -0.0000009  -0.0000082  -0.9242727   0.3273953
1.1813232    -1.0005662  -0.0023801  -0.0005528   0.0031118  -0.0000031  -0.0000048  -0.9240773   0.3278585
1.1958455    -1.0005209  -0.0024364  -0.0005756   0.0031365   0.0000009   0.0000004  -0.9238039   0.3283554
1.2105463    -1.0005565  -0.0023411  -0.0005863   0.0031477  -0.0000031  -0.0000085  -0.9236208   0.3288517
1.2254278    -1.0005303  -0.0024572  -0.0006116   0.0031985  -0.0000064   0.0000002  -0.9233540   0.3293477
1.2404923    -1.0006212  -0.0024950  -0.0004855   0.0033923   0.0000005  -0.0000006  -0.9232183   0.3298264
1.2557420    -1.0004163  -0.0025061  -0.0005754   0.0032757   0.0000060  -0.0000034  -0.9229541   0.3303611
1.2711791    -1.0005718  -0.0025538  -0.0005614   0.0033018   0.0000058   0.0000032  -0.9226769   0.3308420
1.2868060    -1.0005979  -0.0025926  -0.0005788   0.0033812  -0.0000086   0.0000018  -0.9224299   0.3313969
1.3026251    -1.0005778  -0.0025882  -0.0005548   0.0034020   0.0000010  -0.0000178  -0.9221532   0.3319239
1.3186385    -1.0005084  -0.0026216  -0.0006012   0.0034358  -0.0000032  -0.0000001  -0.9219294   0.3324706
1.3348489    -1.0005856  -0.0026776  -0.0005462   0.0034701  -0.0000022  -0.0000067  -0.9217568   0.3330027
1.3512585    -1.0006515  -0.0026728  -0.0005867   0.0035249  -0.0000067  -0.0000152  -0.9214508   0.3335168
1.3678698    -1.0005853  -0.0027153  -0.0005862   0.0035733  -0.0000091  -0.0000157  -0.9212825   0.3340755
1.3846854    -1.0004960  -0.0027840  -0.0006102   0.0036242   0.0000027  -0.0000135  -0.9210106   0.3347380
1.4017077    -1.0006039  -0.0027730  -0.0005743   0.0036612   0.0000041   0.0000045  -0.9207423   0.3352204
1.4189392    -1.0006117  -0.0028684  -0.0005900   0.0037000   0.0000006   0.0000001  -0.9205003   0.3357456
1.4363825    -1.0005199  -0.0027915  -0.0006054   0.0037651  -0.0000072  -0.0000012  -0.9202484   0.3363581
1.4540403    -1.0005084  -0.0028595  -0.0005614   0.0038058  -0.0000064  -0.0000011  -0.9199559   0.3369570
1.4719152    -1.0005181  -0.0029514  -0.0005798   0.0038433   0.0000078   0.0000075  -0.9197156   0.3376479
1.4900098    -1.0005593  -0.0029595  -0.0005721   0.0038710   0.0000059  -0.0000025  -0.9193985   0.3381595
1.5083269    -1.0004965  -0.0030909  -0.0005943   0.0039507  -0.0000053   0.0000013  -0.9191216   0.3387463
1.5268691    -1.0006278  -0.0031058  -0.0005637   0.0039892   0.0000075  -0.0000016  -0.9188447   0.3393919
1.5456392    -1.0005644  -0.0031049  -0.0005689   0.0040226  -0.0000034  -0.0000016  -0.9186352   0.3399954
1.5646402    -1.0005515  -0.0031017  -0.0005809   0.0040396   0.0000027  -0.0000022  -0.9183255   0.3407034
1.5838747    -1.0005665  -0.0031159  -0.0005914   0.0041307  -0.0000058   0.0000018  -0.9180071   0.3413056
1.6033456    -1.0005074  -0.0032684  -0.0005858   0.0041899  -0.0000038   0.0000005  -0.9178175   0.3419714
1.6230559    -1.0005830  -0.0031712  -0.0010749   0.0050179   0.0000040  -0.0000088  -0.9174998   0.3426997
1.6430085    -1.0005741  -0.0032651  -0.0003623   0.0039980  -0.0000092  -0.0000087  -0.9171685   0.3433497
1.6632064    -1.0005140  -0.0032417  -0.0005719   0.0043215  -0.0000108  -0.0000073  -0.9168588   0.3440620
1.6836526    -1.0005858  -0.0033127  -0.0005648   0.0043473   0.0000037  -0.0000099  -0.9166106   0.3447857
1.7043502    -1.0005504  -0.0033992  -0.0006270   0.0044053   0.0000002  -0.0000113  -0.9161800   0.3455200
1.7253021    -1.0005492  -0.0034505  -0.0006105   0.0044441  -0.0000079  -0.0000040  -0.9159925   0.3461715
1.7465117    -1.0005284  -0.0034990  -0.0005553   0.0044939   0.0000025  -0.0000055  -0.9157903   0.3469968
1.7679820    -1.0005885  -0.0034958  -0.0005783   0.0045514  -0.0000045   0.0000031  -0.9154066   0.3477171
1.7897162    -1.0005766  -0.0035602  -0.0004750   0.0046737  -0.0000016  -0.0000074  -0.9151174   0.3484560
1.8117176    -1.0005072  -0.0035374  -0.0005634   0.0046529  -0.0000088  -0.0000035  -0.9147761   0.3493066
1.8339895    -1.0005760  -0.0037097  -0.0005319   0.0046913  -0.0000118  -0.0000034  -0.9144893   0.3500739
1.8565352    -1.0006117  -0.0036585  -0.0005334   0.0047834  -0.0000061  -0.0000007  -0.9141587   0.3508992
1.8793580    -1.0004923  -0.0036744  -0.0002431   0.0047945   0.0000050  -0.0000067  -0.9138773   0.3516445
1.9024614    -1.0005720  -0.0037146  -0.0005858   0.0049192   0.0000034   0.0000019  -0.9136433   0.3524820
1.9258488    -1.0005259  -0.0037643  -0.0005411   0.0049529  -0.0000040  -0.0000066  -0.9132013   0.3533232
1.9495237    -1.0005550  -0.0038713  -0.0005760   0.0050253  -0.0000036  -0.0000086  -0.9128573   0.3542622
1.9734897    -1.0006244  -0.0038698  -0.0005419   0.0050784  -0.0000027  -0.0000027  -0.9124967   0.3551210
1.9977503    -1.0005909  -0.0039317  -0.0005508   0.0051422  -0.0000022  -0.0000100  -0.9121862   0.3560367
2.0223091    -1.0005750  -0.0040058  -0.0004939   0.0051717   0.0000036  -0.0000066  -0.9117146   0.3569520
2.0471698    -1.0005149  -0.0040509  -0.0005139   0.0052721   0.0000021  -0.0000058  -0.9112576   0.3578717
2.0723362    -1.0005622  -0.0040935  -0.0005363   0.0053579  -0.0000052  -0.0000109  -0.9108508   0.3587810
2.0978119    -1.0005465  -0.0041542  -0.0005285   0.0054196  -0.0000046  -0.0000081  -0.9103719   0.3597379
2.1236008    -1.0005473  -0.0042331  -0.0005820   0.0054796  -0.0000093  -0.0000004  -0.9098752   0.3606545
2.1497067    -1.0006217  -0.0042033  -0.0005334   0.0055444  -0.0000046  -0.0000022  -0.9093895   0.3616367
2.1761336    -1.0005778  -0.0043460  -0.0005159   0.0056100  -0.0000068  -0.0000094  -0.9089004   0.3624516
2.2028853    -1.0005712  -0.0043974  -0.0005135   0.0056837  -0.0000069  -0.0000036  -0.9082573   0.3634525
2.2299659    -1.0005852  -0.0043301  -0.0005422   0.0057724  -0.0000041  -0.0000103  -0.9079217   0.3643863
2.2573794    -1.0005994  -0.0044496  -0.0005541   0.0058412  -0.0000005   0.0000045  -0.9073349   0.3653268
2.2851299    -1.0006339  -0.0045098  -0.0005223   0.0058751  -0.0000203  -0.0000078  -0.9067572   0.3662666
2.3132216    -1.0006579  -0.0045421  -0.0004888   0.0059638  -0.0000061  -0.0000051  -0.9062437   0.3671181
2.3416586    -1.0006291  -0.0046528  -0.0005349   0.0060549   0.0000013  -0.0000147  -0.9056892   0.3680784
2.3704451    -1.0006561  -0.0046700  -0.0005333   0.0061124  -0.0000051  -0.0000091  -0.9051684   0.3691096
2.3995856    -1.0006544  -0.0047067  -0.0004354   0.0064322  -0.0000066  -0.0000082  -0.9045189   0.3700807
2.4290843    -1.0006399  -0.0047794  -0.0005374   0.0063110  -0.0000003  -0.0000136  -0.9041214   0.3709168
2.4589456    -1.0005560  -0.0048369  -0.0005150   0.0063499  -0.0000015  -0.0000055  -0.9035454   0.3719175
2.4891740    -1.0006878  -0.0048721  -0.0005206   0.0064481   0.0000065   0.0000046  -0.9030067   0.3729132
2.5197740    -1.0006025  -0.0050157  -0.0005309   0.0064314  -0.0000101  -0.0000049  -0.9025121   0.3739415
2.5507502    -1.0006246  -0.0050003  -0.0005113   0.0065708  -0.0000041   0.0000006  -0.9019500   0.3748543
2.5821072    -1.0006091  -0.0050756  -0.0005069   0.0066587   0.0000005  -0.0000009  -0.9013914   0.3758758
2.6138496    -1.0006700  -0.0051779  -0.0004942   0.0067132  -0.0000073  -0.0000027  -0.9007222   0.3768633
2.6459823    -1.0005783  -0.0052099  -0.0004881   0.0067931  -0.0000029   0.0000048  -0.9001987   0.3779199
2.6785100    -1.0006480  -0.0052439  -0.0005035   0.0068767  -0.0000082  -0.0000121  -0.8996597   0.3790409
2.7114376    -1.0006217  -0.0053527  -0.0005045   0.0070215  -0.0000063  -0.0000062  -0.8990225   0.3800620
2.7447699    -1.0006280  -0.0054330  -0.0004664   0.0070808   0.0000017  -0.0000063  -0.8984440   0.3810689
2.7785120    -1.0007061  -0.0054457  -0.0005108   0.0071462  -0.0000026  -0.0000068  -0.8978285   0.3821643
2.8126689    -1.0006501  -0.0054484  -0.0005013   0.0072531  -0.0000122   0.0000035  -0.8973122   0.3833147
2.8472457    -1.0006112  -0.0055285  -0.0002019   0.0075201  -0.0000035  -0.0000070  -0.8967607   0.3844286
2.8822476    -1.0006375  -0.0056975  -0.0003623   0.0073228   0.0000060   0.0000022  -0.8961782   0.3855124
2.9176798    -1.0006953  -0.0056826  -0.0006799   0.0075581  -0.0000007  -0.0000141  -0.8955195   0.3866086
2.9535475    -1.0005674  -0.0057721  -0.0005080   0.0076007  -0.0000058  -0.0000054  -0.8949483   0.3878070
2.9898562    -1.0006395  -0.0058377  -0.0003217   0.0075853  -0.0000028  -0.0000049  -0.8942470   0.3890268
3.0266112    -1.0006319  -0.0059225  -0.0005073   0.0078576  -0.0000014  -0.0000102  -0.8936296   0.3901293
3.0638180    -1.0005641  -0.0059587  -0.0005027   0.0079107  -0.0000027  -0.0000106  -0.8929854   0.3913348
3.1014823    -1.0006413  -0.0061105  -0.0004913   0.0080980   0.0000122   0.0000001  -0.8923790   0.3926033
3.1396096    -1.0006094  -0.0061367  -0.0004907   0.0080735   0.0000007  -0.0000151  -0.8916534   0.3937399
3.1782055    -1.0006738  -0.0062312  -0.0004911   0.0081852  -0.0000052  -0.0000060  -0.8910269   0.3950064
3.2172760    -1.0006163  -0.0062382  -0.0004866   0.0082953  -0.0000021  -0.0000025  -0.8903442   0.3962763
3.2568267    -1.0006261  -0.0063737  -0.0004586   0.0083602   0.0000000   0.0000010  -0.8897056   0.3975141
3.2968637    -1.0006766  -0.0063714  -0.0004852   0.0084721   0.0000079  -0.0000071  -0.8889123   0.3988380
3.3373928    -1.0005600  -0.0064857  -0.0004676   0.0085840  -0.0000055  -0.0000043  -0.8882090   0.4000991
3.3784202    -1.0007263  -0.0065845  -0.0005156   0.0087057   0.0000017  -0.0000115  -0.8874257   0.4014749
3.4199519    -1.0007189  -0.0066984  -0.0004505   0.0088153  -0.0000018  -0.0000072  -0.8867184   0.4027799
3.4619942    -1.0006921  -0.0067714  -0.0004729   0.0088863   0.0000094  -0.0000015  -0.8859021   0.4040620
3.5045533    -1.0007330  -0.0067781  -0.0004569   0.0090196  -0.0000130  -0.0000043  -0.8851955   0.4055343
3.5476356    -1.0006837  -0.0068754  -0.0004967   0.0091325  -0.0000032  -0.0000072  -0.8844131   0.4068135
3.5912475    -1.0005958  -0.0069819  -0.0003801   0.0091265   0.0000050  -0.0000068  -0.8835820   0.4081858
3.6353956    -1.0006958  -0.0070629  -0.0002724   0.0092853  -0.0000033   0.0000033  -0.8828196   0.4096963
3.6800864    -1.0006407  -0.0071365  -0.0004866   0.0094789  -0.0000019  -0.0000012  -0.8820544   0.4111741
3.7253266    -1.0007064  -0.0072601  -0.0004401   0.0095955  -0.0000012   0.0000029  -0.8812237   0.4125975
3.7711229    -1.0006833  -0.0073383  -0.0004471   0.0097145   0.0000036  -0.0000073  -0.8804596   0.4140384
3.8174822    -1.0006961  -0.0074098  -0.0004432   0.0098381   0.0000054  -0.0000037  -0.8795996   0.4154965
3.8644115    -1.0007750  -0.0074329  -0.0004360   0.0099397  -0.0000027  -0.0000005  -0.8788628   0.4170898
3.9119176    -1.0007638  -0.0075998  -0.0004119   0.0100955   0.0000050  -0.0000047  -0.8780034   0.4186069
3.9600077    -1.0006576  -0.0076478  -0.0004387   0.0101851  -0.0000003  -0.0000106  -0.8772529   0.4201030
4.0086890    -1.0006275  -0.0077280  -0.0004262   0.0103098  -0.0000001  -0.0000011  -0.8762245   0.4216955
4.0579688    -1.0006502  -0.0078265  -0.0004366   0.0104486   0.0000105  -0.0000087  -0.8753939   0.4232443
4.1078544    -1.0007300  -0.0079759  -0.0004276   0.0105761   0.0000009  -0.0000062  -0.8745147   0.4247613
4.1583532    -1.0007406  -0.0080097  -0.0004529   0.0106890  -0.0000076  -0.0000134  -0.8735491   0.4263804
4.2094729    -1.0007324  -0.0081430  -0.0004092   0.0108151  -0.0000130  -0.0000085  -0.8727399   0.4279787
4.2612209    -1.0006501  -0.0082366  -0.0004245   0.0109491   0.0000049  -0.0000003  -0.8717528   0.4295703
4.3136051    -1.0007808  -0.0083218  -0.0004018   0.0110968   0.0000094  -0.0000038  -0.8707551   0.4312195
4.3666333    -1.0006661  -0.0084203  -0.0004482   0.0112226  -0.0000042  -0.0000094  -0.8698497   0.4329018
4.4203134    -1.0007080  -0.0085912  -0.0003950   0.0113538  -0.0000094  -0.0000055  -0.8687537   0.4345216
4.4746534    -1.0007179  -0.0086317  -0.0003872   0.0115032  -0.0000100  -0.0000040  -0.8676684   0.4362446
4.5296613    -1.0007256  -0.0087243  -0.0003796   0.0116292  -0.0000140  -0.0000062  -0.8666960   0.4379928
4.5853455    -1.0007116  -0.0088514  -0.0003980   0.0117842   0.0000126  -0.0000056  -0.8655878   0.4397037
4.6417143    -1.0006437  -0.0088828  -0.0003726   0.0119040   0.0000038  -0.0000010  -0.8644354   0.4412928
4.6987760    -1.0006900  -0.0089856  -0.0003487   0.0120904  -0.0000146  -0.0000077  -0.8633619   0.4429503
4.7565392    -1.0007829  -0.0092253  -0.0003703   0.0122047  -0.0000048  -0.0000118  -0.8622112   0.4446939
4.8150125    -1.0008779  -0.0092976  -0.0003629   0.0123721   0.0000012  -0.0000054  -0.8610678   0.4463435
4.8742045    -1.0006675  -0.0093642  -0.0003275   0.0125114   0.0000013  -0.0000100  -0.8598778   0.4479819
4.9341243    -1.0007512  -0.0094857  -0.0003245   0.0126516  -0.0000079  -0.0000109  -0.8588102   0.4494953
4.9947807    -1.0007761  -0.0096332  -0.0003165   0.0128166  -0.0000006  -0.0000013  -0.8578174   0.4510817
5.0561827    -1.0007685  -0.0098115  -0.0003205   0.0129995  -0.0000007  -0.0000055  -0.8568059   0.4527803
5.1183396    -1.0007840  -0.0097675  -0.0003332   0.0131320   0.0000014  -0.0000067  -0.8558557   0.4544847
5.1812606    -1.0007189  -0.0099361  -0.0002958   0.0132843   0.0000041   0.0000007  -0.8549632   0.4562606
5.2449550    -1.0007321  -0.0100996  -0.0003030   0.0134796  -0.0000038  -0.0000165  -0.8540537   0.4582926
5.3094325    -1.0007045  -0.0101784  -0.0003617   0.0136911  -0.0000002  -0.0000129  -0.8530595   0.4601084
5.3747026    -1.0007065  -0.0103433  -0.0002707   0.0137738  -0.0000032  -0.0000010  -0.8520304   0.4623129
5.4407751    -1.0007322  -0.0104793  -0.0002835   0.0139693   0.0000050  -0.0000045  -0.8508710   0.4642557
5.5076599    -1.0006589  -0.0105721  -0.0002842   0.0141311  -0.0000117  -0.0000096  -0.8497691   0.4663224
5.5753669    -1.0006869  -0.0107391  -0.0003024   0.0142969   0.0000046  -0.0000046  -0.8485973   0.4684798
5.6439062    -1.0006689  -0.0108451  -0.0002641   0.0144860   0.0000020  -0.0000020  -0.8474325   0.4705647
5.7132881    -1.0007528  -0.0109605  -0.0002542   0.0146478  -0.0000053  -0.0000021  -0.8461542   0.4727491
5.7835229    -1.0007255  -0.0111098  -0.0002480   0.0148222   0.0000120  -0.0000015  -0.8448744   0.4749231
5.8546211    -1.0006907  -0.0113586  -0.0002804   0.0150150   0.0000019  -0.0000059  -0.8436650   0.4771559
5.9265934    -1.0007190  -0.0113858  -0.0002519   0.0151932   0.0000031  -0.0000032  -0.8422969   0.4793258
5.9994504    -1.0007826  -0.0115085  -0.0002312   0.0153714  -0.0000047  -0.0000054  -0.8409209   0.4814409
6.0732031    -1.0007367  -0.0116440  -0.0001935   0.0155434  -0.0000113  -0.0000100  -0.8395623   0.4836481
6.1478624    -1.0006964  -0.0117219  -0.0002211   0.0157481   0.0000063  -0.0000045  -0.8381859   0.4858738
6.2234396    -1.0007234  -0.0119595  -0.0001990   0.0159231  -0.0000013  -0.0000036  -0.8366054   0.4881844
6.2999458    -1.0008483  -0.0120153  -0.0001824   0.0161382  -0.0000015  -0.0000074  -0.8352632   0.4904485
6.3773925    -1.0006879  -0.0123270  -0.0002112   0.0163439  -0.0000065  -0.0000109  -0.8337530   0.4927246
6.4557914    -1.0007951  -0.0123494  -0.0001738   0.0165380   0.0000019  -0.0000044  -0.8322471   0.4949631
6.5351539    -1.0008064  -0.0124955  -0.0001433   0.0167360  -0.0000016   0.0000001  -0.8307492   0.4973691
6.6154922    -1.0007730  -0.0126383  -0.0001785   0.0169232   0.0000017  -0.0000067  -0.8291662   0.4997310
6.6968180    -1.0006961  -0.0128730  -0.0002456   0.0172490  -0.0000013  -0.0000054  -0.8275994   0.5021189
6.7791436    -1.0007495  -0.0129752  -0.0001012   0.0173046  -0.0000036  -0.0000061  -0.8260330   0.5044637
6.8624812    -1.0006767  -0.0131184  -0.0001161   0.0175589  -0.0000017  -0.0000108  -0.8244187   0.5069328
6.9468433    -1.0007485  -0.0133573  -0.0001241   0.0177498  -0.0000075   0.0000006  -0.8228260   0.5093485
7.0322425    -1.0007164  -0.0134383  -0.0001070   0.0179843  -0.0000001  -0.0000017  -0.8211146   0.5118158
7.1186916    -1.0007511  -0.0136506  -0.0000732   0.0182213   0.0000055  -0.0000068  -0.8194095   0.5143454
7.2062034    -1.0007366  -0.0138419  -0.0001011   0.0184336  -0.0000054  -0.0000028  -0.8176992   0.5169044
7.2947909    -1.0007946  -0.0139521  -0.0000512   0.0186736  -0.0000060  -0.0000003  -0.8159561   0.5194736
7.3844675    -1.0008254  -0.0140997  -0.0000496   0.0188709  -0.0000109  -0.0000018  -0.8142863   0.5220747
7.4752466    -1.0007569  -0.0142652  -0.0000067   0.0190893   0.0000062  -0.0000064  -0.8124937   0.5246904
7.5671416    -1.0008287  -0.0144289  -0.0000264   0.0193451  -0.0000101   0.0000033  -0.8107805   0.5273408
7.6601662    -1.0007769  -0.0146502  -0.0000121   0.0195859  -0.0000032  -0.0000058  -0.8089321   0.5300260
7.7543345    -1.0006866  -0.0148637   0.0001098   0.0197285  -0.0000011  -0.0000027  -0.8070409   0.5328550
7.8496604    -1.0007566  -0.0149980  -0.0000027   0.0200070  -0.0000081  -0.0000079  -0.8052010   0.5356596
7.9461581    -1.0007879  -0.0150989   0.0000537   0.0202485  -0.0000041  -0.0000001  -0.8031845   0.5385086
8.0438422    -1.0008397  -0.0153797   0.0000641   0.0205037  -0.0000019   0.0000034  -0.8012046   0.5413537
8.1427270    -1.0007740  -0.0156187   0.0000666   0.0207694   0.0000042   0.0000010  -0.7990345   0.5443276
8.2428275    -1.0008648  -0.0157478   0.0000572   0.0209909   0.0000016   0.0000028  -0.7968067   0.5471867
8.3441586    -1.0007426  -0.0159470   0.0001274   0.0212484  -0.0000017   0.0000017  -0.7946318   0.5499687
8.4467353    -1.0008442  -0.0161840   0.0001309   0.0215102   0.0000085  -0.0000037  -0.7923743   0.5529673
8.5505731    -1.0008298  -0.0163130   0.0001542   0.0217528   0.0000036  -0.0000037  -0.7900742   0.5557386
8.6556873    -1.0008520  -0.0165244   0.0001508   0.0220396   0.0000022  -0.0000069  -0.7877981   0.5586649
8.7620937    -1.0008198  -0.0167747   0.0001769   0.0223102  -0.0000146  -0.0000022  -0.7855033   0.5615264
8.8698082    -1.0007886  -0.0169077   0.0001872   0.0225912   0.0000006  -0.0000076  -0.7831491   0.5644380
8.9788469    -1.0007993  -0.0171261   0.0001751   0.0228421   0.0000057  -0.0000060  -0.7808526   0.5673655
9.0892260    -1.0008166  -0.0173160   0.0002016   0.0231200  -0.0000017  -0.0000065  -0.7784899   0.5703176
9.2009621    -1.0007486  -0.0175441   0.0002419   0.0233900  -0.0000012  -0.0000011  -0.7759998   0.5733714
9.3140717    -1.0008251  -0.0177355   0.0002634   0.0236455   0.0000038   0.0000058  -0.7735743   0.5763568
9.4285718    -1.0008797  -0.0179989   0.0002596   0.0239530  -0.0000053  -0.0000121  -0.7711036   0.5794398
9.5444795    -1.0008256  -0.0181817   0.0003023   0.0242254  -0.0000082   0.0000062  -0.7685506   0.5825374
9.6618121    -1.0007806  -0.0184463   0.0003249   0.0245193   0.0000018  -0.0000043  -0.7660223   0.5856292
9.7805870    -1.0008061  -0.0186554   0.0001811   0.0247067   0.0000009   0.0000032  -0.7634060   0.5888029
9.9008221    -1.0008083  -0.0188353   0.0003493   0.0251251   0.0000039  -0.0000012  -0.7607542   0.5920226
10.0225353   -1.0007813  -0.0190355   0.0003531   0.0254157  -0.0000049  -0.0000083  -0.7581033   0.5951324
10.1457447   -1.0008347  -0.0192637   0.0003610   0.0257069  -0.0000039  -0.0000058  -0.7553612   0.5984296
10.2704688   -1.0007978  -0.0195424   0.0004054   0.0260620  -0.0000041  -0.0000085  -0.7526769   0.6017045
10.3967261   -1.0008648  -0.0197543   0.0003980   0.0263404  -0.0000061  -0.0000066  -0.7498397   0.6050384
10.5245356   -1.0008259  -0.0199752   0.0004331   0.0266611  -0.0000079  -0.0000076  -0.7469667   0.6082174
10.6539162   -1.0007997  -0.0202067   0.0004368   0.0269814   0.0000029   0.0000029  -0.7440703   0.6115378
10.7848873   -1.0008581  -0.0204695   0.0004772   0.0273410   0.0000005  -0.0000063  -0.7411368   0.6149778
10.9174685   -1.0007458  -0.0207473   0.0004724   0.0276280  -0.0000070  -0.0000035  -0.7381281   0.6183689
11.0516796   -1.0007897  -0.0209643   0.0004554   0.0279505  -0.0000045   0.0000037  -0.7349763   0.6217995
11.1875405   -1.0007840  -0.0212411   0.0005231   0.0283054   0.0000009  -0.0000076  -0.7319551   0.6253218
11.3250716   -1.0007844  -0.0215508   0.0005736   0.0286446  -0.0000013  -0.0000002  -0.7288001   0.6287838
11.4642934   -1.0007719  -0.0217888   0.0005920   0.0289951  -0.0000070  -0.0000020  -0.7255736   0.6322627
11.6052267   -1.0007696  -0.0220189   0.0005763   0.0293257  -0.0000104  -0.0000051  -0.7223402   0.6358978
11.7478926   -1.0008365  -0.0222332   0.0006465   0.0296838  -0.0000036   0.0000009  -0.7190147   0.6394037
11.8923122   -1.0008360  -0.0225503   0.0007070   0.0300197   0.0000007   0.0000002  -0.7156511   0.6429700
12.0385073   -1.0007444  -0.0227917   0.0007164   0.0303944  -0.0000075  -0.0000003  -0.7121713   0.6466395
12.1864995   -1.0008246  -0.0230366   0.0007223   0.0307812  -0.0000044  -0.0000095  -0.7086981   0.6502674
12.3363111   -1.0007469  -0.0233758   0.0007488   0.0311285  -0.0000098  -0.0000015  -0.7052440   0.6539590
12.4879643   -1.0008468  -0.0237054   0.0007713   0.0315021  -0.0000047  -0.0000026  -0.7015574   0.6576797
12.6414818   -1.0008407  -0.0239359   0.0008483   0.0318444   0.0000050  -0.0000068  -0.6978449   0.6613944
12.7968866   -1.0007270  -0.0242010   0.0008325   0.0322815   0.0000019  -0.0000131  -0.6941116   0.6651428
12.9542018   -1.0007487  -0.0244927   0.0008543   0.0326336   0.0000027   0.0000004  -0.6903715   0.6689079
13.1134509   -1.0008217  -0.0248031   0.0008818   0.0330014  -0.0000100  -0.0000035  -0.6864955   0.6727020
13.2746577   -1.0007612  -0.0251022   0.0009084   0.0334179  -0.0000033  -0.0000037  -0.6825288   0.6765492
13.4378462   -1.0008060  -0.0253470   0.0009234   0.0338447   0.0000116  -0.0000093  -0.6785797   0.6805044
13.6030409   -1.0007991  -0.0256466   0.0009238   0.0342487   0.0000024  -0.0000091  -0.6744924   0.6843455
13.7702663   -1.0007400  -0.0259572   0.0010043   0.0346494  -0.0000078   0.0000053  -0.6703140   0.6882447
13.9395475   -1.0007999  -0.0263453   0.0010431   0.0350651  -0.0000009  -0.0000010  -0.6661352   0.6921232
14.1109097   -1.0007753  -0.0266771   0.0010646   0.0354687  -0.0000038  -0.0000051  -0.6618006   0.6961022
14.2843785   -1.0008052  -0.0269405   0.0010919   0.0358947   0.0000052   0.0000030  -0.6574447   0.7000021
14.4599797   -1.0008152  -0.0273127   0.0011187   0.0363576   0.0000036  -0.0000067  -0.6530176   0.7040575
14.6377397   -1.0007481  -0.0276512   0.0011677   0.0367854  -0.0000093  -0.0000076  -0.6485291   0.7080584
14.8176850   -1.0007609  -0.0280103   0.0012105   0.0372382  -0.0000131   0.0000027  -0.6439510   0.7120446
14.9998423   -1.0007453  -0.0283715   0.0011906   0.0376242  -0.0000022  -0.0000131  -0.6392536   0.7161155
15.1842390   -1.0008328  -0.0286710   0.0012616   0.0380951  -0.0000130   0.0000049  -0.6344815   0.7202062
15.3709024   -1.0006816  -0.0290070   0.0012957   0.0385637  -0.0000048   0.0000017  -0.6297241   0.7242485
15.5598606   -1.0007119  -0.0293517   0.0013320   0.0389833  -0.0000054  -0.0000108  -0.6248621   0.7283607
15.7511417   -1.0007527  -0.0297404   0.0013674   0.0394909   0.0000019  -0.0000063  -0.6198680   0.7325479
15.9447743   -1.0007160  -0.0299932   0.0013816   0.0399368   0.0000020  -0.0000005  -0.6148227   0.7366409
16.1407872   -1.0006923  -0.0304874   0.0014190   0.0404032  -0.0000153  -0.0000110  -0.6095775   0.7408179
16.3392097   -1.0007178  -0.0308360   0.0015140   0.0408728  -0.0000056   0.0000011  -0.6043237   0.7450111
16.5400716   -1.0007428  -0.0311596   0.0015333   0.0413762  -0.0000077   0.0000002  -0.5990279   0.7492048
16.7434026   -1.0007525  -0.0315480   0.0015618   0.0418687  -0.0000112  -0.0000024  -0.5935454   0.7533613
16.9492333   -1.0006668  -0.0318980   0.0015695   0.0423467   0.0000049   0.0000022  -0.5880423   0.7577115
17.1575942   -1.0007125  -0.0323333   0.0016544   0.0428952  -0.0000039   0.0000064  -0.5824226   0.7618352
17.3685166   -1.0007342  -0.0327230   0.0016934   0.0434041  -0.0000002   0.0000013  -0.5767305   0.7661086
17.5820320   -1.0005899  -0.0331572   0.0017375   0.0439024  -0.0000036  -0.0000010  -0.5708657   0.7702965
17.7981721   -1.0006727  -0.0334854   0.0017923   0.0444034  -0.0000008  -0.0000063  -0.5649477   0.7746078
18.0169693   -1.0007052  -0.0339076   0.0017291   0.0449657  -0.0000148   0.0000015  -0.5589829   0.7788677
18.2384562   -1.0007424  -0.0343242   0.0018580   0.0455172  -0.0000088  -0.0000066  -0.5528978   0.7832294
18.4626659   -1.0006686  -0.0347301   0.0017807   0.0460102   0.0000017  -0.0000043  -0.5466180   0.7874117
18.6896319   -1.0006076  -0.0351366   0.0019531   0.0466517  -0.0000066   0.0000047  -0.5403799   0.7916946
18.9193880   -1.0006139  -0.0354993   0.0019961   0.0471701  -0.0000040  -0.0000020  -0.5338648   0.7960754
19.1519686   -1.0006011  -0.0359823   0.0020590   0.0477129   0.0000009  -0.0000067  -0.5272533   0.8003731
19.3874083   -1.0006781  -0.0364536   0.0021227   0.0482577  -0.0000090  -0.0000072  -0.5205907   0.8046701
19.6257423   -1.0006185  -0.0368372   0.0021697   0.0488315  -0.0000034  -0.0000054  -0.5139282   0.8090026
19.8670063   -1.0006188  -0.0372819   0.0022270   0.0494653  -0.0000003  -0.0000053  -0.5070653   0.8132444
20.1112361   -1.0005808  -0.0377402   0.0022847   0.0500120   0.0000014   0.0000039  -0.5000667   0.8175503
20.3584684   -1.0005809  -0.0382084   0.0023017   0.0506308  -0.0000109  -0.0000031  -0.4928451   0.8218131
20.6087399   -1.0005672  -0.0387220   0.0023871   0.0512383   0.0000064  -0.0000074  -0.4856078   0.8260492
20.8620881   -1.0005929  -0.0391189   0.0024263   0.0518448  -0.0000070   0.0000015  -0.4781752   0.8303917
21.1185507   -1.0005946  -0.0396003   0.0024937   0.0524247  -0.0000055   0.0000029  -0.4706816   0.8346281
21.3781661   -1.0005839  -0.0400662   0.0025576   0.0531226  -0.0000035  -0.0000010  -0.4630449   0.8387695
21.6409730   -1.0006063  -0.0406333   0.0026235   0.0537403  -0.0000039  -0.0000078  -0.4552968   0.8429882
21.9070107   -1.0005229  -0.0410323   0.0026151   0.0543639  -0.0000070   0.0000040  -0.4474480   0.8472129
22.1763188   -1.0005334  -0.0415483   0.0030039   0.0548248  -0.0000040   0.0000040  -0.4393970   0.8514093
22.4489376   -1.0004867  -0.0420689   0.0028204   0.0556688  -0.0000043  -0.0000038  -0.4312338   0.8556008
22.7249077   -1.0004922  -0.0425600   0.0028545   0.0563391  -0.0000006  -0.0000028  -0.4229033   0.8597198
23.0042705   -1.0005331  -0.0431065   0.0028671   0.0569779  -0.0000025   0.0000032  -0.4144679   0.8638397
23.2870675   -1.0004779  -0.0436125   0.0029925   0.0576849  -0.0000063   0.0000051  -0.4059703   0.8679089
23.5733409   -1.0004461  -0.0441621   0.0030578   0.0584081  -0.0000101  -0.0000119  -0.3971808   0.8719871
23.8631337   -1.0004250  -0.0446808   0.0031064   0.0590489  -0.0000095   0.0000009  -0.3882574   0.8759217
24.1564889   -1.0004316  -0.0451792   0.0032303   0.0597914  -0.0000145   0.0000020  -0.3793041   0.8799030
24.4534504   -1.0004065  -0.0457982   0.0032802   0.0605089  -0.0000039  -0.0000033  -0.3701540   0.8837846
24.7540625   -1.0004105  -0.0463042   0.0033533   0.0612344  -0.0000011  -0.0000056  -0.3608652   0.8877116
25.0583701   -1.0003776  -0.0468598   0.0033929   0.0619206   0.0000015  -0.0000007  -0.3513553   0.8915770
25.3664186   -1.0002590  -0.0473922   0.0034800   0.0627057  -0.0000058  -0.0000061  -0.3416299   0.8953736
25.6782541   -1.0003311  -0.0480265   0.0035796   0.0634307   0.0000039  -0.0000031  -0.3318719   0.8991532
25.9939230   -1.0003136  -0.0485732   0.0035089   0.0640923  -0.0000041  -0.0000050  -0.3219447   0.9027781
26.3134725   -1.0002587  -0.0491852   0.0037500   0.0649688   0.0000036  -0.0000035  -0.3118192   0.9063520
26.6369503   -1.0002170  -0.0497040   0.0038287   0.0657314  -0.0000030  -0.0000139  -0.3015927   0.9099376
26.9644047   -1.0002246  -0.0503904   0.0039348   0.0664604   0.0000019   0.0000037  -0.2911556   0.9134289
27.2958846   -1.0002156  -0.0509613   0.0040013   0.0672937  -0.0000076   0.0000021  -0.2805167   0.9167797
27.6314394   -1.0001988  -0.0515602   0.0042008   0.0679851  -0.0000017  -0.0000051  -0.2698048   0.9201340
27.9711193   -1.0001760  -0.0522064   0.0037887   0.0687614   0.0000071  -0.0000031  -0.2588429   0.9232956
28.3149750   -1.0001664  -0.0527813   0.0044494   0.0696790   0.0000039  -0.0000051  -0.2477763   0.9264440
28.6630578   -1.0001497  -0.0534238   0.0042695   0.0704304  -0.0000087  -0.0000003  -0.2365017   0.9294491
29.0154196   -1.0000364  -0.0540644   0.0046327   0.0713359  -0.0000064  -0.0000030  -0.2250419   0.9323611
29.3721131   -1.0000786  -0.0547867   0.0045767   0.0721801   0.0000014  -0.0000039  -0.2134533   0.9351741
29.7331915   -1.0000547  -0.0554277   0.0046868   0.0731418  -0.0000054  -0.0000036  -0.2016027   0.9379710
30.0987087   -1.0000823  -0.0561200   0.0047907   0.0740144  -0.0000033   0.0000123  -0.1897006   0.9405994
30.4687194   -0.9999678  -0.0568129   0.0049249   0.0748770  -0.0000021  -0.0000058  -0.1775500   0.9431766
30.8432786   -0.9999538  -0.0574716   0.0050343   0.0757752  -0.0000102   0.0000030  -0.1652043   0.9454509
31.2224424   -0.9999032  -0.0581363   0.0050887   0.0768053   0.0000061   0.0000027  -0.1527992   0.9476807
31.6062674   -0.9998904  -0.0587794   0.0051774   0.0773546  -0.0000091  -0.0000072  -0.1400337   0.9498177
31.9948108   -0.9997771  -0.0595669   0.0053672   0.0782529   0.0000000   0.0000043  -0.1271896   0.9518871
32.3881306   -0.9998383  -0.0602700   0.0054882   0.0794519  -0.0000007  -0.0000042  -0.1141830   0.9537462
32.7862857   -0.9997988  -0.0609626   0.0056080   0.0804525  -0.0000070  -0.0000062  -0.1009629   0.9553778
33.1893353   -0.9996713  -0.0616842   0.0057165   0.0813326  -0.0000018  -0.0000006  -0.0875903   0.9570247
33.5973398   -0.9997124  -0.0625301   0.0058660   0.0823229   0.0000037  -0.0000116  -0.0740442   0.9583378
34.0103599   -0.9996471  -0.0631678   0.0059132   0.0833254  -0.0000011   0.0000036  -0.0602129   0.9594876
34.4284574   -0.9995693  -0.0641166   0.0061721   0.0841768  -0.0000075  -0.0000028  -0.0465159   0.9606917
34.8516946   -0.9995659  -0.0647993   0.0062129   0.0851400  -0.0000053   0.0000028  -0.0322434   0.9616950
35.2801349   -0.9995537  -0.0655359   0.0062980   0.0863186  -0.0000032  -0.0000036  -0.0177784   0.9624635
35.7138420   -0.9994987  -0.0663551   0.0064343   0.0873734  -0.0000069  -0.0000060  -0.0032039   0.9628964
36.1528808   -0.9994077  -0.0671415   0.0065296   0.0883971  -0.0000086  -0.0000063   0.0115347   0.9632563
36.5973168   -0.9994286  -0.0680102   0.0066801   0.0896373   0.0000000  -0.0000055   0.0264333   0.9633738
37.0472164   -0.9993900  -0.0688584   0.0068266   0.0907409  -0.0000010  -0.0000025   0.0415912   0.9631242
37.5026467   -0.9993085  -0.0696738   0.0070986   0.0919019   0.0000005  -0.0000051   0.0569194   0.9628974
37.9636757   -0.9992074  -0.0704312   0.0073337   0.0929687  -0.0000025  -0.0000048   0.0726387   0.9619464
38.4303722   -0.9991675  -0.0713566   0.0075726   0.0941644   0.0000012  -0.0000023   0.0881824   0.9611452
38.9028060   -0.9991359  -0.0722140   0.0078029   0.0951977   0.0000032   0.0000041   0.1040381   0.9599848
39.3810475   -0.9990238  -0.0730397   0.0079923   0.0962020  -0.0000019   0.0000034   0.1201362   0.9586652
39.8651681   -0.9990648  -0.0739635   0.0079301   0.0972343  -0.0000008   0.0000047   0.1362896   0.9569852
40.3552402   -0.9989922  -0.0749263   0.0083739   0.0985630   0.0000052   0.0000025   0.1527017   0.9550329
40.8513368   -0.9989010  -0.0757556   0.0085770   0.0996796  -0.0000009  -0.0000083   0.1693457   0.9526915
41.3535320   -0.9988391  -0.0766820   0.0088162   0.1008141  -0.0000069  -0.0000035   0.1860114   0.9501695
41.8619009   -0.9988145  -0.0775685   0.0090037   0.1019965  -0.0000012   0.0000013   0.2030277   0.9472720
42.3765193   -0.9986458  -0.0785862   0.0092424   0.1032515   0.0000010  -0.0000008   0.2201222   0.9440599
42.8974639   -0.9986157  -0.0794536   0.0093921   0.1043166  -0.0000026   0.0000052   0.2373514   0.9404513
43.4248127   -0.9985987  -0.0803813   0.0096210   0.1056111   0.0000010  -0.0000060   0.2547651   0.9366341
43.9586443   -0.9984598  -0.0814300   0.0099281   0.1067843   0.0000045  -0.0000092   0.2723270   0.9323410
44.4990385   -0.9985013  -0.0823389   0.0100965   0.1081537  -0.0000060   0.0000010   0.2900678   0.9276746
45.0460758   -0.9983909  -0.0834223   0.0103082   0.1093420   0.0000030   0.0000042   0.3079234   0.9226692
45.5998380   -0.9982503  -0.0843915   0.0107397   0.1102998  -0.0000014  -0.0000026   0.3258964   0.9172927
46.1604077   -0.9982390  -0.0854119   0.0106996   0.1117502  -0.0000057  -0.0000096   0.3439905   0.9114112
46.7278686   -0.9981735  -0.0865037   0.0111260   0.1124997  -0.0000078  -0.0000061   0.3622095   0.9051561
47.3023055   -0.9981126  -0.0875354   0.0109360   0.1142333  -0.0000035   0.0000063   0.3805383   0.8984954
47.8838040   -0.9980234  -0.0885495   0.0110399   0.1156109   0.0000035  -0.0000116   0.3990787   0.8913030
48.4724511   -0.9978617  -0.0896407   0.0115777   0.1173421  -0.0000043   0.0000037   0.4175483   0.8837820
49.0683345   -0.9978441  -0.0907301   0.0118372   0.1186457  -0.0000065   0.0000016   0.4362200   0.8757527
49.6715433   -0.9977074  -0.0918658   0.0122469   0.1199149  -0.0000056  -0.0000091   0.4548566   0.8672616
50.2821675   -0.9975559  -0.0928949   0.0123729   0.1215263  -0.0000049  -0.0000026   0.4737366   0.8581977
50.9002982   -0.9974318  -0.0940348   0.0125808   0.1226828  -0.0000001  -0.0000023   0.4925113   0.8486204
51.5260277   -0.9974163  -0.0951809   0.0130988   0.1244276   0.0000016  -0.0000145   0.5114078   0.8386844
52.1594495   -0.9973406  -0.0964191   0.0131301   0.1259886   0.0000007  -0.0000111   0.5302185   0.8281260
52.8006581   -0.9972002  -0.0975072   0.0134091   0.1274880   0.0000019  -0.0000070   0.5491565   0.8169084
53.4497492   -0.9970726  -0.0986949   0.0136797   0.1291057   0.0000038  -0.0000035   0.5682259   0.8053365
54.1068198   -0.9969599  -0.0998093   0.0141233   0.1306599   0.0000014  -0.0000070   0.5870810   0.7931806
54.7719678   -0.9968362  -0.1010965   0.0144395   0.1320411  -0.0000080  -0.0000108   0.6059003   0.7804755
55.4452927   -0.9966267  -0.1023000   0.0147611   0.1335955  -0.0000031   0.0000036   0.6248029   0.7668483
56.1268950   -0.9966021  -0.1035246   0.0152122   0.1352531  -0.0000012  -0.0000006   0.6436129   0.7528409
56.8168763   -0.9964728  -0.1047843   0.0152806   0.1370408  -0.0000113  -0.0000002   0.6623330   0.7382715
57.5153398   -0.9963498  -0.1060915   0.0157164   0.1387175  -0.0000006  -0.0000099   0.6809259   0.7230836
58.2223896   -0.9961677  -0.1073392   0.0162392   0.1404844   0.0000062  -0.0000063   0.6993919   0.7071741
58.9381314   -0.9960720  -0.1086442   0.0167793   0.1420747   0.0000077  -0.0000018   0.7177304   0.6906869
59.6626719   -0.9959744  -0.1099440   0.0171869   0.1436229   0.0000018  -0.0000044   0.7358872   0.6734457
60.3961194   -0.9958072  -0.1112636   0.0175297   0.1452439  -0.0000076  -0.0000076   0.7539451   0.6555725
61.1385834   -0.9956374  -0.1126188   0.0179192   0.1467052   0.0000077  -0.0000151   0.7717916   0.6369847
61.8901746   -0.9954877  -0.1139754   0.0181725   0.1486522  -0.0000007  -0.0000055   0.7892939   0.6177425
62.6510053   -0.9953648  -0.1153632   0.0188727   0.1503106  -0.0000042  -0.0000129   0.8065969   0.5978861
63.4211891   -0.9952268  -0.1167501   0.0190243   0.1516252  -0.0000005   0.0000010   0.8236544   0.5771804
64.2008409   -0.9950566  -0.1181518   0.0192591   0.1536864  -0.0000013  -0.0000071   0.8403290   0.5559154
64.9900772   -0.9948182  -0.1195737   0.0198871   0.1557738   0.0000060  -0.0000039   0.8567017   0.5338548
65.7890158   -0.9946904  -0.1210139   0.0202403   0.1576778   0.0000066  -0.0000067   0.8726612   0.5111127
66.5977759   -0.9944434  -0.1224398   0.0209173   0.1594297  -0.0000110   0.0000004   0.8881822   0.4875516
67.4164783   -0.9943345  -0.1238654   0.0214291   0.1617265   0.0000024  -0.0000098   0.9034119   0.4632958
68.2452452   -0.9941073  -0.1254533   0.0219437   0.1636553  -0.0000016  -0.0000030   0.9180764   0.4384124
69.0842003   -0.9938966  -0.1269544   0.0225380   0.1654651  -0.0000021  -0.0000152   0.9322427   0.4127304
69.9334689   -0.9937435  -0.1282813   0.0231909   0.1675818  -0.0000106  -0.0000085   0.9455765   0.3863505
70.7931778   -0.9934406  -0.1302188   0.0241261   0.1686059   0.0000082  -0.0000021   0.9591080   0.3591561
71.6634552   -0.9933087  -0.1317580   0.0242082   0.1704462  -0.0000035  -0.0000070   0.9716677   0.3310241
72.5444312   -0.9931669  -0.1333135   0.0243721   0.1724060   0.0000123   0.0000005   0.9836817   0.3023485
73.4362373   -0.9930164  -0.1349411   0.0243963   0.1748181  -0.0000012  -0.0000107   0.9948434   0.2729349
74.3390065   -0.9926794  -0.1363233   0.0252821   0.1771645   0.0000080  -0.0000129   1.0046945   0.2431284
75.2528737   -0.9924437  -0.1379811   0.0259296   0.1789552  -0.0000040  -0.0000102   1.0143737   0.2123149
76.1779753   -0.9921798  -0.1396080   0.0263417   0.1812144  -0.0000051  -0.0000124   1.0232854   0.1808396
77.1144493   -0.9919336  -0.1413691   0.0268512   0.1833360  -0.0000026  -0.0000045   1.0313023   0.1486103
78.0624357   -0.9916992  -0.1431760   0.0275277   0.1854572  -0.0000029  -0.0000080   1.0384154   0.1157628
79.0220759   -0.9914011  -0.1448371   0.0278152   0.1875689   0.0000002  -0.0000036   1.0445212   0.0821697
79.9935132   -0.9912296  -0.1465410   0.0288706   0.1904669   0.0000041  -0.0000131   1.0496229   0.0480313
80.9768926   -0.9909251  -0.1483897   0.0297235   0.1927771  -0.0000064  -0.0000116   1.0537186   0.0132410
81.9723609   -0.9907241  -0.1500800   0.0304368   0.1948495   0.0000053  -0.0000071   1.0567157  -0.0222640
82.9800667   -0.9903483  -0.1518993   0.0309600   0.1971491  -0.0000016  -0.0000180   1.0586042  -0.0582525
84.0001605   -0.9900517  -0.1537511   0.0313624   0.1996653   0.0000053  -0.0000160   1.0593000  -0.0947391
85.0327946   -0.9898296  -0.1556065   0.0318223   0.2020201   0.0000022  -0.0000081   1.0586965  -0.1319093
86.0781231   -0.9894226  -0.1574159   0.0326813   0.2050343   0.0000029  -0.0000101   1.0568105  -0.1694968
87.1363020   -0.9890534  -0.1593703   0.0336757   0.2080893   0.0000048  -0.0000041   1.0536046  -0.2074041
88.2074894   -0.9888170  -0.1612770   0.0348298   0.2107131  -0.0000051  -0.0000155   1.0489040  -0.2458368
89.2918452   -0.9884937  -0.1632488   0.0363684   0.2132218  -0.0000005  -0.0000021   1.0430306  -0.2849234
90.3895312   -0.9882158  -0.1652250   0.0376718   0.2158255  -0.0000024  -0.0000180   1.0355088  -0.3237174
91.5007114   -0.9878740  -0.1671434   0.0388668   0.2181566  -0.0000084  -0.0000163   1.0264270  -0.3630294
92.6255515   -0.9874664  -0.1690487   0.0399479   0.2197887  -0.0000034  -0.0000041   1.0155656  -0.4024850
93.7642195   -0.9871846  -0.1711324   0.0406072   0.2221803  -0.0000052  -0.0000188   1.0031624  -0.4420937
94.9168855   -0.9867129  -0.1733088   0.0414101   0.2246311  -0.0000125  -0.0000104   0.9892346  -0.4818269
96.0837215   -0.9863788  -0.1752252   0.0420368   0.2269680  -0.0000039  -0.0000178   0.9734644  -0.5215695
97.2649017   -0.9859763  -0.1773347   0.0422717   0.2294175  -0.0000004  -0.0000104   0.9559370  -0.5609835
98.4606024   -0.9854548  -0.1793891   0.0422373   0.2324370  -0.0000038  -0.0000064   0.9365502  -0.6005025
99.6710021   -0.9850254  -0.1815842   0.0420099   0.2367854  -0.0000145  -0.0000062   0.9153443  -0.6396754
100.8962816  -0.9846676  -0.1837798   0.0437701   0.2417071  -0.0000102  -0.0000124   0.8922365  -0.6784421
102.1366237  -0.9842507  -0.1859433   0.0466348   0.2455722   0.0000052  -0.0000179   0.8671283  -0.7166929
103.3922136  -0.9838795  -0.1882299   0.0496569   0.2483375  -0.0000096  -0.0000112   0.8401955  -0.7544722
104.6632389  -0.9835339  -0.1903861   0.0519486   0.2508635  -0.0000105  -0.0000055   0.8113415  -0.7912682
105.9498891  -0.9831243  -0.1921640   0.0567323   0.2526289  -0.0000069  -0.0000089   0.7803574  -0.8250929
107.2523564  -0.9819940  -0.1957197   0.0531337   0.2552585  -0.0000016  -0.0000085   0.7458400  -0.8653272
108.5708353  -0.9816614  -0.1979384   0.0548531   0.2576472  -0.0000106  -0.0000041   0.7121824  -0.8993932
109.9055225  -0.9827970  -0.1990632   0.0589977   0.2645032   0.0000076  -0.0000064   0.6774515  -0.9319120
111.2566174  -0.9811066  -0.2020151   0.0599623   0.2631861  -0.0000017  -0.0000120   0.6366632  -0.9623526
112.6243216  -0.9805097  -0.2044546   0.0612308   0.2661223   0.0000017  -0.0000150   0.5956314  -0.9930429
114.0088393  -0.9799696  -0.2069204   0.0623308   0.2687589  -0.0000127  -0.0000032   0.5528684  -1.0220177
115.4103773  -0.9794297  -0.2094163   0.0636429   0.2713419  -0.0000076  -0.0000214   0.5080600  -1.0493846
116.8291446  -0.9788386  -0.2118767   0.0651085   0.2745159   0.0000125  -0.0000049   0.4616156  -1.0748125
118.2653533  -0.9782774  -0.2144136   0.0663920   0.2774215  -0.0000004  -0.0000118   0.4131618  -1.0983546
119.7192175  -0.9776519  -0.2169647   0.0679160   0.2807277  -0.0000147  -0.0000006   0.3630310  -1.1198741
121.1909545  -0.9770494  -0.2194939   0.0692218   0.2837388  -0.0000096  -0.0000137   0.3112472  -1.1389094
122.6807839  -0.9764731  -0.2221262   0.0709026   0.2871950  -0.0000186  -0.0000183   0.2578829  -1.1556283
124.1889281  -0.9757908  -0.2246247   0.0724828   0.2905799   0.0000025  -0.0000021   0.2030196  -1.1697805
125.7156123  -0.9751103  -0.2274208   0.0738325   0.2938045  -0.0000108  -0.0000053   0.1468018  -1.1813263
127.2610644  -0.9745741  -0.2300871   0.0756574   0.2974813  -0.0000061  -0.0000096   0.0899457  -1.1898236
128.8255151  -0.9737125  -0.2327315   0.0771672   0.3014006  -0.0000125  -0.0000101   0.0310541  -1.1954536
130.4091980  -0.9730604  -0.2354890   0.0791746   0.3051974  -0.0000132  -0.0000125  -0.0282397  -1.1979713
132.0123495  -0.9723652  -0.2382642   0.0807383   0.3090582  -0.0000062  -0.0000027  -0.0885005  -1.1971293
133.6352088  -0.9716321  -0.2411583   0.0832663   0.3134483  -0.0000239  -0.0000059  -0.1491135  -1.1931309
135.2780184  -0.9709229  -0.2439273   0.0851822   0.3172397  -0.0000031  -0.0000057  -0.2103454  -1.1854267
136.9410235  -0.9702086  -0.2468543   0.0879809   0.3212382  -0.0000093  -0.0000137  -0.2717939  -1.1740384
138.6244722  -0.9693184  -0.2498338   0.0904552   0.3254306  -0.0000096  -0.0000023  -0.3330388  -1.1591738
140.3286160  -0.9685751  -0.2526035   0.0936478   0.3297723  -0.0000127  -0.0000127  -0.3943408  -1.1406394
142.0537093  -0.9677863  -0.2551867   0.0992733   0.3317979  -0.0000183  -0.0000196  -0.4577303  -1.1193078
143.8000095  -0.9666732  -0.2587141   0.0978102   0.3372269  -0.0000058   0.0000000  -0.5114804  -1.0920313
145.5677774  -0.9653030  -0.2621882   0.1011708   0.3417386   0.0000058  -0.0000122  -0.5686752  -1.0596310
147.3572769  -0.9652073  -0.2647136   0.1054729   0.3447175  -0.0000021  -0.0000169  -0.6296031  -1.0274029
149.1687752  -0.9642419  -0.2679223   0.1079299   0.3483413   0.0000015  -0.0000091  -0.6842854  -0.9897038
151.0025426  -0.9632661  -0.2709656   0.1107701   0.3523186  -0.0000053  -0.0000193  -0.7376444  -0.9478988
152.8588530  -0.9624540  -0.2741354   0.1137149   0.3564772  -0.0000013  -0.0000092  -0.7884430  -0.9023780
154.7379834  -0.9614646  -0.2773632   0.1162749   0.3601988  -0.0000086  -0.0000110  -0.8368112  -0.8532143
156.6402144  -0.9603944  -0.2806089   0.1192306   0.3643395  -0.0000084  -0.0000061  -0.8822036  -0.8005717
158.5658301  -0.9593641  -0.2838609   0.1223126   0.3690010  -0.0000037   0.0000147  -0.9241073  -0.7445390
160.5151177  -0.9583518  -0.2872567   0.1252681   0.3737612   0.0000014  -0.0000065  -0.9630209  -0.6849737
162.4883685  -0.9571260  -0.2901902   0.1289771   0.3773975   0.0000013  -0.0000028  -0.9967976  -0.6237559
164.4858769  -0.9561472  -0.2939981   0.1328082   0.3827325   0.0000046  -0.0000033  -1.0278789  -0.5582318
166.5079411  -0.9550018  -0.2973732   0.1366109   0.3869405  -0.0000070  -0.0000102  -1.0539276  -0.4910024
168.5548630  -0.9539503  -0.3007617   0.1401975   0.3911126  -0.0000107   0.0000016  -1.0755896  -0.4214285
170.6269483  -0.9526006  -0.3044055   0.1436684   0.3952281  -0.0000006  -0.0000172  -1.0920161  -0.3500769
172.7245062  -0.9514840  -0.3077163   0.1473713   0.3998862   0.0000046  -0.0000030  -1.1035268  -0.2774294
174.8478498  -0.9503015  -0.3113869   0.1513530   0.4046893   0.0000061  -0.0000036  -1.1094082  -0.2032648
176.9972963  -0.9491427  -0.3150660   0.1551699   0.4086830   0.0000235  -0.0000062  -1.1102204  -0.1277967
179.1731664  -0.9473044  -0.3179254   0.1572617   0.4146406  -0.0000187  -0.0000088  -1.1019377  -0.0580540
181.3757850  -0.9460596  -0.3226427   0.1635531   0.4243382  -0.0000020  -0.0000058  -1.0923748   0.0172629
183.6054809  -0.9450114  -0.3260624   0.1682317   0.4251635  -0.0000115  -0.0000014  -1.0773858   0.0954521
185.8625870  -0.9436682  -0.3297116   0.1733038   0.4303685  -0.0000271  -0.0000083  -1.0548059   0.1676861
188.1474402  -0.9422505  -0.3334948   0.1788362   0.4350070  -0.0000045  -0.0000041  -1.0266452   0.2388777
190.4603817  -0.9406930  -0.3371652   0.1832595   0.4391110  -0.0000241  -0.0000166  -0.9928692   0.3077410
192.8017567  -0.9392145  -0.3411512   0.1873447   0.4449905   0.0000113  -0.0000080  -0.9528826   0.3737659
195.1719148  -0.9376121  -0.3453266   0.1929893   0.4508329  -0.0000411   0.0000164  -0.9079903   0.4365081
197.5712099  -0.9361087  -0.3490539   0.2005544   0.4557670   0.0000064  -0.0000064  -0.8584258   0.4960860
200.0000000  -0.9343596  -0.3532246   0.2066441   0.4608629  -0.0000129  -0.0000066  -0.8026131   0.5505821
