! ListType=Log
# MHZ S RI R 50
0.0010000    -0.9980322  -0.0004107   0.0002957   0.0001730  -0.0000115  -0.0000299  -0.9088780   0.2599563
0.0010123    -0.9983488  -0.0004844   0.0002913   0.0002641   0.0000121  -0.0000287  -0.9094622   0.2603417
0.0010247    -0.9988503  -0.0009221   0.0000849  -0.0000236  -0.0000157   0.0000266  -0.9095897   0.2591301
0.0010373    -0.9985510  -0.0011349   0.0003607   0.0002319  -0.0000085  -0.0000056  -0.9097936   0.2598523
0.0010501    -0.9984983  -0.0009276   0.0002249   0.0002450  -0.0000136  -0.0000118  -0.9091506   0.2596915
0.0010630    -0.9988703  -0.0011301   0.0000682   0.0003234   0.0000229   0.0000125  -0.9105505   0.2595735
0.0010761    -0.9987885  -0.0004426   0.0003681   0.0004233  -0.0000149   0.0000095  -0.9107037   0.2587981
0.0010893    -0.9985115  -0.0008004   0.0005799   0.0001707   0.0000198  -0.0000037  -0.9110865   0.2599258
0.0011027    -0.9983973  -0.0008213   0.0001017   0.0004141   0.0000030  -0.0000187  -0.9110775   0.2587990
0.0011162    -0.9987056  -0.0005469   0.0004062   0.0003031  -0.0000056   0.0000030  -0.9120701   0.2584382
0.0011300    -0.9983989  -0.0007982   0.0001007   0.0002613  -0.0000259  -0.0000173  -0.9112969   0.2587179
0.0011439    -0.9983063  -0.0005492  -0.0000715   0.0002671   0.0000190  -0.0000020  -0.9120502   0.2590832
0.0011579    -0.9987213  -0.0007749   0.0005231   0.0004173  -0.0000080   0.0000011  -0.9120575   0.2578675
0.0011721    -0.9985537  -0.0007303   0.0001531   0.0004586   0.0000114  -0.0000118  -0.9124015   0.2585311
0.0011866    -0.9985097  -0.0009233   0.0003514   0.0004068  -0.0000454  -0.0000152  -0.9122040   0.2582435
0.0012011    -0.9986084  -0.0007207   0.0004346   0.0004515  -0.0000151   0.0000003  -0.9128818   0.2582597
0.0012159    -0.9985157  -0.0007607   0.0004232   0.0004675   0.0000208   0.0000031  -0.9136437   0.2584854
0.0012309    -0.9985719  -0.0007947   0.0004197   0.0004253   0.0000094   0.0000109  -0.9137401   0.2577885
0.0012460    -0.9986520  -0.0010705   0.0001175   0.0004004  -0.0000062  -0.0000060  -0.9134154   0.2581256
0.0012613    -0.9985616  -0.0005075   0.0002048   0.0001357   0.0000269  -0.0000021  -0.9147353   0.2579363
0.0012768    -0.9984749  -0.0007754   0.0001885   0.0006813  -0.0000207   0.0000053  -0.9141770   0.2576231
0.0012925    -0.9987604  -0.0006857   0.0001958   0.0003304   0.0000140   0.0000076  -0.9151106   0.2580592
0.0013084    -0.9985222  -0.0005943   0.0002955   0.0003973  -0.0000049   0.0000097  -0.9149123   0.2575421
0.0013245    -0.9986746  -0.0008090   0.0002584   0.0006163   0.0000181  -0.0000016  -0.9155488   0.2580240
0.0013408    -0.9985194  -0.0010637   0.0003651   0.0001970   0.0000024  -0.0000096  -0.9153819   0.2572752
0.0013572    -0.9984401  -0.0007958   0.0002880   0.0002510   0.0000187   0.0000077  -0.9163567   0.2576933
0.0013739    -0.9986852  -0.0007985   0.0003569   0.0003386   0.0000133   0.0000164  -0.9162218   0.2575399
0.0013908    -0.9987259  -0.0007483   0.0003632   0.0002976   0.0000136   0.0000045  -0.9169530   0.2576089
0.0014079    -0.9985419  -0.0006850   0.0003043   0.0004323  -0.0000214  -0.0000005  -0.9167295   0.2573538
0.0014252    -0.9984919  -0.0005859   0.0004447   0.0004875   0.0000186   0.0000247  -0.9176592   0.2572531
0.0014427    -0.9981725  -0.0008401   0.0003679  -0.0000336  -0.0000097  -0.0000156  -0.9173659   0.2571991
0.0014605    -0.9987455  -0.0008026   0.0003881   0.0004695   0.0000009  -0.0000180  -0.9180822   0.2573986
0.0014784    -0.9988069  -0.0005900   0.0002552   0.0002155  -0.0000049   0.0000082  -0.9178605   0.2569127
0.0014966    -0.9987223  -0.0007574   0.0005768   0.0002349   0.0000002  -0.0000287  -0.9186111   0.2574162
0.0015150    -0.9987839  -0.0007014   0.0005368   0.0003653   0.0000270   0.0000241  -0.9189818   0.2573396
0.0015336    -0.9990203  -0.0008094   0.0004057   0.0003089  -0.0000074  -0.0000028  -0.9190102   0.2570696
0.0015525    -0.9986578  -0.0008970   0.0005712   0.0002699  -0.0000076  -0.0000167  -0.9190290   0.2573496
0.0015716    -0.9984734  -0.0006799   0.0005011   0.0003165   0.0000126  -0.0000211  -0.9196280   0.2571869
0.0015909    -0.9985041  -0.0008566   0.0003598   0.0005012   0.0000100  -0.0000345  -0.9199847   0.2575694
0.0016104    -0.9988215  -0.0010248   0.0004796   0.0003989  -0.0000243   0.0000094  -0.9203199   0.2569523
0.0016302    -0.9991006  -0.0006346   0.0005376   0.0002845   0.0000135  -0.0000063  -0.9203642   0.2573044
0.0016503    -0.9985700  -0.0005480   0.0002746   0.0004552   0.0000088  -0.0000100  -0.9213751   0.2574882
0.0016706    -0.9988575  -0.0007304   0.0004105   0.0003708   0.0000033  -0.0000045  -0.9211996   0.2574022
0.0016911    -0.9989075  -0.0006860   0.0005055   0.0004582  -0.0000210  -0.0000159  -0.9218180   0.2570958
0.0017119    -0.9986263  -0.0010210   0.0003698   0.0003166  -0.0000161  -0.0000298  -0.9218589   0.2574357
0.0017329    -0.9986409  -0.0009893   0.0005582   0.0003779  -0.0000031   0.0000134  -0.9220861   0.2573962
0.0017542    -0.9987568  -0.0009140   0.0004399   0.0004295   0.0000071   0.0000175  -0.9225671   0.2571541
0.0017758    -0.9988035  -0.0009727   0.0006125   0.0003543  -0.0000018  -0.0000029  -0.9227763   0.2574617
0.0017976    -0.9989937  -0.0006801   0.0004627   0.0003142   0.0000059  -0.0000063  -0.9233452   0.2574793
0.0018197    -0.9987135  -0.0008870   0.0005069   0.0002513  -0.0000150  -0.0000040  -0.9231438   0.2573279
0.0018421    -0.9989149  -0.0007917   0.0005546   0.0003347   0.0000151  -0.0000070  -0.9238326   0.2577191
0.0018648    -0.9985846  -0.0008175   0.0004122   0.0004793  -0.0000028   0.0000040  -0.9239003   0.2574820
0.0018877    -0.9988669  -0.0008925   0.0004062   0.0002793  -0.0000105  -0.0000158  -0.9239804   0.2577066
0.0019109    -0.9986335  -0.0008248   0.0004170   0.0003408  -0.0000036   0.0000066  -0.9248491   0.2579357
0.0019344    -0.9989465  -0.0009344   0.0004610   0.0001835  -0.0000050  -0.0000064  -0.9247153   0.2577397
0.0019582    -0.9988527  -0.0011060   0.0005370   0.0004388   0.0000018  -0.0000051  -0.9248236   0.2579512
0.0019822    -0.9989920  -0.0007695   0.0005346   0.0002900   0.0000061   0.0000007  -0.9256894   0.2580907
0.0020066    -0.9989199  -0.0009182   0.0005380   0.0003604   0.0000030   0.0000010  -0.9257598   0.2582423
0.0020313    -0.9988499  -0.0010281   0.0004790   0.0002729   0.0000072   0.0000076  -0.9261621   0.2581689
0.0020562    -0.9990205  -0.0008346   0.0004591   0.0003196  -0.0000161  -0.0000018  -0.9265384   0.2580705
0.0020815    -0.9986800  -0.0009553   0.0005070   0.0003391   0.0000003  -0.0000015  -0.9265952   0.2584793
0.0021071    -0.9989964  -0.0007520   0.0004478   0.0003546  -0.0000104  -0.0000033  -0.9270215   0.2585237
0.0021330    -0.9989352  -0.0007200   0.0005106   0.0002528  -0.0000010  -0.0000229  -0.9272019   0.2587586
0.0021592    -0.9988535  -0.0007424   0.0003430   0.0003985  -0.0000025  -0.0000190  -0.9277383   0.2588852
0.0021858    -0.9988007  -0.0007929   0.0006093   0.0002805  -0.0000026  -0.0000044  -0.9279115   0.2586740
0.0022126    -0.9989049  -0.0009217   0.0005716   0.0003684  -0.0000054  -0.0000144  -0.9280733   0.2590422
0.0022398    -0.9989642  -0.0009678   0.0005169   0.0003455  -0.0000122   0.0000062  -0.9283379   0.2590142
0.0022674    -0.9988822  -0.0008646   0.0004641   0.0002699   0.0000047  -0.0000181  -0.9287816   0.2593020
0.0022953    -0.9988495  -0.0007802   0.0004829   0.0003363   0.0000060  -0.0000025  -0.9290308   0.2594769
0.0023235    -0.9989717  -0.0008115   0.0005351   0.0002691  -0.0000061  -0.0000002  -0.9294341   0.2594680
0.0023520    -0.9990529  -0.0008916   0.0005466   0.0003500  -0.0000078  -0.0000054  -0.9292532   0.2594361
0.0023809    -0.9989429  -0.0008624   0.0005498   0.0003532  -0.0000079   0.0000077  -0.9299422   0.2596373
0.0024102    -0.9990570  -0.0010417   0.0005905   0.0003107   0.0000131   0.0000064  -0.9298942   0.2598229
0.0024398    -0.9990757  -0.0009664   0.0006261   0.0002471   0.0000033   0.0000032  -0.9303333   0.2599209
0.0024698    -0.9991641  -0.0009809   0.0004503   0.0002396   0.0000079  -0.0000170  -0.9305707   0.2602177
0.0025002    -0.9992611  -0.0009066   0.0006167   0.0002811  -0.0000013  -0.0000042  -0.9307198   0.2603729
0.0025309    -0.9991180  -0.0008312   0.0005569   0.0003072  -0.0000087  -0.0000112  -0.9309336   0.2606611
0.0025621    -0.9989238  -0.0008185   0.0005550   0.0002561   0.0000070  -0.0000087  -0.9313972   0.2606534
0.0025935    -0.9992651  -0.0007480   0.0005694   0.0003261  -0.0000057  -0.0000035  -0.9316742   0.2605261
0.0026254    -0.9991771  -0.0010107   0.0005486   0.0003322  -0.0000042  -0.0000026  -0.9317934   0.2605545
0.0026577    -0.9991719  -0.0008624   0.0005682   0.0002958  -0.0000107  -0.0000105  -0.9319015   0.2609742
0.0026904    -0.9992249  -0.0008939   0.0005719   0.0002970  -0.0000128  -0.0000062  -0.9320964   0.2613407
0.0027235    -0.9991767  -0.0008776   0.0005943   0.0002892  -0.0000013  -0.0000137  -0.9327563   0.2611832
0.0027569    -0.9991297  -0.0008691   0.0005386   0.0002427  -0.0000088  -0.0000033  -0.9327095   0.2612955
0.0027908    -0.9992377  -0.0008894   0.0005454   0.0003083   0.0000059  -0.0000083  -0.9327881   0.2617246
0.0028251    -0.9990858  -0.0007839   0.0006657   0.0001566   0.0000069   0.0000018  -0.9332618   0.2618815
0.0028599    -0.9991637  -0.0008627   0.0005516   0.0003065  -0.0000022   0.0000010  -0.9334185   0.2618729
0.0028950    -0.9991681  -0.0010923   0.0004982   0.0002554   0.0000031   0.0000025  -0.9336124   0.2618484
0.0029306    -0.9993695  -0.0009653   0.0006603   0.0002628  -0.0000042  -0.0000190  -0.9337557   0.2620064
0.0029666    -0.9993939  -0.0007225   0.0006385   0.0002621   0.0000131  -0.0000065  -0.9339990   0.2622600
0.0030031    -0.9992721  -0.0009538   0.0005557   0.0003198  -0.0000049   0.0000133  -0.9341076   0.2625548
0.0030400    -0.9992377  -0.0009827   0.0006278   0.0002737  -0.0000027  -0.0000165  -0.9343379   0.2628196
0.0030774    -0.9991437  -0.0008953   0.0006130   0.0003095  -0.0000097  -0.0000045  -0.9345217   0.2629743
0.0031152    -0.9993047  -0.0009268   0.0005694   0.0002526   0.0000102   0.0000018  -0.9348862   0.2629809
0.0031535    -0.9992772  -0.0009532   0.0006192   0.0002151  -0.0000035  -0.0000120  -0.9349260   0.2633534
0.0031923    -0.9992092  -0.0008313   0.0005738   0.0002556   0.0000126  -0.0000124  -0.9353236   0.2634966
0.0032315    -0.9992323  -0.0007906   0.0006054   0.0002438  -0.0000004  -0.0000064  -0.9355121   0.2636469
0.0032713    -0.9992382  -0.0008224   0.0005623   0.0002519   0.0000023  -0.0000089  -0.9356770   0.2636865
0.0033115    -0.9992943  -0.0008238   0.0005917   0.0002388   0.0000084  -0.0000006  -0.9357024   0.2639999
0.0033522    -0.9993481  -0.0006587   0.0006012   0.0002248  -0.0000109  -0.0000057  -0.9360229   0.2644064
0.0033934    -0.9993246  -0.0006991   0.0006298   0.0002942   0.0000014   0.0000021  -0.9362628   0.2642656
0.0034351    -0.9992492  -0.0009401   0.0005907   0.0002535  -0.0000013   0.0000084  -0.9364516   0.2645556
0.0034773    -0.9992631  -0.0008475   0.0005710   0.0002802   0.0000084  -0.0000086  -0.9364323   0.2647053
0.0035201    -0.9994358  -0.0007977   0.0005973   0.0001902   0.0000056  -0.0000029  -0.9367876   0.2648143
0.0035634    -0.9993498  -0.0009464   0.0006591   0.0002482   0.0000070  -0.0000048  -0.9368663   0.2649771
0.0036072    -0.9992514  -0.0007445   0.0006357   0.0002575  -0.0000008  -0.0000046  -0.9369396   0.2652301
0.0036515    -0.9992761  -0.0006565   0.0006250   0.0002329  -0.0000051   0.0000044  -0.9372120   0.2655556
0.0036964    -0.9993972  -0.0007794   0.0006061   0.0002366  -0.0000114   0.0000007  -0.9371598   0.2658447
0.0037418    -0.9994132  -0.0007473   0.0006202   0.0002654   0.0000014  -0.0000077  -0.9373776   0.2659021
0.0037878    -0.9994897  -0.0008643   0.0006577   0.0001889   0.0000009  -0.0000191  -0.9374859   0.2660117
0.0038344    -0.9993041  -0.0007906   0.0006293   0.0002237   0.0000059  -0.0000063  -0.9376847   0.2663411
0.0038815    -0.9993854  -0.0006498   0.0006481   0.0002131  -0.0000009   0.0000041  -0.9378065   0.2664228
0.0039293    -0.9994283  -0.0008249   0.0006477   0.0002054   0.0000049  -0.0000071  -0.9379777   0.2663981
0.0039776    -0.9993995  -0.0006934   0.0006094   0.0001993  -0.0000018  -0.0000120  -0.9381920   0.2668196
0.0040265    -0.9995637  -0.0006816   0.0006199   0.0001853   0.0000000   0.0000014  -0.9383100   0.2667670
0.0040759    -0.9993059  -0.0007358   0.0006522   0.0002233  -0.0000007   0.0000008  -0.9384242   0.2671272
0.0041261    -0.9995201  -0.0006200   0.0006670   0.0001967   0.0000015  -0.0000048  -0.9385339   0.2672093
0.0041768    -0.9993675  -0.0006126   0.0006444   0.0002024  -0.0000009   0.0000009  -0.9387328   0.2675105
0.0042281    -0.9994191  -0.0006424   0.0006281   0.0001815   0.0000064  -0.0000054  -0.9388509   0.2677209
0.0042801    -0.9994283  -0.0006883   0.0006380   0.0002221   0.0000041  -0.0000002  -0.9389324   0.2679158
0.0043327    -0.9994454  -0.0008146   0.0006578   0.0002315  -0.0000035  -0.0000042  -0.9390299   0.2683019
0.0043860    -0.9993448  -0.0007954   0.0006325   0.0002136  -0.0000025   0.0000091  -0.9392749   0.2683077
0.0044399    -0.9995149  -0.0005820   0.0006615   0.0001562   0.0000007  -0.0000043  -0.9393379   0.2684832
0.0044945    -0.9995967  -0.0006394   0.0006423   0.0002064  -0.0000065  -0.0000034  -0.9394909   0.2686169
0.0045497    -0.9994632  -0.0006944   0.0006334   0.0002051  -0.0000109  -0.0000034  -0.9394766   0.2688047
0.0046057    -0.9996051  -0.0004760   0.0006396   0.0001854  -0.0000053   0.0000049  -0.9395575   0.2689400
0.0046623    -0.9995114  -0.0006698   0.0006949   0.0001918   0.0000035  -0.0000071  -0.9395089   0.2692334
0.0047196    -0.9995835  -0.0005071   0.0006727   0.0001750  -0.0000083  -0.0000009  -0.9398293   0.2694102
0.0047776    -0.9994050  -0.0007891   0.0006197   0.0001933   0.0000065  -0.0000104  -0.9398891   0.2695281
0.0048363    -0.9996245  -0.0004663   0.0006664   0.0001890   0.0000003  -0.0000094  -0.9399332   0.2697804
0.0048958    -0.9995115  -0.0007139   0.0006599   0.0001697  -0.0000047  -0.0000137  -0.9400721   0.2700554
0.0049560    -0.9996760  -0.0005708   0.0006775   0.0001904  -0.0000099  -0.0000067  -0.9402632   0.2701632
0.0050169    -0.9996471  -0.0006346   0.0006285   0.0001596  -0.0000178   0.0000051  -0.9403351   0.2701639
0.0050786    -0.9996177  -0.0005318   0.0006449   0.0001635   0.0000062   0.0000011  -0.9403187   0.2703988
0.0051410    -0.9997578  -0.0005485   0.0007015   0.0001725  -0.0000039  -0.0000105  -0.9404152   0.2706001
0.0052042    -0.9994037  -0.0006962   0.0006851   0.0001781   0.0000035  -0.0000032  -0.9405021   0.2708001
0.0052682    -0.9994471  -0.0005831   0.0006610   0.0001459   0.0000060  -0.0000054  -0.9406327   0.2710467
0.0053330    -0.9995941  -0.0005457   0.0006823   0.0001478  -0.0000089  -0.0000088  -0.9406896   0.2711812
0.0053985    -0.9995138  -0.0006536   0.0006841   0.0001528  -0.0000131  -0.0000073  -0.9407775   0.2713440
0.0054649    -0.9996615  -0.0006347   0.0007013   0.0001378   0.0000164  -0.0000018  -0.9409076   0.2714998
0.0055321    -0.9997076  -0.0005490   0.0006957   0.0001287  -0.0000015  -0.0000112  -0.9409565   0.2716945
0.0056001    -0.9996590  -0.0006099   0.0007152   0.0001477   0.0000146   0.0000031  -0.9411138   0.2719386
0.0056689    -0.9996282  -0.0007153   0.0006557   0.0001644  -0.0000082  -0.0000200  -0.9411273   0.2720064
0.0057386    -0.9995347  -0.0004242   0.0006785   0.0001374   0.0000036  -0.0000155  -0.9411893   0.2721200
0.0058091    -0.9998852  -0.0006077   0.0006705   0.0001522   0.0000022   0.0000047  -0.9411386   0.2723728
0.0058806    -0.9996608  -0.0004402   0.0006693   0.0001898  -0.0000013  -0.0000061  -0.9411190   0.2724188
0.0059529    -0.9996492  -0.0005664   0.0006861   0.0001230  -0.0000054  -0.0000104  -0.9412062   0.2727041
0.0060260    -0.9995599  -0.0005373   0.0007046   0.0001215  -0.0000053  -0.0000183  -0.9412507   0.2727098
0.0061001    -0.9996760  -0.0005815   0.0006984   0.0001672  -0.0000142  -0.0000055  -0.9413455   0.2729546
0.0061751    -0.9996907  -0.0005306   0.0006895   0.0001742   0.0000003   0.0000049  -0.9413314   0.2731470
0.0062510    -0.9995662  -0.0005010   0.0006504   0.0001550  -0.0000030  -0.0000002  -0.9415101   0.2732916
0.0063279    -0.9996578  -0.0004813   0.0006848   0.0001711  -0.0000043  -0.0000012  -0.9416430   0.2734560
0.0064056    -0.9995052  -0.0005325   0.0007093   0.0001387   0.0000044  -0.0000061  -0.9416371   0.2736081
0.0064844    -0.9997571  -0.0003865   0.0006652   0.0001484   0.0000000  -0.0000076  -0.9416977   0.2736701
0.0065641    -0.9997743  -0.0003990   0.0006936   0.0001900  -0.0000063  -0.0000193  -0.9415242   0.2737903
0.0066448    -0.9996117  -0.0003627   0.0007056   0.0001259   0.0000005  -0.0000093  -0.9416728   0.2739591
0.0067265    -0.9996344  -0.0003837   0.0006911   0.0001197  -0.0000082   0.0000041  -0.9417777   0.2741424
0.0068092    -0.9997326  -0.0003887   0.0006753   0.0001143   0.0000036   0.0000010  -0.9418365   0.2743665
0.0068929    -0.9996716  -0.0004697   0.0006885   0.0001010   0.0000128  -0.0000086  -0.9418909   0.2744498
0.0069776    -0.9996294  -0.0004234   0.0006975   0.0001495   0.0000024  -0.0000116  -0.9420478   0.2746782
0.0070634    -0.9997944  -0.0005706   0.0007000   0.0001363   0.0000023  -0.0000052  -0.9419420   0.2748400
0.0071502    -0.9996912  -0.0004515   0.0007111   0.0001104   0.0000031  -0.0000154  -0.9419125   0.2748555
0.0072381    -0.9997724  -0.0004445   0.0007075   0.0001247  -0.0000033  -0.0000122  -0.9418756   0.2750367
0.0073271    -0.9996928  -0.0004547   0.0007288   0.0001693  -0.0000089  -0.0000030  -0.9420109   0.2752536
0.0074172    -0.9996690  -0.0003923   0.0006999   0.0001163   0.0000121  -0.0000083  -0.9421284   0.2753567
0.0075084    -0.9996341  -0.0004687   0.0007073   0.0000897   0.0000064  -0.0000108  -0.9421577   0.2755385
0.0076007    -0.9997696  -0.0004648   0.0006764   0.0000946   0.0000004  -0.0000116  -0.9421461   0.2756577
0.0076941    -0.9997660  -0.0003067   0.0007024   0.0000750  -0.0000021   0.0000084  -0.9421786   0.2759126
0.0077887    -0.9997461  -0.0004248   0.0007362   0.0001053   0.0000107  -0.0000020  -0.9421820   0.2759312
0.0078844    -0.9997053  -0.0003570   0.0007092   0.0001043  -0.0000035  -0.0000018  -0.9422685   0.2760016
0.0079814    -0.9996627  -0.0004598   0.0007003   0.0001096   0.0000006  -0.0000059  -0.9422404   0.2762762
0.0080795    -0.9997534  -0.0003123   0.0007324   0.0001132   0.0000058  -0.0000034  -0.9423989   0.2763341
0.0081788    -0.9997729  -0.0003474   0.0006956   0.0000613  -0.0000045   0.0000043  -0.9422137   0.2765218
0.0082793    -0.9996785  -0.0003487   0.0006918   0.0001192  -0.0000005  -0.0000093  -0.9423942   0.2765888
0.0083811    -0.9998145  -0.0004095   0.0006802   0.0000905  -0.0000037   0.0000070  -0.9423573   0.2767983
0.0084842    -0.9998139  -0.0003031   0.0006708   0.0000999  -0.0000016   0.0000005  -0.9423313   0.2768930
0.0085885    -0.9998003  -0.0003306   0.0007059   0.0000699   0.0000015  -0.0000070  -0.9424398   0.2769427
0.0086940    -0.9997669  -0.0003953   0.0006979   0.0001008   0.0000127  -0.0000141  -0.9423699   0.2771411
0.0088009    -0.9997495  -0.0003897   0.0007170   0.0001119   0.0000002   0.0000062  -0.9423860   0.2772914
0.0089091    -0.9997310  -0.0002692   0.0007146   0.0000822   0.0000024  -0.0000112  -0.9423989   0.2774866
0.0090186    -0.9997407  -0.0002441   0.0007311   0.0000864  -0.0000090  -0.0000046  -0.9424998   0.2774735
0.0091295    -0.9997760  -0.0002813   0.0007005   0.0000910   0.0000055  -0.0000005  -0.9425199   0.2777457
0.0092417    -0.9998282  -0.0004121   0.0007030   0.0000916   0.0000093  -0.0000054  -0.9424069   0.2777833
0.0093553    -0.9998577  -0.0003041   0.0007091   0.0000505   0.0000041  -0.0000095  -0.9424297   0.2779104
0.0094703    -0.9996549  -0.0002799   0.0006745   0.0000910   0.0000006   0.0000108  -0.9425230   0.2779699
0.0095868    -0.9997984  -0.0002653   0.0007215   0.0000832  -0.0000033  -0.0000074  -0.9424579   0.2781670
0.0097046    -0.9996513  -0.0001822   0.0006829   0.0000749  -0.0000017   0.0000127  -0.9425030   0.2781965
0.0098239    -0.9997271  -0.0003834   0.0007083   0.0000643  -0.0000008   0.0000001  -0.9425577   0.2783250
0.0099447    -0.9996921  -0.0002654   0.0007272   0.0000534  -0.0000004  -0.0000051  -0.9425478   0.2783615
0.0100669    -0.9997945  -0.0003727   0.0007180   0.0000576  -0.0000093  -0.0000186  -0.9425242   0.2785836
0.0101907    -0.9997479  -0.0003469   0.0006996   0.0001017  -0.0000033  -0.0000092  -0.9425358   0.2786114
0.0103160    -0.9996971  -0.0003162   0.0007143   0.0000625   0.0000116  -0.0000083  -0.9425019   0.2787091
0.0104428    -0.9998007  -0.0003626   0.0007059   0.0000758  -0.0000035   0.0000003  -0.9425838   0.2789201
0.0105712    -0.9998555  -0.0002369   0.0007293   0.0000850   0.0000088   0.0000015  -0.9425830   0.2789347
0.0107011    -0.9997558  -0.0002691   0.0006903   0.0000615   0.0000044  -0.0000051  -0.9426090   0.2791118
0.0108327    -0.9998055  -0.0002401   0.0007412   0.0000746   0.0000012  -0.0000062  -0.9425325   0.2791449
0.0109658    -0.9997130  -0.0002976   0.0007061   0.0000812  -0.0000070  -0.0000045  -0.9426464   0.2792784
0.0111006    -0.9998183  -0.0002804   0.0007135   0.0000780  -0.0000041  -0.0000068  -0.9426136   0.2795289
0.0112371    -0.9997710  -0.0001500   0.0007172   0.0000653  -0.0000054   0.0000003  -0.9426557   0.2794251
0.0113752    -0.9996689  -0.0000543   0.0006746   0.0000945  -0.0000107   0.0000007  -0.9425597   0.2795968
0.0115151    -0.9996649  -0.0005057   0.0006965   0.0000531   0.0000003  -0.0000004  -0.9427017   0.2798539
0.0116566    -0.9998036   0.0000319   0.0007266   0.0000763  -0.0000025  -0.0000093  -0.9425976   0.2797545
0.0117999    -0.9998366  -0.0001906   0.0007144   0.0000237  -0.0000078  -0.0000039  -0.9426702   0.2800117
0.0119450    -0.9994078   0.0053192   0.0007143  -0.0000050  -0.0000012   0.0000006  -0.9434624   0.2782170
0.0120918    -0.9998455  -0.0004302   0.0006371   0.0000520   0.0000006  -0.0000104  -0.9426943   0.2801527
0.0122405    -0.9997193   0.0001357   0.0007357   0.0000877  -0.0000107   0.0000039  -0.9427471   0.2801706
0.0123910    -0.9998979  -0.0004723   0.0006903   0.0000661  -0.0000042  -0.0000100  -0.9426088   0.2804391
0.0125433    -0.9998067  -0.0000994   0.0006993   0.0000503  -0.0000016   0.0000043  -0.9427097   0.2803775
0.0126975    -0.9999802  -0.0002478   0.0006421   0.0000978  -0.0000036  -0.0000023  -0.9425424   0.2804387
0.0128536    -0.9997159  -0.0003447   0.0007576  -0.0000017   0.0000036  -0.0000033  -0.9426407   0.2806492
0.0130116    -0.9999251  -0.0000750   0.0007338   0.0000154   0.0000031   0.0000037  -0.9426215   0.2806846
0.0131716    -0.9998761  -0.0001663   0.0007462  -0.0000640  -0.0000045   0.0000010  -0.9426642   0.2806807
0.0133335    -0.9998620  -0.0003459   0.0006767   0.0000161  -0.0000017  -0.0000095  -0.9425145   0.2809397
0.0134974    -0.9998385  -0.0002218   0.0007172   0.0001430   0.0000014  -0.0000020  -0.9425677   0.2809175
0.0136633    -0.9998187  -0.0002417   0.0007366  -0.0000482   0.0000013  -0.0000062  -0.9426221   0.2811150
0.0138313    -0.9998310  -0.0002569   0.0006123   0.0000563  -0.0000014  -0.0000050  -0.9425397   0.2811490
0.0140013    -0.9997027  -0.0002883   0.0006974   0.0000985  -0.0000043  -0.0000027  -0.9426175   0.2812854
0.0141734    -0.9998347  -0.0002272   0.0009444  -0.0000893  -0.0000133  -0.0000052  -0.9426482   0.2814176
0.0143477    -0.9996981  -0.0002769   0.0009221  -0.0000230   0.0000019  -0.0000050  -0.9426134   0.2813920
0.0145240    -0.9997150  -0.0000502   0.0007444   0.0000909   0.0000018   0.0000028  -0.9426510   0.2814696
0.0147026    -0.9997435  -0.0001474   0.0006687   0.0001246   0.0000098  -0.0000082  -0.9425887   0.2815431
0.0148833    -0.9998861  -0.0001771   0.0007014  -0.0000333  -0.0000038  -0.0000085  -0.9425701   0.2817147
0.0150663    -0.9998432  -0.0001875   0.0008558   0.0000667   0.0000025  -0.0000094  -0.9425500   0.2817628
0.0152515    -0.9996449  -0.0001273   0.0006950   0.0000518  -0.0000064  -0.0000097  -0.9425577   0.2819218
0.0154390    -0.9997970  -0.0001743   0.0007205   0.0000121  -0.0000151   0.0000062  -0.9425825   0.2819117
0.0156288    -0.9997336  -0.0002721   0.0006905  -0.0000049  -0.0000092  -0.0000074  -0.9426634   0.2819290
0.0158209    -0.9998475  -0.0001781   0.0007198  -0.0000139  -0.0000031  -0.0000088  -0.9425187   0.2819562
0.0160154    -0.9998360  -0.0001141   0.0006891   0.0000491   0.0000012  -0.0000067  -0.9425096   0.2821765
0.0162123    -0.9997728  -0.0001765   0.0006504   0.0000722  -0.0000041  -0.0000005  -0.9424733   0.2823458
0.0164116    -0.9997534  -0.0001080   0.0006889  -0.0000770   0.0000020  -0.0000133  -0.9425390   0.2823374
0.0166134    -0.9997812  -0.0001534   0.0007124   0.0000468   0.0000025   0.0000024  -0.9424725   0.2825105
0.0168176    -0.9998107  -0.0000792   0.0007735   0.0000088   0.0000023  -0.0000011  -0.9425681   0.2824212
0.0170243    -0.9998087  -0.0001866   0.0007648  -0.0000184  -0.0000044  -0.0000021  -0.9425075   0.2825839
0.0172336    -0.9997820  -0.0002047   0.0007038   0.0000190   0.0000039  -0.0000065  -0.9424701   0.2825693
0.0174455    -0.9997921  -0.0001196   0.0007316  -0.0000565  -0.0000069   0.0000054  -0.9424511   0.2826684
0.0176599    -0.9998058  -0.0001857   0.0007542   0.0000254  -0.0000030  -0.0000096  -0.9424459   0.2827776
0.0178770    -0.9998915  -0.0001154   0.0007503   0.0000129  -0.0000056   0.0000042  -0.9424224   0.2829245
0.0180968    -0.9998987  -0.0001460   0.0007791  -0.0000740  -0.0000086  -0.0000035  -0.9424302   0.2828374
0.0183193    -0.9998704  -0.0001124   0.0008168   0.0000167   0.0000087  -0.0000044  -0.9424509   0.2830002
0.0185445    -0.9998448  -0.0001271   0.0006078  -0.0000744   0.0000103  -0.0000060  -0.9424455   0.2830423
0.0187724    -0.9999080  -0.0002016   0.0007620  -0.0001437   0.0000036   0.0000011  -0.9423371   0.2830841
0.0190032    -0.9997738  -0.0000950   0.0004733  -0.0001307  -0.0000030  -0.0000051  -0.9424280   0.2831313
0.0192368    -0.9998284  -0.0000893  -0.0000468   0.0000923   0.0000020   0.0000008  -0.9425254   0.2832695
0.0194733    -0.9997190  -0.0002677   0.0006787   0.0001016   0.0000098  -0.0000044  -0.9424154   0.2833488
0.0197127    -0.9998349  -0.0000753   0.0007283   0.0000850  -0.0000072  -0.0000149  -0.9423865   0.2834325
0.0199550    -0.9998223  -0.0002341   0.0007742  -0.0001187  -0.0000085  -0.0000115  -0.9424142   0.2834576
0.0202003    -0.9998040  -0.0001053   0.0007644  -0.0000938  -0.0000027  -0.0000121  -0.9424186   0.2834956
0.0204487    -0.9997780  -0.0000699   0.0007177  -0.0001674  -0.0000126  -0.0000027  -0.9423482   0.2836018
0.0207001    -0.9997560  -0.0001555   0.0007552  -0.0000856  -0.0000050  -0.0000153  -0.9422820   0.2836091
0.0209545    -0.9997881  -0.0001571   0.0007087  -0.0000435  -0.0000042  -0.0000062  -0.9422991   0.2836966
0.0212121    -0.9997458  -0.0000971   0.0007183  -0.0000144   0.0000013   0.0000014  -0.9422630   0.2838958
0.0214729    -0.9999038  -0.0001742   0.0006509  -0.0000105  -0.0000082  -0.0000137  -0.9423046   0.2839225
0.0217369    -0.9998597  -0.0000644   0.0007174  -0.0000370   0.0000177  -0.0000012  -0.9422967   0.2839207
0.0220041    -0.9996781  -0.0001039   0.0007124  -0.0000084  -0.0000034  -0.0000052  -0.9423316   0.2839710
0.0222746    -0.9998484  -0.0000501   0.0007105  -0.0000386   0.0000044  -0.0000094  -0.9421834   0.2840686
0.0225484    -0.9998719  -0.0000696   0.0007161  -0.0000414  -0.0000069   0.0000029  -0.9421589   0.2840821
0.0228256    -0.9997555  -0.0001112   0.0007208  -0.0000436  -0.0000015   0.0000000  -0.9422130   0.2841121
0.0231062    -0.9997322  -0.0000905   0.0007120  -0.0000471  -0.0000071  -0.0000067  -0.9422103   0.2841453
0.0233902    -0.9997430   0.0000013   0.0007029  -0.0000300  -0.0000062   0.0000041  -0.9421501   0.2842650
0.0236778    -0.9996650  -0.0000600   0.0007263  -0.0000501   0.0000026  -0.0000065  -0.9421274   0.2843437
0.0239689    -0.9995152  -0.0005341   0.0007100  -0.0000494  -0.0000034  -0.0000028  -0.9431943   0.2849166
0.0242635    -0.9998180  -0.0000971   0.0006978  -0.0000503   0.0000020  -0.0000015  -0.9421554   0.2844378
0.0245618    -0.9997419  -0.0000807   0.0006871  -0.0000577  -0.0000175  -0.0000006  -0.9420997   0.2845678
0.0248637    -0.9997699  -0.0001732   0.0007028  -0.0000055  -0.0000010  -0.0000011  -0.9421057   0.2846436
0.0251694    -0.9997672  -0.0001345   0.0007121  -0.0000354  -0.0000045  -0.0000092  -0.9421237   0.2846718
0.0254788    -0.9997727  -0.0000532   0.0007034  -0.0000167  -0.0000051  -0.0000060  -0.9420106   0.2847303
0.0257920    -0.9998009  -0.0000977   0.0007103  -0.0000477   0.0000011  -0.0000116  -0.9420984   0.2848583
0.0261091    -0.9998023  -0.0000847   0.0006819  -0.0000340   0.0000032  -0.0000093  -0.9419308   0.2848252
0.0264301    -0.9998477  -0.0000219   0.0006905  -0.0000360   0.0000051  -0.0000114  -0.9420806   0.2849199
0.0267550    -1.0000201  -0.0001239   0.0006907  -0.0000360  -0.0000017   0.0000036  -0.9419236   0.2849455
0.0270839    -0.9998477  -0.0000848   0.0006894  -0.0000259  -0.0000150  -0.0000070  -0.9420152   0.2849370
0.0274168    -0.9997990  -0.0001270   0.0007014  -0.0000326  -0.0000071  -0.0000091  -0.9419723   0.2849874
0.0277539    -0.9998053  -0.0001491   0.0007049  -0.0000559  -0.0000055  -0.0000124  -0.9418585   0.2850718
0.0280951    -0.9998449  -0.0000604   0.0006991  -0.0000504  -0.0000084  -0.0000131  -0.9418695   0.2851680
0.0284404    -0.9998403  -0.0000691   0.0006671  -0.0000530  -0.0000050  -0.0000027  -0.9418926   0.2852433
0.0287901    -0.9997682  -0.0001286   0.0006915  -0.0000421  -0.0000104  -0.0000071  -0.9419360   0.2851845
0.0291440    -0.9997160  -0.0001580   0.0006835  -0.0000345   0.0000046  -0.0000088  -0.9418947   0.2853351
0.0295023    -0.9997873  -0.0000403   0.0007081  -0.0000751   0.0000158   0.0000033  -0.9418181   0.2853636
0.0298649    -0.9997927  -0.0000788   0.0006655  -0.0000816   0.0000090  -0.0000008  -0.9418149   0.2853996
0.0302321    -0.9997775  -0.0001500   0.0006629  -0.0000734   0.0000043  -0.0000058  -0.9417208   0.2854923
0.0306037    -0.9998365  -0.0001722   0.0006702  -0.0000796  -0.0000045  -0.0000008  -0.9417143   0.2855678
0.0309799    -0.9998095  -0.0000394   0.0007051  -0.0000290  -0.0000045   0.0000013  -0.9418265   0.2855831
0.0313608    -0.9998060  -0.0000772   0.0006877  -0.0001283   0.0000041  -0.0000197  -0.9417779   0.2856653
0.0317463    -0.9998329  -0.0000118   0.0006876  -0.0000590  -0.0000047   0.0000050  -0.9416988   0.2857371
0.0321366    -0.9997972  -0.0001420   0.0006251  -0.0000466   0.0000041  -0.0000031  -0.9417880   0.2857474
0.0325316    -0.9999061  -0.0000527   0.0005975  -0.0000300   0.0000030  -0.0000159  -0.9416747   0.2858300
0.0329316    -0.9997017  -0.0000141   0.0007769  -0.0000542   0.0000071  -0.0000175  -0.9416642   0.2859160
0.0333364    -0.9997897  -0.0001208   0.0006753  -0.0001463   0.0000033  -0.0000037  -0.9416956   0.2859965
0.0337462    -0.9998390   0.0000282   0.0007627  -0.0000581   0.0000003   0.0000066  -0.9415459   0.2858363
0.0341610    -0.9997788  -0.0000514   0.0006936  -0.0000622   0.0000031  -0.0000018  -0.9415890   0.2860550
0.0345810    -0.9998445  -0.0000568   0.0006752  -0.0000622   0.0000025  -0.0000054  -0.9415994   0.2860402
0.0350061    -0.9997898  -0.0000547   0.0006860  -0.0001084   0.0000041   0.0000028  -0.9416480   0.2861025
0.0354365    -0.9997266   0.0000453   0.0007211  -0.0001026   0.0000008  -0.0000113  -0.9415532   0.2862356
0.0358721    -0.9997510  -0.0000270   0.0006677  -0.0000714   0.0000027   0.0000040  -0.9415274   0.2861881
0.0363131    -0.9998251  -0.0000566   0.0007040  -0.0000929  -0.0000035  -0.0000022  -0.9415787   0.2862180
0.0367595    -0.9998010  -0.0000475   0.0007347  -0.0000231  -0.0000029  -0.0000134  -0.9414277   0.2863980
0.0372114    -0.9998824  -0.0000947   0.0006273  -0.0001407   0.0000021  -0.0000147  -0.9414660   0.2864445
0.0376688    -0.9998909  -0.0001116   0.0007635  -0.0000642  -0.0000015  -0.0000004  -0.9414265   0.2864517
0.0381319    -0.9998198  -0.0000638   0.0007722  -0.0000906  -0.0000009  -0.0000148  -0.9414994   0.2864761
0.0386006    -0.9997521  -0.0000865   0.0006657  -0.0000274  -0.0000001  -0.0000062  -0.9414738   0.2866139
0.0390752    -0.9999071  -0.0000247   0.0006419  -0.0000804   0.0000058  -0.0000044  -0.9413666   0.2865701
0.0395555    -0.9997987  -0.0001116   0.0007398  -0.0001320  -0.0000018  -0.0000008  -0.9413887   0.2866159
0.0400418    -0.9997836  -0.0000433   0.0006317  -0.0000782  -0.0000059  -0.0000090  -0.9414225   0.2867169
0.0405340    -0.9997301  -0.0001189   0.0006822  -0.0000907   0.0000032  -0.0000083  -0.9413678   0.2866962
0.0410323    -0.9996814  -0.0001268   0.0006888  -0.0000897   0.0000113  -0.0000063  -0.9412536   0.2867964
0.0415368    -0.9998141  -0.0000517   0.0006569  -0.0001001  -0.0000101   0.0000046  -0.9413906   0.2868516
0.0420474    -0.9998165   0.0000163   0.0006563  -0.0000894  -0.0000032  -0.0000059  -0.9413047   0.2867908
0.0425643    -0.9997158  -0.0000484   0.0006819  -0.0000918   0.0000041  -0.0000041  -0.9412317   0.2868349
0.0430875    -0.9998294  -0.0001499   0.0006489  -0.0001465   0.0000041  -0.0000004  -0.9413051   0.2869693
0.0436172    -0.9997583  -0.0001125   0.0006555  -0.0000663  -0.0000077  -0.0000074  -0.9412355   0.2870156
0.0441534    -0.9998307  -0.0000773   0.0006680  -0.0000967   0.0000004  -0.0000073  -0.9411886   0.2871031
0.0446962    -0.9998327  -0.0000747   0.0006765  -0.0000954  -0.0000045  -0.0000057  -0.9411981   0.2871376
0.0452457    -0.9997018  -0.0000519   0.0006612  -0.0000724   0.0000028  -0.0000074  -0.9411458   0.2871384
0.0458019    -0.9998182  -0.0000611   0.0006647  -0.0000769   0.0000017  -0.0000085  -0.9411226   0.2871739
0.0463649    -0.9998250  -0.0000823   0.0006536  -0.0000795   0.0000098   0.0000013  -0.9410879   0.2872438
0.0469349    -0.9998266  -0.0000638   0.0006480  -0.0001069  -0.0000076  -0.0000056  -0.9410962   0.2873527
0.0475119    -0.9997676  -0.0001048   0.0006794  -0.0000884   0.0000017  -0.0000071  -0.9410704   0.2873649
0.0480960    -0.9997901  -0.0000887   0.0006734  -0.0000763  -0.0000044  -0.0000019  -0.9409973   0.2874680
0.0486872    -0.9997999  -0.0001202   0.0006694  -0.0000948  -0.0000129  -0.0000110  -0.9409651   0.2874875
0.0492857    -0.9998271  -0.0001334   0.0006700  -0.0001027  -0.0000002  -0.0000042  -0.9409461   0.2875644
0.0498916    -0.9998016  -0.0000269   0.0006728  -0.0000954  -0.0000045  -0.0000018  -0.9408737   0.2876173
0.0505050    -0.9997940  -0.0000966   0.0006622  -0.0000929  -0.0000103  -0.0000166  -0.9409469   0.2876108
0.0511258    -0.9997621  -0.0000474   0.0006738  -0.0001045  -0.0000017  -0.0000074  -0.9409396   0.2877756
0.0517543    -0.9998188  -0.0001023   0.0006794  -0.0000997  -0.0000078  -0.0000062  -0.9409543   0.2877150
0.0523906    -0.9997146  -0.0001657   0.0006448  -0.0000620   0.0000057  -0.0000072  -0.9408638   0.2877875
0.0530346    -0.9998006  -0.0000500   0.0006120  -0.0001200   0.0000032  -0.0000115  -0.9408033   0.2878187
0.0536866    -0.9998136  -0.0000384   0.0006344  -0.0000638  -0.0000095  -0.0000167  -0.9408350   0.2878571
0.0543466    -0.9998057  -0.0000942   0.0006616  -0.0000847  -0.0000052  -0.0000006  -0.9407425   0.2878680
0.0550146    -0.9997836  -0.0000567   0.0006293  -0.0000862  -0.0000055  -0.0000045  -0.9407686   0.2879192
0.0556910    -0.9997428  -0.0000283   0.0006516  -0.0001052  -0.0000121  -0.0000102  -0.9406990   0.2879734
0.0563756    -0.9997809   0.0000323   0.0006954  -0.0001332   0.0000018  -0.0000108  -0.9407175   0.2881117
0.0570686    -0.9997738  -0.0001344   0.0005970  -0.0000891   0.0000006  -0.0000166  -0.9406780   0.2881488
0.0577702    -0.9997943  -0.0000594   0.0007325  -0.0001287  -0.0000013  -0.0000054  -0.9406106   0.2882546
0.0584804    -0.9997750  -0.0000546   0.0006742  -0.0001445   0.0000011  -0.0000075  -0.9405687   0.2881916
0.0591993    -0.9997693  -0.0000318   0.0006372  -0.0001254   0.0000087   0.0000003  -0.9405477   0.2882490
0.0599270    -0.9997929  -0.0000364   0.0006600  -0.0001021   0.0000084  -0.0000020  -0.9406534   0.2883762
0.0606637    -0.9998674   0.0000332   0.0006565  -0.0001112  -0.0000008  -0.0000084  -0.9404613   0.2883609
0.0614095    -0.9998734  -0.0000263   0.0006390  -0.0001044  -0.0000130   0.0000009  -0.9405219   0.2883972
0.0621644    -0.9997982  -0.0001199   0.0006315  -0.0001114  -0.0000010  -0.0000074  -0.9405535   0.2885076
0.0629286    -0.9997940  -0.0001024   0.0006392  -0.0001209  -0.0000052  -0.0000012  -0.9404398   0.2884878
0.0637022    -0.9998020  -0.0001648   0.0006590  -0.0001242   0.0000020  -0.0000046  -0.9403573   0.2886245
0.0644853    -0.9997901  -0.0000400   0.0006526  -0.0001150  -0.0000014  -0.0000039  -0.9404157   0.2886764
0.0652780    -0.9997622  -0.0000463   0.0006263  -0.0001149   0.0000039  -0.0000084  -0.9403190   0.2886986
0.0660805    -0.9998064  -0.0000636   0.0006339  -0.0001146  -0.0000050  -0.0000067  -0.9402917   0.2888275
0.0668928    -0.9997978  -0.0000975   0.0006257  -0.0001190  -0.0000128  -0.0000122  -0.9402203   0.2888212
0.0677152    -0.9997873  -0.0000795   0.0006328  -0.0001304   0.0000000  -0.0000112  -0.9402024   0.2888230
0.0685476    -0.9997513  -0.0001035   0.0006319  -0.0001351  -0.0000072  -0.0000117  -0.9401862   0.2888922
0.0693903    -0.9998504  -0.0000402   0.0006249  -0.0001461  -0.0000004  -0.0000041  -0.9401122   0.2890172
0.0702433    -0.9997613  -0.0001309   0.0006190  -0.0001030  -0.0000029   0.0000041  -0.9401311   0.2890242
0.0711068    -0.9997776  -0.0001099   0.0006118  -0.0001296   0.0000037  -0.0000059  -0.9400895   0.2890692
0.0719810    -0.9997386  -0.0001047   0.0006762  -0.0001100  -0.0000091   0.0000050  -0.9400307   0.2890734
0.0728659    -0.9998084  -0.0000229   0.0006357  -0.0001155   0.0000052  -0.0000014  -0.9399982   0.2891921
0.0737616    -0.9998156  -0.0001526   0.0006191  -0.0001336  -0.0000012   0.0000004  -0.9399166   0.2892475
0.0746684    -0.9997237  -0.0000401   0.0006257  -0.0001249   0.0000073  -0.0000086  -0.9399425   0.2892933
0.0755863    -0.9997120  -0.0000500   0.0006172  -0.0000928  -0.0000051  -0.0000018  -0.9398644   0.2893296
0.0765155    -0.9997528  -0.0001198   0.0006441  -0.0001154  -0.0000040  -0.0000102  -0.9398543   0.2893451
0.0774561    -0.9997697  -0.0001070   0.0005837  -0.0001276   0.0000021  -0.0000132  -0.9397228   0.2894283
0.0784083    -0.9997668  -0.0000976   0.0006135  -0.0001071   0.0000033   0.0000006  -0.9396576   0.2894038
0.0793722    -0.9997500  -0.0000603   0.0006331  -0.0001395  -0.0000042  -0.0000104  -0.9396161   0.2895158
0.0803479    -0.9997727  -0.0000503   0.0005993  -0.0001359   0.0000014  -0.0000099  -0.9396115   0.2895176
0.0813357    -0.9997830  -0.0001014   0.0006002  -0.0001434  -0.0000006  -0.0000007  -0.9394970   0.2895606
0.0823356    -0.9997320  -0.0001170   0.0006091  -0.0001469  -0.0000053  -0.0000076  -0.9394075   0.2896695
0.0833477    -0.9997064  -0.0000503   0.0006134  -0.0001439   0.0000061  -0.0000029  -0.9393761   0.2896456
0.0843723    -0.9997905  -0.0001077   0.0006192  -0.0001421   0.0000086  -0.0000037  -0.9393115   0.2897923
0.0854095    -0.9997200  -0.0001956   0.0006099  -0.0001422  -0.0000026  -0.0000074  -0.9392051   0.2896720
0.0864595    -0.9997518  -0.0000751   0.0006022  -0.0001378  -0.0000029   0.0000073  -0.9391912   0.2898053
0.0875224    -0.9997369  -0.0001151   0.0006176  -0.0001455   0.0000034  -0.0000104  -0.9391330   0.2897833
0.0885983    -0.9996928  -0.0001028   0.0006130  -0.0001630  -0.0000022  -0.0000038  -0.9390844   0.2898074
0.0896875    -0.9996887  -0.0000924   0.0005969  -0.0001513   0.0000089  -0.0000091  -0.9389901   0.2898603
0.0907900    -0.9997236  -0.0001272   0.0006266  -0.0001709  -0.0000058  -0.0000009  -0.9389029   0.2897670
0.0919061    -0.9996634  -0.0001052   0.0006079  -0.0001476   0.0000026   0.0000009  -0.9387465   0.2898359
0.0930359    -0.9996773  -0.0001769   0.0006045  -0.0001483   0.0000012   0.0000016  -0.9387368   0.2897206
0.0941797    -0.9996865  -0.0002247   0.0005883  -0.0001381   0.0000025   0.0000095  -0.9386642   0.2897788
0.0953374    -0.9997045  -0.0001942   0.0005719  -0.0001241  -0.0000047   0.0000036  -0.9386589   0.2896874
0.0965094    -0.9996874  -0.0001472   0.0006054  -0.0001455   0.0000008  -0.0000022  -0.9385277   0.2897067
0.0976959    -0.9997484  -0.0001835   0.0005975  -0.0001588   0.0000064  -0.0000051  -0.9385353   0.2896980
0.0988969    -0.9997674  -0.0001342   0.0005863  -0.0001550  -0.0000068  -0.0000015  -0.9384663   0.2896201
0.1001126    -0.9997874  -0.0002485   0.0005859  -0.0001620  -0.0000042  -0.0000113  -0.9384273   0.2896009
0.1013433    -0.9997677  -0.0001907   0.0005926  -0.0001480  -0.0000066  -0.0000005  -0.9384162   0.2895283
0.1025892    -0.9997274  -0.0002130   0.0005715  -0.0001546  -0.0000089  -0.0000156  -0.9383242   0.2894642
0.1038503    -0.9997416  -0.0001852   0.0005913  -0.0001701  -0.0000061   0.0000026  -0.9383898   0.2893628
0.1051270    -0.9996930  -0.0002343   0.0005893  -0.0001468  -0.0000042   0.0000032  -0.9384645   0.2893710
0.1064193    -0.9998152  -0.0001568   0.0005669  -0.0001506  -0.0000009  -0.0000043  -0.9385210   0.2892712
0.1077276    -0.9998529  -0.0002159   0.0005667  -0.0001360  -0.0000010   0.0000042  -0.9385561   0.2893075
0.1090519    -0.9998051  -0.0002272   0.0005565  -0.0001695   0.0000081   0.0000023  -0.9386699   0.2891948
0.1103925    -0.9999270  -0.0002412   0.0005622  -0.0001561  -0.0000053  -0.0000082  -0.9386504   0.2892372
0.1117496    -0.9997812  -0.0002011   0.0005642  -0.0001696   0.0000070  -0.0000009  -0.9387449   0.2892651
0.1131233    -0.9997331  -0.0001332   0.0005809  -0.0001569  -0.0000109  -0.0000063  -0.9388706   0.2892237
0.1145140    -0.9998646  -0.0002440   0.0005427  -0.0001474  -0.0000020  -0.0000139  -0.9389367   0.2893050
0.1159217    -0.9998297  -0.0001833   0.0005725  -0.0001592  -0.0000058  -0.0000006  -0.9389502   0.2893045
0.1173468    -0.9998564  -0.0002383   0.0005618  -0.0001588   0.0000043  -0.0000100  -0.9390159   0.2893834
0.1187893    -0.9998700  -0.0002258   0.0005538  -0.0001675  -0.0000015  -0.0000112  -0.9391408   0.2894386
0.1202497    -0.9998996  -0.0002117   0.0005645  -0.0001760  -0.0000076  -0.0000202  -0.9391425   0.2894774
0.1217279    -0.9997936  -0.0002403   0.0005590  -0.0001739   0.0000047   0.0000067  -0.9391774   0.2895602
0.1232243    -0.9998259  -0.0002073   0.0005578  -0.0001654  -0.0000059  -0.0000097  -0.9393238   0.2897100
0.1247392    -0.9997584  -0.0002217   0.0005482  -0.0001744  -0.0000005  -0.0000021  -0.9393441   0.2897610
0.1262726    -0.9998238  -0.0001777   0.0005461  -0.0001642  -0.0000082  -0.0000107  -0.9393835   0.2898578
0.1278249    -0.9998224  -0.0001350   0.0005417  -0.0001610  -0.0000011  -0.0000062  -0.9393711   0.2899272
0.1293963    -0.9997900  -0.0001719   0.0005215  -0.0001661  -0.0000038  -0.0000042  -0.9394349   0.2900448
0.1309870    -0.9998239  -0.0002508   0.0005226  -0.0001822   0.0000004  -0.0000140  -0.9394403   0.2901690
0.1325973    -0.9997796  -0.0002158   0.0005190  -0.0001629  -0.0000006   0.0000020  -0.9394429   0.2901727
0.1342273    -0.9998254  -0.0001867   0.0005462  -0.0001727  -0.0000030  -0.0000066  -0.9395119   0.2902830
0.1358774    -0.9998374  -0.0002883   0.0005242  -0.0001654  -0.0000045   0.0000028  -0.9394840   0.2904587
0.1375478    -0.9998882  -0.0002290   0.0005462  -0.0001683   0.0000041  -0.0000011  -0.9395102   0.2904983
0.1392387    -0.9997853  -0.0002380   0.0005291  -0.0001744  -0.0000016  -0.0000030  -0.9394896   0.2906542
0.1409504    -0.9998640  -0.0002798   0.0005444  -0.0001819  -0.0000098  -0.0000030  -0.9395416   0.2907525
0.1426831    -0.9997837  -0.0001269   0.0005334  -0.0001675  -0.0000051  -0.0000032  -0.9395182   0.2907696
0.1444371    -0.9997836  -0.0002469   0.0005291  -0.0001847   0.0000040  -0.0000025  -0.9394529   0.2909111
0.1462127    -0.9998252  -0.0002046   0.0005143  -0.0001720   0.0000011  -0.0000080  -0.9395321   0.2910522
0.1480102    -0.9998244  -0.0002071   0.0005041  -0.0001715  -0.0000016  -0.0000117  -0.9394888   0.2911476
0.1498297    -0.9997854  -0.0002473   0.0005069  -0.0001794  -0.0000046   0.0000006  -0.9394295   0.2911965
0.1516716    -0.9997598  -0.0002602   0.0005137  -0.0001662  -0.0000031   0.0000037  -0.9394114   0.2913293
0.1535361    -0.9997941  -0.0002803   0.0005268  -0.0001768  -0.0000056  -0.0000089  -0.9394468   0.2914228
0.1554236    -0.9998371  -0.0002203   0.0005102  -0.0001873   0.0000006   0.0000022  -0.9394299   0.2915906
0.1573342    -0.9998177  -0.0003090   0.0005058  -0.0001831  -0.0000109  -0.0000090  -0.9393141   0.2916879
0.1592684    -0.9997910  -0.0002556   0.0004933  -0.0001856   0.0000048   0.0000032  -0.9394186   0.2917255
0.1612263    -0.9997983  -0.0002100   0.0004932  -0.0002031   0.0000049  -0.0000010  -0.9393069   0.2918717
0.1632083    -0.9997552  -0.0002332   0.0005079  -0.0001940   0.0000052  -0.0000046  -0.9393931   0.2919294
0.1652147    -0.9997973  -0.0003363   0.0005104  -0.0001673  -0.0000054   0.0000015  -0.9392935   0.2920767
0.1672457    -0.9996840  -0.0003699   0.0004900  -0.0001494   0.0000058  -0.0000092  -0.9392819   0.2921465
0.1693017    -0.9997581  -0.0001964   0.0004876  -0.0001700  -0.0000093  -0.0000026  -0.9392562   0.2921591
0.1713829    -0.9998228  -0.0002378   0.0005061  -0.0001698  -0.0000062  -0.0000029  -0.9392212   0.2923577
0.1734898    -0.9998275  -0.0003430   0.0004878  -0.0001822  -0.0000008   0.0000005  -0.9391912   0.2923584
0.1756225    -0.9998273  -0.0002701   0.0004888  -0.0001777   0.0000067  -0.0000024  -0.9391699   0.2925539
0.1777815    -0.9998200  -0.0002991   0.0004835  -0.0001737  -0.0000031  -0.0000086  -0.9390592   0.2925714
0.1799670    -0.9997725  -0.0002904   0.0005085  -0.0001778  -0.0000053  -0.0000102  -0.9390654   0.2927581
0.1821794    -0.9997786  -0.0003195   0.0004904  -0.0001736   0.0000027  -0.0000042  -0.9390483   0.2928551
0.1844190    -0.9998437  -0.0002977   0.0004943  -0.0001602  -0.0000014  -0.0000113  -0.9391059   0.2929285
0.1866861    -0.9998198  -0.0003390   0.0004741  -0.0001513  -0.0000025  -0.0000085  -0.9389236   0.2930493
0.1889811    -0.9998417  -0.0003567   0.0004716  -0.0001827  -0.0000052  -0.0000045  -0.9389341   0.2931909
0.1913043    -0.9997830  -0.0003320   0.0004737  -0.0001704  -0.0000022  -0.0000077  -0.9389398   0.2931881
0.1936560    -0.9998303  -0.0002825   0.0004669  -0.0001737  -0.0000029   0.0000011  -0.9388743   0.2934055
0.1960367    -0.9997507  -0.0003983   0.0004835  -0.0001632  -0.0000034  -0.0000113  -0.9388666   0.2935421
0.1984466    -0.9997368  -0.0002882   0.0004638  -0.0001661  -0.0000069  -0.0000007  -0.9388003   0.2935264
0.2008861    -0.9998116  -0.0003555   0.0004686  -0.0001627  -0.0000035  -0.0000135  -0.9388468   0.2937072
0.2033557    -0.9998271  -0.0002703   0.0004782  -0.0001664  -0.0000017  -0.0000072  -0.9388149   0.2937507
0.2058556    -0.9997369  -0.0003179   0.0004611  -0.0001589   0.0000063  -0.0000012  -0.9386165   0.2938308
0.2083862    -0.9997984  -0.0004061   0.0004679  -0.0001605  -0.0000007  -0.0000098  -0.9386430   0.2939738
0.2109480    -0.9997053  -0.0004451   0.0004526  -0.0001670  -0.0000041   0.0000037  -0.9386125   0.2940661
0.2135412    -0.9997277  -0.0003058   0.0004596  -0.0001578   0.0000026  -0.0000099  -0.9385548   0.2941996
0.2161663    -0.9998609  -0.0004164   0.0004552  -0.0001472   0.0000069  -0.0000061  -0.9385860   0.2942747
0.2188237    -0.9998116  -0.0003405   0.0004391  -0.0001715  -0.0000015  -0.0000051  -0.9385893   0.2944157
0.2215137    -0.9997653  -0.0004155   0.0004488  -0.0001556  -0.0000176  -0.0000081  -0.9384733   0.2944849
0.2242369    -0.9998177  -0.0003097   0.0004550  -0.0001565  -0.0000093  -0.0000156  -0.9383799   0.2946712
0.2269935    -0.9998621  -0.0003948   0.0004408  -0.0001520  -0.0000070  -0.0000102  -0.9383557   0.2947396
0.2297839    -0.9998159  -0.0003995   0.0004534  -0.0001679   0.0000008  -0.0000095  -0.9383288   0.2948782
0.2326087    -0.9998171  -0.0003755   0.0004547  -0.0001676  -0.0000072  -0.0000042  -0.9383012   0.2949777
0.2354682    -0.9997387  -0.0003746   0.0004284  -0.0001667   0.0000062  -0.0000025  -0.9382314   0.2950852
0.2383629    -0.9996984  -0.0003743   0.0004495  -0.0001581   0.0000095  -0.0000077  -0.9382402   0.2951383
0.2412932    -0.9997164  -0.0004530   0.0004241  -0.0001656  -0.0000204  -0.0000146  -0.9381400   0.2952565
0.2442594    -0.9997642  -0.0004025   0.0004469  -0.0001655  -0.0000093   0.0000065  -0.9381314   0.2954319
0.2472622    -0.9997776  -0.0004319   0.0004318  -0.0001575  -0.0000034  -0.0000044  -0.9381191   0.2955686
0.2503018    -0.9997592  -0.0004601   0.0004220  -0.0001700  -0.0000125  -0.0000093  -0.9379876   0.2957517
0.2533788    -0.9998062  -0.0004577   0.0004324  -0.0001534  -0.0000040   0.0000031  -0.9379655   0.2957465
0.2564937    -0.9997315  -0.0004907   0.0004257  -0.0001510  -0.0000017  -0.0000116  -0.9379517   0.2958429
0.2596468    -0.9998219  -0.0004425   0.0004214  -0.0001556  -0.0000103  -0.0000019  -0.9378675   0.2960615
0.2628387    -0.9998218  -0.0004734   0.0004236  -0.0001594   0.0000019   0.0000031  -0.9378421   0.2962113
0.2660699    -0.9997591  -0.0003976   0.0004247  -0.0001579   0.0000030  -0.0000001  -0.9377637   0.2962477
0.2693407    -0.9998146  -0.0005262   0.0004118  -0.0001440   0.0000029   0.0000017  -0.9376920   0.2964796
0.2726518    -0.9998284  -0.0004313   0.0004193  -0.0001550   0.0000098  -0.0000065  -0.9376563   0.2965318
0.2760036    -0.9997847  -0.0004928   0.0004165  -0.0001341  -0.0000009  -0.0000004  -0.9376370   0.2967253
0.2793966    -0.9997813  -0.0005114   0.0004127  -0.0001559   0.0000015  -0.0000069  -0.9375655   0.2967840
0.2828312    -0.9997357  -0.0004790   0.0004143  -0.0001530  -0.0000054  -0.0000065  -0.9375553   0.2969881
0.2863082    -0.9997434  -0.0005459   0.0004061  -0.0001505  -0.0000069  -0.0000156  -0.9374514   0.2970842
0.2898278    -0.9997440  -0.0004304   0.0004019  -0.0001491   0.0000011  -0.0000148  -0.9373987   0.2972562
0.2933907    -0.9997763  -0.0005086   0.0004048  -0.0001401  -0.0000071  -0.0000110  -0.9374491   0.2973166
0.2969975    -0.9997194  -0.0005236   0.0004033  -0.0001537   0.0000025  -0.0000002  -0.9373918   0.2974570
0.3006485    -0.9997914  -0.0004907   0.0003978  -0.0001369  -0.0000037  -0.0000003  -0.9372446   0.2976492
0.3043445    -0.9998286  -0.0005499   0.0003920  -0.0001462   0.0000030  -0.0000090  -0.9372233   0.2977212
0.3080858    -0.9998152  -0.0006365   0.0003948  -0.0001390   0.0000008  -0.0000047  -0.9371217   0.2978439
0.3118732    -0.9998239  -0.0005418   0.0003843  -0.0001356  -0.0000029  -0.0000037  -0.9370846   0.2981255
0.3157071    -0.9996886  -0.0005691   0.0003952  -0.0001475   0.0000001  -0.0000051  -0.9369519   0.2981806
0.3195882    -0.9997598  -0.0005808   0.0003978  -0.0001354  -0.0000056  -0.0000075  -0.9369621   0.2983713
0.3235170    -0.9998096  -0.0006605   0.0003878  -0.0001183   0.0000005  -0.0000101  -0.9368877   0.2985743
0.3274941    -0.9998023  -0.0005828   0.0003983  -0.0001369  -0.0000171  -0.0000030  -0.9368245   0.2986018
0.3315200    -0.9997346  -0.0005985   0.0003915  -0.0001307  -0.0000011  -0.0000002  -0.9366881   0.2987612
0.3355955    -0.9997571  -0.0005589   0.0003765  -0.0001254   0.0000024  -0.0000098  -0.9367534   0.2988743
0.3397210    -0.9996693  -0.0005868   0.0003850  -0.0001359  -0.0000033  -0.0000140  -0.9366286   0.2991156
0.3438973    -0.9998271  -0.0005496   0.0003803  -0.0001218   0.0000025  -0.0000018  -0.9365542   0.2991742
0.3481249    -0.9997486  -0.0005583   0.0003732  -0.0001271  -0.0000090  -0.0000003  -0.9365513   0.2993079
0.3524045    -0.9997765  -0.0005576   0.0003804  -0.0001314   0.0000071  -0.0000049  -0.9364981   0.2994654
0.3567367    -0.9998023  -0.0006275   0.0003701  -0.0001291   0.0000048  -0.0000006  -0.9364733   0.2996630
0.3611221    -0.9997651  -0.0006406   0.0003801  -0.0001208  -0.0000009  -0.0000053  -0.9363157   0.2998125
0.3655615    -0.9997693  -0.0006426   0.0003654  -0.0001274   0.0000008   0.0000035  -0.9362350   0.2999891
0.3700554    -0.9997940  -0.0006904   0.0003641  -0.0001109  -0.0000078   0.0000013  -0.9361766   0.3001423
0.3746046    -0.9997442  -0.0006829   0.0003210  -0.0001028  -0.0000074   0.0000052  -0.9360952   0.3002810
0.3792097    -0.9997469  -0.0007023   0.0003403  -0.0001309   0.0000027  -0.0000014  -0.9360310   0.3005167
0.3838714    -0.9997513  -0.0006937   0.0003628  -0.0001055  -0.0000147   0.0000006  -0.9360487   0.3006684
0.3885905    -0.9997657  -0.0006678   0.0003671  -0.0001167   0.0000014  -0.0000025  -0.9359445   0.3008066
0.3933675    -0.9997598  -0.0007542   0.0003520  -0.0001312  -0.0000064  -0.0000079  -0.9358374   0.3010662
0.3982033    -0.9997933  -0.0007140   0.0003356  -0.0001147   0.0000045  -0.0000028  -0.9357388   0.3011775
0.4030985    -0.9997569  -0.0007956   0.0003683  -0.0001345  -0.0000013  -0.0000019  -0.9356822   0.3013380
0.4080538    -0.9997384  -0.0006516   0.0003559  -0.0001166   0.0000088  -0.0000011  -0.9356213   0.3015114
0.4130701    -0.9997063  -0.0007854   0.0003379  -0.0001375  -0.0000030  -0.0000011  -0.9354990   0.3017008
0.4181481    -0.9997397  -0.0007218   0.0002958  -0.0000905  -0.0000217  -0.0000123  -0.9354835   0.3019167
0.4232885    -0.9997267  -0.0008014   0.0003532  -0.0000993   0.0000013  -0.0000042  -0.9353929   0.3020374
0.4284921    -0.9997574  -0.0008063   0.0003568  -0.0001003   0.0000050  -0.0000019  -0.9353126   0.3021829
0.4337597    -0.9997890  -0.0007862   0.0003450  -0.0001149  -0.0000025  -0.0000129  -0.9351899   0.3024178
0.4390920    -0.9998300  -0.0008493   0.0003544  -0.0001013   0.0000014  -0.0000040  -0.9351455   0.3026475
0.4444898    -0.9997108  -0.0007644   0.0003466  -0.0001067   0.0000003  -0.0000071  -0.9350953   0.3028394
0.4499541    -0.9997937  -0.0008445   0.0003378  -0.0000976   0.0000018   0.0000071  -0.9349420   0.3029515
0.4554854    -0.9996758  -0.0008619   0.0003412  -0.0000960  -0.0000024   0.0000004  -0.9349191   0.3031716
0.4610848    -0.9998221  -0.0008587   0.0003556  -0.0000868   0.0000036  -0.0000010  -0.9347462   0.3034583
0.4667531    -0.9997408  -0.0008037   0.0003347  -0.0000976  -0.0000048  -0.0000122  -0.9347264   0.3035858
0.4724910    -0.9997613  -0.0008483   0.0003428  -0.0000872   0.0000114  -0.0000039  -0.9345766   0.3037551
0.4782994    -0.9997060  -0.0008607   0.0003349  -0.0000908  -0.0000062  -0.0000052  -0.9345650   0.3040264
0.4841793    -0.9998058  -0.0008802   0.0003338  -0.0000775   0.0000106   0.0000023  -0.9344129   0.3041643
0.4901314    -0.9996853  -0.0008221   0.0003399  -0.0000865   0.0000062  -0.0000086  -0.9344641   0.3044346
0.4961567    -0.9997238  -0.0009370   0.0003100  -0.0000581  -0.0000058  -0.0000014  -0.9343045   0.3046205
0.5022561    -0.9998896  -0.0009896   0.0003274  -0.0000875  -0.0000017  -0.0000053  -0.9341865   0.3048411
0.5084304    -0.9997504  -0.0009552   0.0003363  -0.0001036  -0.0000013  -0.0000019  -0.9340425   0.3051119
0.5146807    -0.9997278  -0.0008747   0.0003248  -0.0000829  -0.0000092  -0.0000063  -0.9339961   0.3052493
0.5210078    -0.9997090  -0.0009191   0.0003270  -0.0000674   0.0000043  -0.0000041  -0.9338725   0.3054744
0.5274126    -0.9997584  -0.0010223   0.0002282  -0.0000352  -0.0000064  -0.0000075  -0.9338402   0.3057256
0.5338963    -0.9997718  -0.0010503   0.0003474  -0.0000803   0.0000003   0.0000057  -0.9337405   0.3059158
0.5404596    -0.9997610  -0.0010443   0.0003041  -0.0000359  -0.0000084   0.0000050  -0.9336710   0.3062319
0.5471036    -0.9997357  -0.0010311   0.0003218  -0.0000734  -0.0000094  -0.0000065  -0.9335276   0.3063257
0.5538292    -0.9997097  -0.0010014   0.0003114  -0.0000688   0.0000020  -0.0000054  -0.9334165   0.3066357
0.5606376    -0.9997253  -0.0010503   0.0003247  -0.0000637  -0.0000026  -0.0000073  -0.9332411   0.3068205
0.5675297    -0.9998012  -0.0011048   0.0003042  -0.0000325  -0.0000022  -0.0000028  -0.9331879   0.3071370
0.5745064    -0.9997172  -0.0011831   0.0003203  -0.0000586   0.0000018   0.0000011  -0.9330557   0.3073340
0.5815690    -0.9997806  -0.0011353   0.0003097  -0.0000625   0.0000020   0.0000047  -0.9330523   0.3075216
0.5887183    -0.9997435  -0.0010797   0.0003264  -0.0000690  -0.0000109  -0.0000114  -0.9328489   0.3077647
0.5959556    -0.9997048  -0.0010995   0.0003130  -0.0000892  -0.0000057  -0.0000093  -0.9327533   0.3080503
0.6032818    -0.9997343  -0.0011057   0.0003032  -0.0000539  -0.0000051  -0.0000031  -0.9326622   0.3083318
0.6106981    -0.9997003  -0.0011347   0.0003256  -0.0000375   0.0000033  -0.0000101  -0.9325332   0.3086434
0.6182056    -0.9997997  -0.0010495   0.0003122  -0.0000469   0.0000045  -0.0000047  -0.9324797   0.3087512
0.6258053    -0.9997156  -0.0012099   0.0003028  -0.0000349  -0.0000036   0.0000009  -0.9323100   0.3090988
0.6334985    -0.9997086  -0.0011762   0.0002933  -0.0000702   0.0000043  -0.0000057  -0.9322906   0.3093580
0.6412862    -0.9997283  -0.0012485   0.0003106  -0.0000487  -0.0000087  -0.0000039  -0.9320162   0.3096498
0.6491697    -0.9997410  -0.0012624   0.0002971  -0.0000562  -0.0000025   0.0000017  -0.9320639   0.3099768
0.6571501    -0.9997457  -0.0012803   0.0003018  -0.0000401  -0.0000156  -0.0000076  -0.9318527   0.3101546
0.6652286    -0.9996829  -0.0011500   0.0002954  -0.0000259   0.0000013  -0.0000025  -0.9317385   0.3105023
0.6734064    -0.9997616  -0.0012665   0.0002949  -0.0000256  -0.0000007  -0.0000128  -0.9316249   0.3107810
0.6816848    -0.9997090  -0.0012910   0.0003047  -0.0000268  -0.0000108  -0.0000052  -0.9314518   0.3109770
0.6900649    -0.9997704  -0.0011885   0.0002872  -0.0000414  -0.0000001  -0.0000024  -0.9313558   0.3112493
0.6985480    -0.9996890  -0.0012960   0.0002964  -0.0000341  -0.0000011  -0.0000022  -0.9312130   0.3116300
0.7071355    -0.9997273  -0.0013116   0.0002825  -0.0000380   0.0000024  -0.0000047  -0.9311384   0.3119213
0.7158284    -0.9996751  -0.0013749   0.0003009  -0.0000620   0.0000018  -0.0000044  -0.9310515   0.3121998
0.7246283    -0.9997790  -0.0014279   0.0002921  -0.0000212  -0.0000065  -0.0000022  -0.9308397   0.3124587
0.7335363    -0.9996311  -0.0013940   0.0002977  -0.0000039   0.0000072  -0.0000030  -0.9308036   0.3127722
0.7425539    -0.9997146  -0.0014054   0.0002995  -0.0000199  -0.0000014  -0.0000051  -0.9306783   0.3131388
0.7516822    -0.9997518  -0.0014576   0.0002983   0.0000032  -0.0000061   0.0000039  -0.9304417   0.3133883
0.7609229    -0.9997467  -0.0014103   0.0002886  -0.0000130  -0.0000108  -0.0000073  -0.9302693   0.3136903
0.7702771    -0.9997149  -0.0014397   0.0003053  -0.0000151   0.0000060  -0.0000118  -0.9301103   0.3139566
0.7797463    -0.9996999  -0.0014738   0.0002873  -0.0000060  -0.0000053  -0.0000039  -0.9299867   0.3143409
0.7893319    -0.9997143  -0.0015656   0.0002767  -0.0000009  -0.0000011  -0.0000039  -0.9298566   0.3146606
0.7990353    -0.9996876  -0.0015468   0.0002716   0.0000007   0.0000108   0.0000006  -0.9297423   0.3149845
0.8088580    -0.9997257  -0.0015836   0.0002900  -0.0000143  -0.0000011  -0.0000043  -0.9295781   0.3153214
0.8188015    -0.9996921  -0.0015634   0.0002846  -0.0000102  -0.0000041  -0.0000032  -0.9294537   0.3156519
0.8288673    -0.9996181  -0.0015869   0.0002853   0.0000114  -0.0000032  -0.0000065  -0.9292674   0.3159989
0.8390567    -0.9997221  -0.0015536   0.0002923  -0.0000335   0.0000029  -0.0000167  -0.9291964   0.3163791
0.8493714    -0.9997407  -0.0016084   0.0002902   0.0000112   0.0000081  -0.0000012  -0.9290133   0.3166715
0.8598130    -0.9996815  -0.0016507   0.0002782  -0.0000554   0.0000073  -0.0000083  -0.9288463   0.3170546
0.8703829    -0.9998439  -0.0016492   0.0002858   0.0000188   0.0000037  -0.0000044  -0.9286617   0.3173866
0.8810827    -0.9997301  -0.0016857   0.0002809   0.0000129  -0.0000029  -0.0000054  -0.9285109   0.3178376
0.8919140    -0.9997295  -0.0016628   0.0002746   0.0000309   0.0000023  -0.0000108  -0.9283561   0.3181357
0.9028786    -0.9997219  -0.0017254   0.0002681   0.0000289  -0.0000092   0.0000004  -0.9281942   0.3185210
0.9139779    -0.9997007  -0.0017144   0.0002800   0.0000219  -0.0000026  -0.0000067  -0.9280326   0.3189216
0.9252136    -0.9998496  -0.0017923   0.0002754   0.0000307  -0.0000001  -0.0000139  -0.9278553   0.3192816
0.9365875    -0.9997021  -0.0018549   0.0002951   0.0000279  -0.0000034   0.0000006  -0.9276938   0.3196557
0.9481012    -0.9997922  -0.0017609   0.0002780   0.0000271  -0.0000017  -0.0000055  -0.9275186   0.3200543
0.9597564    -0.9997275  -0.0018712   0.0002865   0.0000380  -0.0000017  -0.0000023  -0.9273121   0.3204456
0.9715549    -0.9997542  -0.0018905   0.0002859   0.0000377  -0.0000036  -0.0000012  -0.9271461   0.3208858
0.9834985    -0.9997040  -0.0018981   0.0002736   0.0000286  -0.0000065  -0.0000013  -0.9270109   0.3212321
0.9955889    -0.9996842  -0.0019156   0.0002548   0.0000495  -0.0000032  -0.0000050  -0.9268638   0.3216050
1.0078279    -0.9997480  -0.0018486   0.0003147   0.0000555   0.0000107  -0.0000079  -0.9265545   0.3220619
1.0202173    -0.9997344  -0.0019548   0.0002702   0.0000398   0.0000011  -0.0000053  -0.9264578   0.3224213
1.0327591    -0.9997631  -0.0018897   0.0002671   0.0000617  -0.0000039  -0.0000004  -0.9262505   0.3229331
1.0454551    -0.9996312  -0.0020247   0.0002776   0.0000514   0.0000008  -0.0000101  -0.9260666   0.3233381
1.0583071    -0.9996831  -0.0020307   0.0002555   0.0000603  -0.0000013   0.0000049  -0.9258682   0.3237213
1.0713171    -0.9997373  -0.0020558   0.0002750   0.0000564  -0.0000064   0.0000018  -0.9255917   0.3241481
1.0844871    -0.9997133  -0.0020430   0.0002776   0.0000584  -0.0000048   0.0000027  -0.9254617   0.3245377
1.0978189    -0.9997011  -0.0020439   0.0002728   0.0000643   0.0000007   0.0000068  -0.9252756   0.3250599
1.1113147    -0.9997141  -0.0020805   0.0002655   0.0000634  -0.0000006  -0.0000055  -0.9250334   0.3254274
1.1249763    -0.9997436  -0.0021857   0.0002579   0.0000745  -0.0000013  -0.0000018  -0.9248774   0.3259905
1.1388059    -0.9997339  -0.0021907   0.0002649   0.0000710  -0.0000019  -0.0000060  -0.9247198   0.3264517
1.1528056    -0.9997149  -0.0022663   0.0002628   0.0000565  -0.0000044  -0.0000036  -0.9244583   0.3268988
1.1669773    -0.9997357  -0.0022498   0.0002551   0.0000648  -0.0000009  -0.0000082  -0.9242727   0.3273953
1.1813232    -0.9997323  -0.0022237   0.0002679   0.0000706  -0.0000031  -0.0000048  -0.9240773   0.3278585
1.1958455    -0.9996989  -0.0022514   0.0002592   0.0000787   0.0000009   0.0000004  -0.9238039   0.3283554
1.2105463    -0.9997860  -0.0023450   0.0002573   0.0000840  -0.0000031  -0.0000085  -0.9236208   0.3288517
1.2254278    -0.9997445  -0.0023395   0.0002630   0.0000859  -0.0000064   0.0000002  -0.9233540   0.3293477
1.2404923    -0.9997941  -0.0023790   0.0002695   0.0000856   0.0000005  -0.0000006  -0.9232183   0.3298264
1.2557420    -0.9996598  -0.0024126   0.0002712   0.0000870   0.0000060  -0.0000034  -0.9229541   0.3303611
1.2711791    -0.9997190  -0.0024882   0.0002598   0.0001029   0.0000058   0.0000032  -0.9226769   0.3308420
1.2868060    -0.9996823  -0.0024545   0.0002742   0.0001083  -0.0000086   0.0000018  -0.9224299   0.3313969
1.3026251    -0.9996999  -0.0025271   0.0002753   0.0001013   0.0000010  -0.0000178  -0.9221532   0.3319239
1.3186385    -0.9997003  -0.0025871   0.0002619   0.0001133  -0.0000032  -0.0000001  -0.9219294   0.3324706
1.3348489    -0.9997536  -0.0025676   0.0002495   0.0000990  -0.0000022  -0.0000067  -0.9217568   0.3330027
1.3512585    -0.9998161  -0.0025548   0.0002643   0.0001103  -0.0000067  -0.0000152  -0.9214508   0.3335168
1.3678698    -0.9997573  -0.0026891   0.0002679   0.0001370  -0.0000091  -0.0000157  -0.9212825   0.3340755
1.3846854    -0.9997066  -0.0027298   0.0002599   0.0001103   0.0000027  -0.0000135  -0.9210106   0.3347380
1.4017077    -0.9997489  -0.0027251   0.0002557   0.0001284   0.0000041   0.0000045  -0.9207423   0.3352204
1.4189392    -0.9996736  -0.0027473   0.0002534   0.0001262   0.0000006   0.0000001  -0.9205003   0.3357456
1.4363825    -0.9997630  -0.0027189   0.0002594   0.0001245  -0.0000072  -0.0000012  -0.9202484   0.3363581
1.4540403    -0.9996783  -0.0027743   0.0002661   0.0001300  -0.0000064  -0.0000011  -0.9199559   0.3369570
1.4719152    -0.9997595  -0.0028632   0.0002468   0.0001434   0.0000078   0.0000075  -0.9197156   0.3376479
1.4900098    -0.9997830  -0.0028908   0.0002367   0.0001637   0.0000059  -0.0000025  -0.9193985   0.3381595
1.5083269    -0.9996841  -0.0028518   0.0002526   0.0001527  -0.0000053   0.0000013  -0.9191216   0.3387463
1.5268691    -0.9997739  -0.0029951   0.0002637   0.0001541   0.0000075  -0.0000016  -0.9188447   0.3393919
1.5456392    -0.9997381  -0.0029796   0.0002600   0.0001444  -0.0000034  -0.0000016  -0.9186352   0.3399954
1.5646402    -0.9997440  -0.0029920   0.0002683   0.0001384   0.0000027  -0.0000022  -0.9183255   0.3407034
1.5838747    -0.9997861  -0.0030111   0.0002529   0.0001247  -0.0000058   0.0000018  -0.9180071   0.3413056
1.6033456    -0.9997590  -0.0031964   0.0002655   0.0001642  -0.0000038   0.0000005  -0.9178175   0.3419714
1.6230559    -0.9997388  -0.0030993   0.0002585   0.0001673   0.0000040  -0.0000088  -0.9174998   0.3426997
1.6430085    -0.9997667  -0.0031587   0.0002530   0.0001670  -0.0000092  -0.0000087  -0.9171685   0.3433497
1.6632064    -0.9996968  -0.0032039   0.0002472   0.0001734  -0.0000108  -0.0000073  -0.9168588   0.3440620
1.6836526    -0.9997395  -0.0032041   0.0002508   0.0001726   0.0000037  -0.0000099  -0.9166106   0.3447857
1.7043502    -0.9997286  -0.0033384   0.0002640   0.0001621   0.0000002  -0.0000113  -0.9161800   0.3455200
1.7253021    -0.9996921  -0.0033920   0.0002496   0.0001868  -0.0000079  -0.0000040  -0.9159925   0.3461715
1.7465117    -0.9996861  -0.0033335   0.0002581   0.0001737   0.0000025  -0.0000055  -0.9157903   0.3469968
1.7679820    -0.9997295  -0.0034025   0.0002477   0.0001725  -0.0000045   0.0000031  -0.9154066   0.3477171
1.7897162    -0.9997372  -0.0034453   0.0002424   0.0001906  -0.0000016  -0.0000074  -0.9151174   0.3484560
1.8117176    -0.9996704  -0.0035136   0.0002489   0.0001891  -0.0000088  -0.0000035  -0.9147761   0.3493066
1.8339895    -0.9997234  -0.0035462   0.0002587   0.0002001  -0.0000118  -0.0000034  -0.9144893   0.3500739
1.8565352    -0.9997600  -0.0036538   0.0002522   0.0001951  -0.0000061  -0.0000007  -0.9141587   0.3508992
1.8793580    -0.9996388  -0.0035824   0.0002440   0.0002123   0.0000050  -0.0000067  -0.9138773   0.3516445
1.9024614    -0.9996605  -0.0036764   0.0002548   0.0002105   0.0000034   0.0000019  -0.9136433   0.3524820
1.9258488    -0.9996544  -0.0036503   0.0002481   0.0002088  -0.0000040  -0.0000066  -0.9132013   0.3533232
1.9495237    -0.9996672  -0.0037773   0.0002529   0.0002149  -0.0000036  -0.0000086  -0.9128573   0.3542622
1.9734897    -0.9996500  -0.0037972   0.0002586   0.0002350  -0.0000027  -0.0000027  -0.9124967   0.3551210
1.9977503    -0.9997601  -0.0038537   0.0002437   0.0002203  -0.0000022  -0.0000100  -0.9121862   0.3560367
2.0223091    -0.9996936  -0.0038645   0.0002627   0.0002239   0.0000036  -0.0000066  -0.9117146   0.3569520
2.0471698    -0.9996675  -0.0040311   0.0002526   0.0002375   0.0000021  -0.0000058  -0.9112576   0.3578717
2.0723362    -0.9996950  -0.0039603   0.0002444   0.0002453  -0.0000052  -0.0000109  -0.9108508   0.3587810
2.0978119    -0.9996346  -0.0040247   0.0002476   0.0002401  -0.0000046  -0.0000081  -0.9103719   0.3597379
2.1236008    -0.9997830  -0.0040971   0.0002574   0.0002437  -0.0000093  -0.0000004  -0.9098752   0.3606545
2.1497067    -0.9997334  -0.0041528   0.0002456   0.0002634  -0.0000046  -0.0000022  -0.9093895   0.3616367
2.1761336    -0.9996879  -0.0042581   0.0002480   0.0002557  -0.0000068  -0.0000094  -0.9089004   0.3624516
2.2028853    -0.9996419  -0.0043014   0.0002503   0.0002559  -0.0000069  -0.0000036  -0.9082573   0.3634525
2.2299659    -0.9997375  -0.0042759   0.0002626   0.0002696  -0.0000041  -0.0000103  -0.9079217   0.3643863
2.2573794    -0.9996951  -0.0043586   0.0002526   0.0002717  -0.0000005   0.0000045  -0.9073349   0.3653268
2.2851299    -0.9997443  -0.0044084   0.0002577   0.0002775  -0.0000203  -0.0000078  -0.9067572   0.3662666
2.3132216    -0.9997009  -0.0044079   0.0002625   0.0002805  -0.0000061  -0.0000051  -0.9062437   0.3671181
2.3416586    -0.9996443  -0.0045235   0.0002525   0.0002721   0.0000013  -0.0000147  -0.9056892   0.3680784
2.3704451    -0.9997523  -0.0046356   0.0002392   0.0002829  -0.0000051  -0.0000091  -0.9051684   0.3691096
2.3995856    -0.9997582  -0.0045988   0.0002399   0.0002991  -0.0000066  -0.0000082  -0.9045189   0.3700807
2.4290843    -0.9997168  -0.0047496   0.0002598   0.0002922  -0.0000003  -0.0000136  -0.9041214   0.3709168
2.4589456    -0.9996576  -0.0047699   0.0002585   0.0002918  -0.0000015  -0.0000055  -0.9035454   0.3719175
2.4891740    -0.9997213  -0.0048256   0.0002472   0.0003032   0.0000065   0.0000046  -0.9030067   0.3729132
2.5197740    -0.9997052  -0.0048344   0.0002383   0.0003166  -0.0000101  -0.0000049  -0.9025121   0.3739415
2.5507502    -0.9997340  -0.0049340   0.0002166   0.0003375  -0.0000041   0.0000006  -0.9019500   0.3748543
2.5821072    -0.9996903  -0.0049699   0.0002409   0.0003210   0.0000005  -0.0000009  -0.9013914   0.3758758
2.6138496    -0.9997290  -0.0050846   0.0002393   0.0003346  -0.0000073  -0.0000027  -0.9007222   0.3768633
2.6459823    -0.9997232  -0.0050710   0.0002473   0.0003258  -0.0000029   0.0000048  -0.9001987   0.3779199
2.6785100    -0.9997307  -0.0051772   0.0002291   0.0003466  -0.0000082  -0.0000121  -0.8996597   0.3790409
2.7114376    -0.9997555  -0.0052406   0.0002469   0.0003389  -0.0000063  -0.0000062  -0.8990225   0.3800620
2.7447699    -0.9997010  -0.0053413   0.0002415   0.0003562   0.0000017  -0.0000063  -0.8984440   0.3810689
2.7785120    -0.9998011  -0.0053199   0.0002444   0.0003454  -0.0000026  -0.0000068  -0.8978285   0.3821643
2.8126689    -0.9996920  -0.0054735   0.0002558   0.0003723  -0.0000122   0.0000035  -0.8973122   0.3833147
2.8472457    -0.9997683  -0.0054608   0.0002458   0.0003511  -0.0000035  -0.0000070  -0.8967607   0.3844286
2.8822476    -0.9996883  -0.0056435   0.0002566   0.0003635   0.0000060   0.0000022  -0.8961782   0.3855124
2.9176798    -0.9997831  -0.0055784   0.0002490   0.0003825  -0.0000007  -0.0000141  -0.8955195   0.3866086
2.9535475    -0.9996425  -0.0056997   0.0002358   0.0003731  -0.0000058  -0.0000054  -0.8949483   0.3878070
2.9898562    -0.9996804  -0.0057983   0.0002464   0.0003894  -0.0000028  -0.0000049  -0.8942470   0.3890268
3.0266112    -0.9996742  -0.0058296   0.0002380   0.0003847  -0.0000014  -0.0000102  -0.8936296   0.3901293
3.0638180    -0.9996850  -0.0058587   0.0002516   0.0003991  -0.0000027  -0.0000106  -0.8929854   0.3913348
3.1014823    -0.9997642  -0.0060437   0.0002522   0.0003981   0.0000122   0.0000001  -0.8923790   0.3926033
3.1396096    -0.9997255  -0.0060008   0.0002339   0.0003938   0.0000007  -0.0000151  -0.8916534   0.3937399
3.1782055    -0.9997801  -0.0061150   0.0002375   0.0003925  -0.0000052  -0.0000060  -0.8910269   0.3950064
3.2172760    -0.9997364  -0.0061790   0.0002481   0.0004332  -0.0000021  -0.0000025  -0.8903442   0.3962763
3.2568267    -0.9997171  -0.0062479   0.0002512   0.0004066   0.0000000   0.0000010  -0.8897056   0.3975141
3.2968637    -0.9997489  -0.0063761   0.0002495   0.0004246   0.0000079  -0.0000071  -0.8889123   0.3988380
3.3373928    -0.9996946  -0.0063921   0.0002577   0.0004288  -0.0000055  -0.0000043  -0.8882090   0.4000991
3.3784202    -0.9997776  -0.0065474   0.0002664   0.0004635   0.0000017  -0.0000115  -0.8874257   0.4014749
3.4199519    -0.9997043  -0.0065846   0.0002739   0.0004536  -0.0000018  -0.0000072  -0.8867184   0.4027799
3.4619942    -0.9997360  -0.0067092   0.0002615   0.0004467   0.0000094  -0.0000015  -0.8859021   0.4040620
3.5045533    -0.9997804  -0.0067358   0.0002375   0.0004694  -0.0000130  -0.0000043  -0.8851955   0.4055343
3.5476356    -0.9996793  -0.0068231   0.0002641   0.0004720  -0.0000032  -0.0000072  -0.8844131   0.4068135
3.5912475    -0.9996271  -0.0069199   0.0002535   0.0004606   0.0000050  -0.0000068  -0.8835820   0.4081858
3.6353956    -0.9997231  -0.0069532   0.0002526   0.0004875  -0.0000033   0.0000033  -0.8828196   0.4096963
3.6800864    -0.9997654  -0.0071262   0.0002521   0.0004864  -0.0000019  -0.0000012  -0.8820544   0.4111741
3.7253266    -0.9997243  -0.0072117   0.0002544   0.0005015  -0.0000012   0.0000029  -0.8812237   0.4125975
3.7711229    -0.9997439  -0.0072858   0.0002349   0.0004914   0.0000036  -0.0000073  -0.8804596   0.4140384
3.8174822    -0.9997630  -0.0073585   0.0002503   0.0005031   0.0000054  -0.0000037  -0.8795996   0.4154965
3.8644115    -0.9997320  -0.0074574   0.0002544   0.0005086  -0.0000027  -0.0000005  -0.8788628   0.4170898
3.9119176    -0.9998026  -0.0075808   0.0002499   0.0005177   0.0000050  -0.0000047  -0.8780034   0.4186069
3.9600077    -0.9997041  -0.0076193   0.0002564   0.0005271  -0.0000003  -0.0000106  -0.8772529   0.4201030
4.0086890    -0.9997484  -0.0077066   0.0002621   0.0005390  -0.0000001  -0.0000011  -0.8762245   0.4216955
4.0579688    -0.9997361  -0.0077971   0.0002540   0.0005557   0.0000105  -0.0000087  -0.8753939   0.4232443
4.1078544    -0.9997605  -0.0078785   0.0002537   0.0005383   0.0000009  -0.0000062  -0.8745147   0.4247613
4.1583532    -0.9997947  -0.0080527   0.0002662   0.0005567  -0.0000076  -0.0000134  -0.8735491   0.4263804
4.2094729    -0.9997305  -0.0081069   0.0002351   0.0005877  -0.0000130  -0.0000085  -0.8727399   0.4279787
4.2612209    -0.9996919  -0.0082029   0.0002638   0.0005645   0.0000049  -0.0000003  -0.8717528   0.4295703
4.3136051    -0.9997556  -0.0082650   0.0002430   0.0005862   0.0000094  -0.0000038  -0.8707551   0.4312195
4.3666333    -0.9996994  -0.0083958   0.0002671   0.0005897  -0.0000042  -0.0000094  -0.8698497   0.4329018
4.4203134    -0.9997489  -0.0085269   0.0002575   0.0005960  -0.0000094  -0.0000055  -0.8687537   0.4345216
4.4746534    -0.9997555  -0.0086591   0.0002569   0.0006017  -0.0000100  -0.0000040  -0.8676684   0.4362446
4.5296613    -0.9997874  -0.0087056   0.0002501   0.0006154  -0.0000140  -0.0000062  -0.8666960   0.4379928
4.5853455    -0.9998013  -0.0088401   0.0002577   0.0006134   0.0000126  -0.0000056  -0.8655878   0.4397037
4.6417143    -0.9997284  -0.0088873   0.0002590   0.0006236   0.0000038  -0.0000010  -0.8644354   0.4412928
4.6987760    -0.9997468  -0.0090083   0.0002540   0.0006337  -0.0000146  -0.0000077  -0.8633619   0.4429503
4.7565392    -0.9998175  -0.0091313   0.0002678   0.0006343  -0.0000048  -0.0000118  -0.8622112   0.4446939
4.8150125    -0.9998681  -0.0093174   0.0002865   0.0006398   0.0000012  -0.0000054  -0.8610678   0.4463435
4.8742045    -0.9997110  -0.0094031   0.0002595   0.0006525   0.0000013  -0.0000100  -0.8598778   0.4479819
4.9341243    -0.9996821  -0.0094922   0.0002693   0.0006701  -0.0000079  -0.0000109  -0.8588102   0.4494953
4.9947807    -0.9997576  -0.0095726   0.0002584   0.0006768  -0.0000006  -0.0000013  -0.8578174   0.4510817
5.0561827    -0.9997971  -0.0097670   0.0002521   0.0006833  -0.0000007  -0.0000055  -0.8568059   0.4527803
5.1183396    -0.9997324  -0.0098566   0.0002702   0.0007091   0.0000014  -0.0000067  -0.8558557   0.4544847
5.1812606    -0.9997502  -0.0098842   0.0002494   0.0007108   0.0000041   0.0000007  -0.8549632   0.4562606
5.2449550    -0.9998060  -0.0100931   0.0002597   0.0007101  -0.0000038  -0.0000165  -0.8540537   0.4582926
5.3094325    -0.9997569  -0.0101918   0.0002631   0.0007231  -0.0000002  -0.0000129  -0.8530595   0.4601084
5.3747026    -0.9997433  -0.0102896   0.0002645   0.0007397  -0.0000032  -0.0000010  -0.8520304   0.4623129
5.4407751    -0.9997460  -0.0104361   0.0002719   0.0007397   0.0000050  -0.0000045  -0.8508710   0.4642557
5.5076599    -0.9997289  -0.0105464   0.0002707   0.0007558  -0.0000117  -0.0000096  -0.8497691   0.4663224
5.5753669    -0.9997648  -0.0106975   0.0002648   0.0007521   0.0000046  -0.0000046  -0.8485973   0.4684798
5.6439062    -0.9996678  -0.0108579   0.0002610   0.0007696   0.0000020  -0.0000020  -0.8474325   0.4705647
5.7132881    -0.9997054  -0.0109868   0.0002650   0.0007813  -0.0000053  -0.0000021  -0.8461542   0.4727491
5.7835229    -0.9996834  -0.0110948   0.0002747   0.0007960   0.0000120  -0.0000015  -0.8448744   0.4749231
5.8546211    -0.9997266  -0.0112695   0.0002660   0.0008092   0.0000019  -0.0000059  -0.8436650   0.4771559
5.9265934    -0.9997286  -0.0114192   0.0002691   0.0008139   0.0000031  -0.0000032  -0.8422969   0.4793258
5.9994504    -0.9998217  -0.0115866   0.0002649   0.0008183  -0.0000047  -0.0000054  -0.8409209   0.4814409
6.0732031    -0.9996797  -0.0116712   0.0002723   0.0008275  -0.0000113  -0.0000100  -0.8395623   0.4836481
6.1478624    -0.9997659  -0.0117271   0.0002744   0.0008496   0.0000063  -0.0000045  -0.8381859   0.4858738
6.2234396    -0.9997484  -0.0119427   0.0002849   0.0008419  -0.0000013  -0.0000036  -0.8366054   0.4881844
6.2999458    -0.9997463  -0.0120349   0.0002775   0.0008739  -0.0000015  -0.0000074  -0.8352632   0.4904485
6.3773925    -0.9997589  -0.0122520   0.0002820   0.0008736  -0.0000065  -0.0000109  -0.8337530   0.4927246
6.4557914    -0.9997921  -0.0124127   0.0002713   0.0008920   0.0000019  -0.0000044  -0.8322471   0.4949631
6.5351539    -0.9997785  -0.0124996   0.0002874   0.0009004  -0.0000016   0.0000001  -0.8307492   0.4973691
6.6154922    -0.9997085  -0.0126572   0.0002863   0.0009038   0.0000017  -0.0000067  -0.8291662   0.4997310
6.6968180    -0.9997211  -0.0128491   0.0002867   0.0009268  -0.0000013  -0.0000054  -0.8275994   0.5021189
6.7791436    -0.9997790  -0.0130342   0.0002802   0.0009413  -0.0000036  -0.0000061  -0.8260330   0.5044637
6.8624812    -0.9997343  -0.0130449   0.0002813   0.0009524  -0.0000017  -0.0000108  -0.8244187   0.5069328
6.9468433    -0.9996971  -0.0133127   0.0003043   0.0009548  -0.0000075   0.0000006  -0.8228260   0.5093485
7.0322425    -0.9997284  -0.0134467   0.0002737   0.0009623  -0.0000001  -0.0000017  -0.8211146   0.5118158
7.1186916    -0.9997271  -0.0136859   0.0002944   0.0009820   0.0000055  -0.0000068  -0.8194095   0.5143454
7.2062034    -0.9997861  -0.0138444   0.0002681   0.0009928  -0.0000054  -0.0000028  -0.8176992   0.5169044
7.2947909    -0.9997437  -0.0140289   0.0002910   0.0010151  -0.0000060  -0.0000003  -0.8159561   0.5194736
7.3844675    -0.9997256  -0.0140867   0.0002958   0.0010058  -0.0000109  -0.0000018  -0.8142863   0.5220747
7.4752466    -0.9997874  -0.0143061   0.0002917   0.0010253   0.0000062  -0.0000064  -0.8124937   0.5246904
7.5671416    -0.9997143  -0.0143815   0.0002878   0.0010421  -0.0000101   0.0000033  -0.8107805   0.5273408
7.6601662    -0.9997639  -0.0146635   0.0002856   0.0010556  -0.0000032  -0.0000058  -0.8089321   0.5300260
7.7543345    -0.9997409  -0.0149510   0.0003010   0.0010926  -0.0000011  -0.0000027  -0.8070409   0.5328550
7.8496604    -0.9997497  -0.0150518   0.0002892   0.0010782  -0.0000081  -0.0000079  -0.8052010   0.5356596
7.9461581    -0.9997646  -0.0152082   0.0002915   0.0010899  -0.0000041  -0.0000001  -0.8031845   0.5385086
8.0438422    -0.9997381  -0.0154305   0.0003049   0.0011023  -0.0000019   0.0000034  -0.8012046   0.5413537
8.1427270    -0.9997772  -0.0156323   0.0003008   0.0011276   0.0000042   0.0000010  -0.7990345   0.5443276
8.2428275    -0.9997429  -0.0157894   0.0003022   0.0011291   0.0000016   0.0000028  -0.7968067   0.5471867
8.3441586    -0.9997609  -0.0160037   0.0003137   0.0011465  -0.0000017   0.0000017  -0.7946318   0.5499687
8.4467353    -0.9997171  -0.0162279   0.0003104   0.0011516   0.0000085  -0.0000037  -0.7923743   0.5529673
8.5505731    -0.9997393  -0.0163530   0.0002985   0.0011811   0.0000036  -0.0000037  -0.7900742   0.5557386
8.6556873    -0.9997635  -0.0165895   0.0003011   0.0011890   0.0000022  -0.0000069  -0.7877981   0.5586649
8.7620937    -0.9997244  -0.0167794   0.0003196   0.0012221  -0.0000146  -0.0000022  -0.7855033   0.5615264
8.8698082    -0.9997612  -0.0169840   0.0002980   0.0012398   0.0000006  -0.0000076  -0.7831491   0.5644380
8.9788469    -0.9997085  -0.0171794   0.0003186   0.0012292   0.0000057  -0.0000060  -0.7808526   0.5673655
9.0892260    -0.9997541  -0.0173356   0.0003124   0.0012431  -0.0000017  -0.0000065  -0.7784899   0.5703176
9.2009621    -0.9997651  -0.0176108   0.0003110   0.0012573  -0.0000012  -0.0000011  -0.7759998   0.5733714
9.3140717    -0.9997666  -0.0177908   0.0003120   0.0012858   0.0000038   0.0000058  -0.7735743   0.5763568
9.4285718    -0.9998032  -0.0180042   0.0003187   0.0013107  -0.0000053  -0.0000121  -0.7711036   0.5794398
9.5444795    -0.9997568  -0.0182813   0.0003109   0.0013143  -0.0000082   0.0000062  -0.7685506   0.5825374
9.6618121    -0.9997415  -0.0184864   0.0003381   0.0013197   0.0000018  -0.0000043  -0.7660223   0.5856292
9.7805870    -0.9997062  -0.0187240   0.0003229   0.0013530   0.0000009   0.0000032  -0.7634060   0.5888029
9.9008221    -0.9997632  -0.0188553   0.0003270   0.0013788   0.0000039  -0.0000012  -0.7607542   0.5920226
10.0225353   -0.9997432  -0.0191098   0.0003312   0.0013503  -0.0000049  -0.0000083  -0.7581033   0.5951324
10.1457447   -0.9997561  -0.0193350   0.0003453   0.0013837  -0.0000039  -0.0000058  -0.7553612   0.5984296
10.2704688   -0.9996808  -0.0196318   0.0003236   0.0014012  -0.0000041  -0.0000085  -0.7526769   0.6017045
10.3967261   -0.9997261  -0.0198586   0.0003376   0.0014268  -0.0000061  -0.0000066  -0.7498397   0.6050384
10.5245356   -0.9997988  -0.0201466   0.0003272   0.0014255  -0.0000079  -0.0000076  -0.7469667   0.6082174
10.6539162   -0.9997463  -0.0203197   0.0003258   0.0014453   0.0000029   0.0000029  -0.7440703   0.6115378
10.7848873   -0.9997382  -0.0205624   0.0003368   0.0014654   0.0000005  -0.0000063  -0.7411368   0.6149778
10.9174685   -0.9997260  -0.0209144   0.0003266   0.0014766  -0.0000070  -0.0000035  -0.7381281   0.6183689
11.0516796   -0.9996923  -0.0210977   0.0003309   0.0015078  -0.0000045   0.0000037  -0.7349763   0.6217995
11.1875405   -0.9996488  -0.0213878   0.0003511   0.0015306   0.0000009  -0.0000076  -0.7319551   0.6253218
11.3250716   -0.9996299  -0.0216649   0.0003542   0.0015473  -0.0000013  -0.0000002  -0.7288001   0.6287838
11.4642934   -0.9996437  -0.0219221   0.0003552   0.0015589  -0.0000070  -0.0000020  -0.7255736   0.6322627
11.6052267   -0.9996956  -0.0220890   0.0003384   0.0015770  -0.0000104  -0.0000051  -0.7223402   0.6358978
11.7478926   -0.9997072  -0.0224638   0.0003516   0.0016013  -0.0000036   0.0000009  -0.7190147   0.6394037
11.8923122   -0.9997254  -0.0226429   0.0003649   0.0016099   0.0000007   0.0000002  -0.7156511   0.6429700
12.0385073   -0.9996418  -0.0229469   0.0003570   0.0016416  -0.0000075  -0.0000003  -0.7121713   0.6466395
12.1864995   -0.9997488  -0.0231590   0.0003583   0.0016706  -0.0000044  -0.0000095  -0.7086981   0.6502674
12.3363111   -0.9996579  -0.0235214   0.0003731   0.0016603  -0.0000098  -0.0000015  -0.7052440   0.6539590
12.4879643   -0.9996836  -0.0237895   0.0003707   0.0016958  -0.0000047  -0.0000026  -0.7015574   0.6576797
12.6414818   -0.9997197  -0.0240742   0.0003778   0.0017040   0.0000050  -0.0000068  -0.6978449   0.6613944
12.7968866   -0.9996051  -0.0244230   0.0003644   0.0017342   0.0000019  -0.0000131  -0.6941116   0.6651428
12.9542018   -0.9996767  -0.0246762   0.0003783   0.0017480   0.0000027   0.0000004  -0.6903715   0.6689079
13.1134509   -0.9996620  -0.0250078   0.0003784   0.0017764  -0.0000100  -0.0000035  -0.6864955   0.6727020
13.2746577   -0.9996139  -0.0252799   0.0003738   0.0017936  -0.0000033  -0.0000037  -0.6825288   0.6765492
13.4378462   -0.9996679  -0.0255487   0.0003899   0.0018166   0.0000116  -0.0000093  -0.6785797   0.6805044
13.6030409   -0.9996530  -0.0258511   0.0003755   0.0018334   0.0000024  -0.0000091  -0.6744924   0.6843455
13.7702663   -0.9995769  -0.0261905   0.0003954   0.0018611  -0.0000078   0.0000053  -0.6703140   0.6882447
13.9395475   -0.9996093  -0.0265928   0.0003996   0.0018699  -0.0000009  -0.0000010  -0.6661352   0.6921232
14.1109097   -0.9996454  -0.0268393   0.0003990   0.0018967  -0.0000038  -0.0000051  -0.6618006   0.6961022
14.2843785   -0.9996306  -0.0271776   0.0003847   0.0019261   0.0000052   0.0000030  -0.6574447   0.7000021
14.4599797   -0.9996775  -0.0274783   0.0003935   0.0019463   0.0000036  -0.0000067  -0.6530176   0.7040575
14.6377397   -0.9996461  -0.0278362   0.0004041   0.0019722  -0.0000093  -0.0000076  -0.6485291   0.7080584
14.8176850   -0.9995929  -0.0282294   0.0004078   0.0020032  -0.0000131   0.0000027  -0.6439510   0.7120446
14.9998423   -0.9995524  -0.0285315   0.0004137   0.0020157  -0.0000022  -0.0000131  -0.6392536   0.7161155
15.1842390   -0.9996397  -0.0289334   0.0004128   0.0020328  -0.0000130   0.0000049  -0.6344815   0.7202062
15.3709024   -0.9995284  -0.0292789   0.0004209   0.0020699  -0.0000048   0.0000017  -0.6297241   0.7242485
15.5598606   -0.9995847  -0.0295588   0.0004066   0.0020912  -0.0000054  -0.0000108  -0.6248621   0.7283607
15.7511417   -0.9996135  -0.0299523   0.0004188   0.0021127   0.0000019  -0.0000063  -0.6198680   0.7325479
15.9447743   -0.9995743  -0.0302905   0.0004291   0.0021336   0.0000020  -0.0000005  -0.6148227   0.7366409
16.1407872   -0.9995380  -0.0306784   0.0004199   0.0021600  -0.0000153  -0.0000110  -0.6095775   0.7408179
16.3392097   -0.9995690  -0.0310660   0.0004073   0.0021919  -0.0000056   0.0000011  -0.6043237   0.7450111
16.5400716   -0.9995275  -0.0314485   0.0004358   0.0022119  -0.0000077   0.0000002  -0.5990279   0.7492048
16.7434026   -0.9995261  -0.0318203   0.0004409   0.0022467  -0.0000112  -0.0000024  -0.5935454   0.7533613
16.9492333   -0.9994806  -0.0321530   0.0004385   0.0022704   0.0000049   0.0000022  -0.5880423   0.7577115
17.1575942   -0.9994999  -0.0325588   0.0004453   0.0022946  -0.0000039   0.0000064  -0.5824226   0.7618352
17.3685166   -0.9994789  -0.0329830   0.0004437   0.0023313  -0.0000002   0.0000013  -0.5767305   0.7661086
17.5820320   -0.9994491  -0.0334526   0.0004501   0.0023408  -0.0000036  -0.0000010  -0.5708657   0.7702965
17.7981721   -0.9994918  -0.0338242   0.0004452   0.0023784  -0.0000008  -0.0000063  -0.5649477   0.7746078
18.0169693   -0.9994424  -0.0342363   0.0004537   0.0023951  -0.0000148   0.0000015  -0.5589829   0.7788677
18.2384562   -0.9995028  -0.0345672   0.0004714   0.0024215  -0.0000088  -0.0000066  -0.5528978   0.7832294
18.4626659   -0.9994627  -0.0350231   0.0004703   0.0024567   0.0000017  -0.0000043  -0.5466180   0.7874117
18.6896319   -0.9994023  -0.0354187   0.0004717   0.0024801  -0.0000066   0.0000047  -0.5403799   0.7916946
18.9193880   -0.9994063  -0.0358819   0.0004740   0.0025170  -0.0000040  -0.0000020  -0.5338648   0.7960754
19.1519686   -0.9993331  -0.0363456   0.0004855   0.0025395   0.0000009  -0.0000067  -0.5272533   0.8003731
19.3874083   -0.9994016  -0.0368507   0.0004790   0.0025770  -0.0000090  -0.0000072  -0.5205907   0.8046701
19.6257423   -0.9993919  -0.0372064   0.0004822   0.0026063  -0.0000034  -0.0000054  -0.5139282   0.8090026
19.8670063   -0.9993681  -0.0377270   0.0004857   0.0026344  -0.0000003  -0.0000053  -0.5070653   0.8132444
20.1112361   -0.9993839  -0.0380776   0.0004780   0.0026605   0.0000014   0.0000039  -0.5000667   0.8175503
20.3584684   -0.9993172  -0.0385762   0.0004908   0.0026864  -0.0000109  -0.0000031  -0.4928451   0.8218131
20.6087399   -0.9993160  -0.0391584   0.0005068   0.0027501   0.0000064  -0.0000074  -0.4856078   0.8260492
20.8620881   -0.9992797  -0.0395577   0.0004978   0.0027582  -0.0000070   0.0000015  -0.4781752   0.8303917
21.1185507   -0.9993046  -0.0399877   0.0004980   0.0027974  -0.0000055   0.0000029  -0.4706816   0.8346281
21.3781661   -0.9992929  -0.0404544   0.0005028   0.0028394  -0.0000035  -0.0000010  -0.4630449   0.8387695
21.6409730   -0.9992835  -0.0409510   0.0005138   0.0028507  -0.0000039  -0.0000078  -0.4552968   0.8429882
21.9070107   -0.9992147  -0.0415060   0.0005113   0.0028919  -0.0000070   0.0000040  -0.4474480   0.8472129
22.1763188   -0.9992557  -0.0420291   0.0005322   0.0029162  -0.0000040   0.0000040  -0.4393970   0.8514093
22.4489376   -0.9991865  -0.0425249   0.0005260   0.0029548  -0.0000043  -0.0000038  -0.4312338   0.8556008
22.7249077   -0.9991947  -0.0430579   0.0005256   0.0029916  -0.0000006  -0.0000028  -0.4229033   0.8597198
23.0042705   -0.9992002  -0.0435946   0.0005347   0.0030341  -0.0000025   0.0000032  -0.4144679   0.8638397
23.2870675   -0.9991548  -0.0440610   0.0005423   0.0030630  -0.0000063   0.0000051  -0.4059703   0.8679089
23.5733409   -0.9991109  -0.0446120   0.0005395   0.0030977  -0.0000101  -0.0000119  -0.3971808   0.8719871
23.8631337   -0.9991081  -0.0451229   0.0005502   0.0031296  -0.0000095   0.0000009  -0.3882574   0.8759217
24.1564889   -0.9990974  -0.0456824   0.0005644   0.0031675  -0.0000145   0.0000020  -0.3793041   0.8799030
24.4534504   -0.9990390  -0.0462544   0.0005698   0.0032024  -0.0000039  -0.0000033  -0.3701540   0.8837846
24.7540625   -0.9990778  -0.0467637   0.0005737   0.0032513  -0.0000011  -0.0000056  -0.3608652   0.8877116
25.0583701   -0.9989685  -0.0474001   0.0005855   0.0032828   0.0000015  -0.0000007  -0.3513553   0.8915770
25.3664186   -0.9989232  -0.0479515   0.0005742   0.0033150  -0.0000058  -0.0000061  -0.3416299   0.8953736
25.6782541   -0.9989450  -0.0485318   0.0005829   0.0033736   0.0000039  -0.0000031  -0.3318719   0.8991532
25.9939230   -0.9989601  -0.0491595   0.0005896   0.0034069  -0.0000041  -0.0000050  -0.3219447   0.9027781
26.3134725   -0.9988809  -0.0496578   0.0006081   0.0034501   0.0000036  -0.0000035  -0.3118192   0.9063520
26.6369503   -0.9988272  -0.0503029   0.0005983   0.0034747  -0.0000030  -0.0000139  -0.3015927   0.9099376
26.9644047   -0.9989040  -0.0509532   0.0006046   0.0035180   0.0000019   0.0000037  -0.2911556   0.9134289
27.2958846   -0.9988355  -0.0515548   0.0005997   0.0035498  -0.0000076   0.0000021  -0.2805167   0.9167797
27.6314394   -0.9987362  -0.0522448   0.0006258   0.0035967  -0.0000017  -0.0000051  -0.2698048   0.9201340
27.9711193   -0.9987308  -0.0528182   0.0006438   0.0036320   0.0000071  -0.0000031  -0.2588429   0.9232956
28.3149750   -0.9987209  -0.0534485   0.0006256   0.0036969   0.0000039  -0.0000051  -0.2477763   0.9264440
28.6630578   -0.9986814  -0.0541387   0.0006405   0.0037329  -0.0000087  -0.0000003  -0.2365017   0.9294491
29.0154196   -0.9985944  -0.0547719   0.0006403   0.0037717  -0.0000064  -0.0000030  -0.2250419   0.9323611
29.3721131   -0.9985814  -0.0554600   0.0006534   0.0038272   0.0000014  -0.0000039  -0.2134533   0.9351741
29.7331915   -0.9986008  -0.0561104   0.0006593   0.0038650  -0.0000054  -0.0000036  -0.2016027   0.9379710
30.0987087   -0.9985945  -0.0568626   0.0006541   0.0039175  -0.0000033   0.0000123  -0.1897006   0.9405994
30.4687194   -0.9985081  -0.0575246   0.0006740   0.0039574  -0.0000021  -0.0000058  -0.1775500   0.9431766
30.8432786   -0.9984331  -0.0582364   0.0006807   0.0039904  -0.0000102   0.0000030  -0.1652043   0.9454509
31.2224424   -0.9984343  -0.0589082   0.0006950   0.0040640   0.0000061   0.0000027  -0.1527992   0.9476807
31.6062674   -0.9983513  -0.0596506   0.0006885   0.0040998  -0.0000091  -0.0000072  -0.1400337   0.9498177
31.9948108   -0.9982973  -0.0603442   0.0007057   0.0041382   0.0000000   0.0000043  -0.1271896   0.9518871
32.3881306   -0.9983318  -0.0610361   0.0007199   0.0041829  -0.0000007  -0.0000042  -0.1141830   0.9537462
32.7862857   -0.9982664  -0.0618124   0.0007259   0.0042421  -0.0000070  -0.0000062  -0.1009629   0.9553778
33.1893353   -0.9981996  -0.0625586   0.0007251   0.0043046  -0.0000018  -0.0000006  -0.0875903   0.9570247
33.5973398   -0.9981458  -0.0634027   0.0007301   0.0043295   0.0000037  -0.0000116  -0.0740442   0.9583378
34.0103599   -0.9981888  -0.0640585   0.0007454   0.0044103  -0.0000011   0.0000036  -0.0602129   0.9594876
34.4284574   -0.9980416  -0.0650515   0.0007724   0.0044459  -0.0000075  -0.0000028  -0.0465159   0.9606917
34.8516946   -0.9980406  -0.0657119   0.0007643   0.0044860  -0.0000053   0.0000028  -0.0322434   0.9616950
35.2801349   -0.9979825  -0.0665184   0.0007464   0.0045657  -0.0000032  -0.0000036  -0.0177784   0.9624635
35.7138420   -0.9979065  -0.0673162   0.0007725   0.0046141  -0.0000069  -0.0000060  -0.0032039   0.9628964
36.1528808   -0.9978607  -0.0680515   0.0007886   0.0046727  -0.0000086  -0.0000063   0.0115347   0.9632563
36.5973168   -0.9978352  -0.0689623   0.0007892   0.0047510   0.0000000  -0.0000055   0.0264333   0.9633738
37.0472164   -0.9977465  -0.0698308   0.0007990   0.0048148  -0.0000010  -0.0000025   0.0415912   0.9631242
37.5026467   -0.9976733  -0.0706441   0.0008240   0.0048640   0.0000005  -0.0000051   0.0569194   0.9628974
37.9636757   -0.9976105  -0.0713750   0.0008487   0.0049253  -0.0000025  -0.0000048   0.0726387   0.9619464
38.4303722   -0.9975214  -0.0722892   0.0008565   0.0049713   0.0000012  -0.0000023   0.0881824   0.9611452
38.9028060   -0.9974431  -0.0732114   0.0008746   0.0050326   0.0000032   0.0000041   0.1040381   0.9599848
39.3810475   -0.9974214  -0.0741150   0.0008870   0.0050724  -0.0000019   0.0000034   0.1201362   0.9586652
39.8651681   -0.9973923  -0.0750397   0.0008951   0.0051386  -0.0000008   0.0000047   0.1362896   0.9569852
40.3552402   -0.9973716  -0.0759691   0.0009259   0.0052153   0.0000052   0.0000025   0.1527017   0.9550329
40.8513368   -0.9972064  -0.0767950   0.0009357   0.0052610  -0.0000009  -0.0000083   0.1693457   0.9526915
41.3535320   -0.9971364  -0.0777510   0.0009528   0.0053049  -0.0000069  -0.0000035   0.1860114   0.9501695
41.8619009   -0.9971048  -0.0787073   0.0009649   0.0053896  -0.0000012   0.0000013   0.2030277   0.9472720
42.3765193   -0.9970301  -0.0797615   0.0009668   0.0054471   0.0000010  -0.0000008   0.2201222   0.9440599
42.8974639   -0.9968774  -0.0807003   0.0009936   0.0054958  -0.0000026   0.0000052   0.2373514   0.9404513
43.4248127   -0.9968294  -0.0816151   0.0010033   0.0055422   0.0000010  -0.0000060   0.2547651   0.9366341
43.9586443   -0.9966998  -0.0826769   0.0010127   0.0056165   0.0000045  -0.0000092   0.2723270   0.9323410
44.4990385   -0.9966916  -0.0836289   0.0010403   0.0056947  -0.0000060   0.0000010   0.2900678   0.9276746
45.0460758   -0.9966224  -0.0847086   0.0010170   0.0057589   0.0000030   0.0000042   0.3079234   0.9226692
45.5998380   -0.9964635  -0.0856828   0.0010395   0.0058129  -0.0000014  -0.0000026   0.3258964   0.9172927
46.1604077   -0.9964625  -0.0867273   0.0010594   0.0058846  -0.0000057  -0.0000096   0.3439905   0.9114112
46.7278686   -0.9963240  -0.0878710   0.0010708   0.0059437  -0.0000078  -0.0000061   0.3622095   0.9051561
47.3023055   -0.9962405  -0.0888517   0.0010837   0.0060417  -0.0000035   0.0000063   0.3805383   0.8984954
47.8838040   -0.9961695  -0.0899321   0.0010925   0.0061027   0.0000035  -0.0000116   0.3990787   0.8913030
48.4724511   -0.9960136  -0.0910494   0.0010939   0.0061663  -0.0000043   0.0000037   0.4175483   0.8837820
49.0683345   -0.9959765  -0.0922179   0.0011267   0.0062515  -0.0000065   0.0000016   0.4362200   0.8757527
49.6715433   -0.9958032  -0.0932983   0.0011380   0.0063214  -0.0000056  -0.0000091   0.4548566   0.8672616
50.2821675   -0.9956690  -0.0943878   0.0011533   0.0063952  -0.0000049  -0.0000026   0.4737366   0.8581977
50.9002982   -0.9955799  -0.0955663   0.0011680   0.0064646  -0.0000001  -0.0000023   0.4925113   0.8486204
51.5260277   -0.9954992  -0.0967162   0.0011765   0.0065475   0.0000016  -0.0000145   0.5114078   0.8386844
52.1594495   -0.9954201  -0.0979323   0.0011906   0.0066239   0.0000007  -0.0000111   0.5302185   0.8281260
52.8006581   -0.9952542  -0.0990920   0.0012229   0.0067065   0.0000019  -0.0000070   0.5491565   0.8169084
53.4497492   -0.9951402  -0.1002938   0.0012415   0.0067954   0.0000038  -0.0000035   0.5682259   0.8053365
54.1068198   -0.9949924  -0.1014604   0.0012643   0.0068987   0.0000014  -0.0000070   0.5870810   0.7931806
54.7719678   -0.9948583  -0.1027484   0.0012822   0.0069480  -0.0000080  -0.0000108   0.6059003   0.7804755
55.4452927   -0.9947315  -0.1040040   0.0013015   0.0070353  -0.0000031   0.0000036   0.6248029   0.7668483
56.1268950   -0.9945972  -0.1053211   0.0012988   0.0071117  -0.0000012  -0.0000006   0.6436129   0.7528409
56.8168763   -0.9944179  -0.1065520   0.0013392   0.0072097  -0.0000113  -0.0000002   0.6623330   0.7382715
57.5153398   -0.9942900  -0.1078424   0.0013509   0.0073241  -0.0000006  -0.0000099   0.6809259   0.7230836
58.2223896   -0.9941931  -0.1092137   0.0013793   0.0074081   0.0000062  -0.0000063   0.6993919   0.7071741
58.9381314   -0.9940779  -0.1105375   0.0014290   0.0074719   0.0000077  -0.0000018   0.7177304   0.6906869
59.6626719   -0.9938610  -0.1118067   0.0014729   0.0075685   0.0000018  -0.0000044   0.7358872   0.6734457
60.3961194   -0.9936833  -0.1131627   0.0014815   0.0076258  -0.0000076  -0.0000076   0.7539451   0.6555725
61.1385834   -0.9935117  -0.1145623   0.0015071   0.0077227   0.0000077  -0.0000151   0.7717916   0.6369847
61.8901746   -0.9933748  -0.1159379   0.0015200   0.0078250  -0.0000007  -0.0000055   0.7892939   0.6177425
62.6510053   -0.9932159  -0.1174128   0.0015512   0.0079077  -0.0000042  -0.0000129   0.8065969   0.5978861
63.4211891   -0.9930769  -0.1187810   0.0015846   0.0079742  -0.0000005   0.0000010   0.8236544   0.5771804
64.2008409   -0.9928340  -0.1202235   0.0015877   0.0080830  -0.0000013  -0.0000071   0.8403290   0.5559154
64.9900772   -0.9926996  -0.1217012   0.0016039   0.0081719   0.0000060  -0.0000039   0.8567017   0.5338548
65.7890158   -0.9924768  -0.1231894   0.0015993   0.0083077   0.0000066  -0.0000067   0.8726612   0.5111127
66.5977759   -0.9922619  -0.1246768   0.0016663   0.0083909  -0.0000110   0.0000004   0.8881822   0.4875516
67.4164783   -0.9920940  -0.1260978   0.0017102   0.0084849   0.0000024  -0.0000098   0.9034119   0.4632958
68.2452452   -0.9918570  -0.1277102   0.0017414   0.0086044  -0.0000016  -0.0000030   0.9180764   0.4384124
69.0842003   -0.9916528  -0.1292101   0.0017787   0.0086958  -0.0000021  -0.0000152   0.9322427   0.4127304
69.9334689   -0.9914948  -0.1305802   0.0018097   0.0088091  -0.0000106  -0.0000085   0.9455765   0.3863505
70.7931778   -0.9911592  -0.1325711   0.0018925   0.0088414   0.0000082  -0.0000021   0.9591080   0.3591561
71.6634552   -0.9910064  -0.1342099   0.0018888   0.0089541  -0.0000035  -0.0000070   0.9716677   0.3310241
72.5444312   -0.9908337  -0.1357756   0.0019027   0.0090481   0.0000123   0.0000005   0.9836817   0.3023485
73.4362373   -0.9906875  -0.1374506   0.0018663   0.0091428  -0.0000012  -0.0000107   0.9948434   0.2729349
74.3390065   -0.9903257  -0.1388699   0.0019087   0.0092741   0.0000080  -0.0000129   1.0046945   0.2431284
75.2528737   -0.9900602  -0.1405710   0.0019399   0.0093828  -0.0000040  -0.0000102   1.0143737   0.2123149
76.1779753   -0.9898075  -0.1422773   0.0019452   0.0095098  -0.0000051  -0.0000124   1.0232854   0.1808396
77.1144493   -0.9895563  -0.1440980   0.0019739   0.0096373  -0.0000026  -0.0000045   1.0313023   0.1486103
78.0624357   -0.9892596  -0.1458619   0.0020165   0.0097607  -0.0000029  -0.0000080   1.0384154   0.1157628
79.0220759   -0.9890385  -0.1476158   0.0020347   0.0099108   0.0000002  -0.0000036   1.0445212   0.0821697
79.9935132   -0.9887949  -0.1493499   0.0021095   0.0100529   0.0000041  -0.0000131   1.0496229   0.0480313
80.9768926   -0.9884807  -0.1512410   0.0021442   0.0101515  -0.0000064  -0.0000116   1.0537186   0.0132410
81.9723609   -0.9882269  -0.1530022   0.0021902   0.0102624   0.0000053  -0.0000071   1.0567157  -0.0222640
82.9800667   -0.9878256  -0.1549083   0.0022089   0.0103752  -0.0000016  -0.0000180   1.0586042  -0.0582525
84.0001605   -0.9875792  -0.1567745   0.0022104   0.0105093   0.0000053  -0.0000160   1.0593000  -0.0947391
85.0327946   -0.9872908  -0.1586061   0.0022215   0.0106829   0.0000022  -0.0000081   1.0586965  -0.1319093
86.0781231   -0.9868995  -0.1605905   0.0022856   0.0108472   0.0000029  -0.0000101   1.0568105  -0.1694968
87.1363020   -0.9865391  -0.1624670   0.0023683   0.0110461   0.0000048  -0.0000041   1.0536046  -0.2074041
88.2074894   -0.9862107  -0.1644029   0.0024596   0.0111859  -0.0000051  -0.0000155   1.0489040  -0.2458368
89.2918452   -0.9859307  -0.1664587   0.0024942   0.0113281  -0.0000005  -0.0000021   1.0430306  -0.2849234
90.3895312   -0.9854983  -0.1684113   0.0026550   0.0114246  -0.0000024  -0.0000180   1.0355088  -0.3237174
91.5007114   -0.9851703  -0.1704737   0.0027406   0.0115099  -0.0000084  -0.0000163   1.0264270  -0.3630294
92.6255515   -0.9848437  -0.1724826   0.0027902   0.0115986  -0.0000034  -0.0000041   1.0155656  -0.4024850
93.7642195   -0.9844557  -0.1745451   0.0028344   0.0116942  -0.0000052  -0.0000188   1.0031624  -0.4420937
94.9168855   -0.9840083  -0.1767066   0.0028466   0.0118352  -0.0000125  -0.0000104   0.9892346  -0.4818269
96.0837215   -0.9836274  -0.1788008   0.0028237   0.0119087  -0.0000039  -0.0000178   0.9734644  -0.5215695
97.2649017   -0.9832178  -0.1810141   0.0027855   0.0120431  -0.0000004  -0.0000104   0.9559370  -0.5609835
98.4606024   -0.9827461  -0.1830629   0.0027211   0.0122619  -0.0000038  -0.0000064   0.9365502  -0.6005025
99.6710021   -0.9823653  -0.1853484   0.0026515   0.0126031  -0.0000145  -0.0000062   0.9153443  -0.6396754
100.8962816  -0.9819656  -0.1875660   0.0028480   0.0130467  -0.0000102  -0.0000124   0.8922365  -0.6784421
102.1366237  -0.9814664  -0.1897883   0.0031650   0.0132486   0.0000052  -0.0000179   0.8671283  -0.7166929
103.3922136  -0.9810427  -0.1920538   0.0034098   0.0133134  -0.0000096  -0.0000112   0.8401955  -0.7544722
104.6632389  -0.9806049  -0.1943068   0.0035558   0.0133991  -0.0000105  -0.0000055   0.8113415  -0.7912682
105.9498891  -0.9802872  -0.1961054   0.0037881   0.0134876  -0.0000069  -0.0000089   0.7803574  -0.8250929
107.2523564  -0.9789588  -0.1997667   0.0036823   0.0135502  -0.0000016  -0.0000085   0.7458400  -0.8653272
108.5708353  -0.9786746  -0.2019715   0.0037688   0.0136179  -0.0000106  -0.0000041   0.7121824  -0.8993932
109.9055225  -0.9798597  -0.2032914   0.0039057   0.0139716   0.0000076  -0.0000064   0.6774515  -0.9319120
111.2566174  -0.9780891  -0.2062444   0.0040006   0.0139037  -0.0000017  -0.0000120   0.6366632  -0.9623526
112.6243216  -0.9774512  -0.2087887   0.0040508   0.0140257   0.0000017  -0.0000150   0.5956314  -0.9930429
114.0088393  -0.9768757  -0.2113605   0.0041327   0.0141719  -0.0000127  -0.0000032   0.5528684  -1.0220177
115.4103773  -0.9763177  -0.2139310   0.0041601   0.0142920  -0.0000076  -0.0000214   0.5080600  -1.0493846
116.8291446  -0.9757420  -0.2164111   0.0042379   0.0144247   0.0000125  -0.0000049   0.4616156  -1.0748125
118.2653533  -0.9750714  -0.2189767   0.0042846   0.0146065  -0.0000004  -0.0000118   0.4131618  -1.0983546
119.7192175  -0.9744823  -0.2215377   0.0043507   0.0147642  -0.0000147  -0.0000006   0.3630310  -1.1198741
121.1909545  -0.9738790  -0.2241440   0.0044252   0.0149214  -0.0000096  -0.0000137   0.3112472  -1.1389094
122.6807839  -0.9731754  -0.2269864   0.0044979   0.0151047  -0.0000186  -0.0000183   0.2578829  -1.1556283
124.1889281  -0.9725505  -0.2295824   0.0045654   0.0153030   0.0000025  -0.0000021   0.2030196  -1.1697805
125.7156123  -0.9718588  -0.2323785   0.0046026   0.0154689  -0.0000108  -0.0000053   0.1468018  -1.1813263
127.2610644  -0.9712264  -0.2350607   0.0047016   0.0156869  -0.0000061  -0.0000096   0.0899457  -1.1898236
128.8255151  -0.9703825  -0.2377652   0.0047535   0.0159039  -0.0000125  -0.0000101   0.0310541  -1.1954536
130.4091980  -0.9696997  -0.2406901   0.0048400   0.0161496  -0.0000132  -0.0000125  -0.0282397  -1.1979713
132.0123495  -0.9689817  -0.2435348   0.0049649   0.0163625  -0.0000062  -0.0000027  -0.0885005  -1.1971293
133.6352088  -0.9682342  -0.2464476   0.0050663   0.0166021  -0.0000239  -0.0000059  -0.1491135  -1.1931309
135.2780184  -0.9674461  -0.2493533   0.0052419   0.0168467  -0.0000031  -0.0000057  -0.2103454  -1.1854267
136.9410235  -0.9666695  -0.2523606   0.0053535   0.0170875  -0.0000093  -0.0000137  -0.2717939  -1.1740384
138.6244722  -0.9657881  -0.2553229   0.0055625   0.0173337  -0.0000096  -0.0000023  -0.3330388  -1.1591738
140.3286160  -0.9650670  -0.2582113   0.0057601   0.0175273  -0.0000127  -0.0000127  -0.3943408  -1.1406394
142.0537093  -0.9642521  -0.2607166   0.0060373   0.0176552  -0.0000183  -0.0000196  -0.4577303  -1.1193078
143.8000095  -0.9631180  -0.2644134   0.0060573   0.0178384  -0.0000058   0.0000000  -0.5114804  -1.0920313
145.5677774  -0.9616582  -0.2680166   0.0061943   0.0180889   0.0000058  -0.0000122  -0.5686752  -1.0596310
147.3572769  -0.9616109  -0.2706447   0.0063926   0.0182374  -0.0000021  -0.0000169  -0.6296031  -1.0274029
149.1687752  -0.9605201  -0.2738002   0.0065389   0.0184323   0.0000015  -0.0000091  -0.6842854  -0.9897038
151.0025426  -0.9595371  -0.2769265   0.0066905   0.0186139  -0.0000053  -0.0000193  -0.7376444  -0.9478988
152.8588530  -0.9586477  -0.2802596   0.0068213   0.0188150  -0.0000013  -0.0000092  -0.7884430  -0.9023780
154.7379834  -0.9576870  -0.2835399   0.0069698   0.0189962  -0.0000086  -0.0000110  -0.8368112  -0.8532143
156.6402144  -0.9565220  -0.2868336   0.0070898   0.0192650  -0.0000084  -0.0000061  -0.8822036  -0.8005717
158.5658301  -0.9554301  -0.2901085   0.0072152   0.0194821  -0.0000037   0.0000147  -0.9241073  -0.7445390
160.5151177  -0.9544362  -0.2937486   0.0074053   0.0197615   0.0000014  -0.0000065  -0.9630209  -0.6849737
162.4883685  -0.9533589  -0.2967007   0.0075968   0.0199483   0.0000013  -0.0000028  -0.9967976  -0.6237559
164.4858769  -0.9521223  -0.3004842   0.0078487   0.0202065   0.0000046  -0.0000033  -1.0278789  -0.5582318
166.5079411  -0.9509150  -0.3039931   0.0080179   0.0204347  -0.0000070  -0.0000102  -1.0539276  -0.4910024
168.5548630  -0.9498614  -0.3075027   0.0082028   0.0206570  -0.0000107   0.0000016  -1.0755896  -0.4214285
170.6269483  -0.9485129  -0.3110861   0.0083617   0.0208169  -0.0000006  -0.0000172  -1.0920161  -0.3500769
172.7245062  -0.9472402  -0.3145980   0.0085857   0.0211226   0.0000046  -0.0000030  -1.1035268  -0.2774294
174.8478498  -0.9460889  -0.3183722   0.0087677   0.0213877   0.0000061  -0.0000036  -1.1094082  -0.2032648
176.9972963  -0.9448968  -0.3220443   0.0089514   0.0216675   0.0000235  -0.0000062  -1.1102204  -0.1277967
179.1731664  -0.9429143  -0.3249903   0.0092205   0.0219714  -0.0000187  -0.0000088  -1.1019377  -0.0580540
181.3757850  -0.9415146  -0.3298064   0.0095811   0.0224045  -0.0000020  -0.0000058  -1.0923748   0.0172629
183.6054809  -0.9405416  -0.3332233   0.0097951   0.0224721  -0.0000115  -0.0000014  -1.0773858   0.0954521
185.8625870  -0.9388460  -0.3370688   0.0101238   0.0227146  -0.0000271  -0.0000083  -1.0548059   0.1676861
188.1474402  -0.9377569  -0.3408912   0.0103594   0.0228408  -0.0000045  -0.0000041  -1.0266452   0.2388777
190.4603817  -0.9358579  -0.3446299   0.0105390   0.0231328  -0.0000241  -0.0000166  -0.9928692   0.3077410
192.8017567  -0.9342868  -0.3487885   0.0108892   0.0234991   0.0000113  -0.0000080  -0.9528826   0.3737659
195.1719148  -0.9328471  -0.3529044   0.0112667   0.0236507  -0.0000411   0.0000164  -0.9079903   0.4365081
197.5712099  -0.9310738  -0.3568488   0.0115734   0.0239017   0.0000064  -0.0000064  -0.8584258   0.4960860
200.0000000  -0.9294130  -0.3605654   0.0118483   0.0240291  -0.0000129  -0.0000066  -0.8026131   0.5505821
