! ListType=Log
# MHZ S RI R 50
0.0010000    -0.9997844   0.0002120   0.0003937   0.0000218  -0.0000115  -0.0000299  -0.9088780   0.2599563
0.0010123    -0.9990642  -0.0007672   0.0004487  -0.0000611   0.0000121  -0.0000287  -0.9094622   0.2603417
0.0010247    -0.9991772   0.0011333   0.0003702   0.0000850  -0.0000157   0.0000266  -0.9095897   0.2591301
0.0010373    -0.9993109  -0.0000500   0.0003914   0.0000224  -0.0000085  -0.0000056  -0.9097936   0.2598523
0.0010501    -1.0006717  -0.0001434   0.0003275  -0.0000320  -0.0000136  -0.0000118  -0.9091506   0.2596915
0.0010630    -0.9992502  -0.0011857   0.0004395  -0.0000665   0.0000229   0.0000125  -0.9105505   0.2595735
0.0010761    -0.9991013   0.0007916   0.0003850   0.0000683  -0.0000149   0.0000095  -0.9107037   0.2587981
0.0010893    -0.9996663  -0.0011829   0.0004041  -0.0000621   0.0000198  -0.0000037  -0.9110865   0.2599258
0.0011027    -0.9993925  -0.0002559   0.0003949   0.0000122   0.0000030  -0.0000187  -0.9110775   0.2587990
0.0011162    -0.9982175   0.0001696   0.0004663   0.0000081  -0.0000056   0.0000030  -0.9120701   0.2584382
0.0011300    -1.0000308   0.0002011   0.0003807   0.0000078  -0.0000259  -0.0000173  -0.9112969   0.2587179
0.0011439    -0.9994302  -0.0004879   0.0004460   0.0000317   0.0000190  -0.0000020  -0.9120502   0.2590832
0.0011579    -0.9996177   0.0009186   0.0003856   0.0000360  -0.0000080   0.0000011  -0.9120575   0.2578675
0.0011721    -0.9994485  -0.0001424   0.0004330  -0.0000574   0.0000114  -0.0000118  -0.9124015   0.2585311
0.0011866    -0.9998375   0.0003697   0.0003606   0.0000117  -0.0000454  -0.0000152  -0.9122040   0.2582435
0.0012011    -0.9994946  -0.0000503   0.0003834  -0.0000189  -0.0000151   0.0000003  -0.9128818   0.2582597
0.0012159    -0.9987798  -0.0007063   0.0004641  -0.0000472   0.0000208   0.0000031  -0.9136437   0.2584854
0.0012309    -0.9989327   0.0003971   0.0004231   0.0000611   0.0000094   0.0000109  -0.9137401   0.2577885
0.0012460    -1.0000064  -0.0003586   0.0003573  -0.0000405  -0.0000062  -0.0000060  -0.9134154   0.2581256
0.0012613    -0.9989825  -0.0006816   0.0004591  -0.0000218   0.0000269  -0.0000021  -0.9147353   0.2579363
0.0012768    -0.9993966   0.0007036   0.0003770   0.0000059  -0.0000207   0.0000053  -0.9141770   0.2576231
0.0012925    -0.9994106  -0.0009045   0.0003875  -0.0000664   0.0000140   0.0000076  -0.9151106   0.2580592
0.0013084    -0.9995426   0.0002815   0.0004015   0.0000016  -0.0000049   0.0000097  -0.9149123   0.2575421
0.0013245    -0.9988225  -0.0009955   0.0004612   0.0000091   0.0000181  -0.0000016  -0.9155488   0.2580240
0.0013408    -0.9997293   0.0000586   0.0003610  -0.0000041   0.0000024  -0.0000096  -0.9153819   0.2572752
0.0013572    -0.9986623  -0.0006724   0.0004743   0.0000042   0.0000187   0.0000077  -0.9163567   0.2576933
0.0013739    -0.9994559   0.0001574   0.0004143   0.0000196   0.0000133   0.0000164  -0.9162218   0.2575399
0.0013908    -0.9984971  -0.0003043   0.0004424  -0.0000043   0.0000136   0.0000045  -0.9169530   0.2576089
0.0014079    -0.9996912   0.0001567   0.0003785   0.0000209  -0.0000214  -0.0000005  -0.9167295   0.2573538
0.0014252    -0.9984163  -0.0001167   0.0004756   0.0000064   0.0000186   0.0000247  -0.9176592   0.2572531
0.0014427    -1.0000255  -0.0000045   0.0003967  -0.0000080  -0.0000097  -0.0000156  -0.9173659   0.2571991
0.0014605    -0.9987784  -0.0004751   0.0004395   0.0000118   0.0000009  -0.0000180  -0.9180822   0.2573986
0.0014784    -0.9995735   0.0004765   0.0004127   0.0000129  -0.0000049   0.0000082  -0.9178605   0.2569127
0.0014966    -0.9999217  -0.0002744   0.0004103  -0.0000051   0.0000002  -0.0000287  -0.9186111   0.2574162
0.0015150    -0.9988428   0.0001183   0.0004306   0.0000233   0.0000270   0.0000241  -0.9189818   0.2573396
0.0015336    -0.9993099   0.0002386   0.0003710   0.0000492  -0.0000074  -0.0000028  -0.9190102   0.2570696
0.0015525    -1.0002330   0.0002616   0.0003813  -0.0000216  -0.0000076  -0.0000167  -0.9190290   0.2573496
0.0015716    -0.9993867   0.0000004   0.0003830   0.0000044   0.0000126  -0.0000211  -0.9196280   0.2571869
0.0015909    -0.9995855  -0.0007088   0.0003987  -0.0000231   0.0000100  -0.0000345  -0.9199847   0.2575694
0.0016104    -0.9991064   0.0001486   0.0004433   0.0000411  -0.0000243   0.0000094  -0.9203199   0.2569523
0.0016302    -0.9998556  -0.0002525   0.0004188  -0.0000161   0.0000135  -0.0000063  -0.9203642   0.2573044
0.0016503    -0.9988883  -0.0004756   0.0004483   0.0000249   0.0000088  -0.0000100  -0.9213751   0.2574882
0.0016706    -0.9992917  -0.0001938   0.0004260  -0.0000007   0.0000033  -0.0000045  -0.9211996   0.2574022
0.0016911    -0.9992483   0.0002159   0.0004145   0.0000288  -0.0000210  -0.0000159  -0.9218180   0.2570958
0.0017119    -0.9994624  -0.0002283   0.0004016  -0.0000057  -0.0000161  -0.0000298  -0.9218589   0.2574357
0.0017329    -0.9990118  -0.0001390   0.0004379  -0.0000175  -0.0000031   0.0000134  -0.9220861   0.2573962
0.0017542    -0.9988428   0.0002200   0.0004266   0.0000500   0.0000071   0.0000175  -0.9225671   0.2571541
0.0017758    -0.9991300  -0.0000931   0.0004060   0.0000044  -0.0000018  -0.0000029  -0.9227763   0.2574617
0.0017976    -0.9989189   0.0000274   0.0004196   0.0000245   0.0000059  -0.0000063  -0.9233452   0.2574793
0.0018197    -0.9996548   0.0003834   0.0003563   0.0000437  -0.0000150  -0.0000040  -0.9231438   0.2573279
0.0018421    -0.9995520  -0.0000966   0.0004153   0.0000050   0.0000151  -0.0000070  -0.9238326   0.2577191
0.0018648    -0.9992267   0.0003526   0.0003621   0.0000164  -0.0000028   0.0000040  -0.9239003   0.2574820
0.0018877    -0.9999374   0.0000066   0.0003703  -0.0000035  -0.0000105  -0.0000158  -0.9239804   0.2577066
0.0019109    -0.9990753   0.0000672   0.0004100   0.0000080  -0.0000036   0.0000066  -0.9248491   0.2579357
0.0019344    -0.9992875   0.0000322   0.0003928   0.0000145  -0.0000050  -0.0000064  -0.9247153   0.2577397
0.0019582    -0.9998378   0.0000753   0.0003732  -0.0000049   0.0000018  -0.0000051  -0.9248236   0.2579512
0.0019822    -0.9993933  -0.0003965   0.0004364   0.0000009   0.0000061   0.0000007  -0.9256894   0.2580907
0.0020066    -0.9995517  -0.0001893   0.0003998   0.0000159   0.0000030   0.0000010  -0.9257598   0.2582423
0.0020313    -0.9986594   0.0000229   0.0004242   0.0000168   0.0000072   0.0000076  -0.9261621   0.2581689
0.0020562    -0.9990954  -0.0001163   0.0004006   0.0000210  -0.0000161  -0.0000018  -0.9265384   0.2580705
0.0020815    -0.9995578  -0.0000047   0.0003693  -0.0000211   0.0000003  -0.0000015  -0.9265952   0.2584793
0.0021071    -0.9994713   0.0000723   0.0004169  -0.0000096  -0.0000104  -0.0000033  -0.9270215   0.2585237
0.0021330    -0.9995856  -0.0002005   0.0004064   0.0000043  -0.0000010  -0.0000229  -0.9272019   0.2587586
0.0021592    -0.9992068  -0.0001412   0.0004604  -0.0000187  -0.0000025  -0.0000190  -0.9277383   0.2588852
0.0021858    -0.9990281   0.0000882   0.0004066   0.0000223  -0.0000026  -0.0000044  -0.9279115   0.2586740
0.0022126    -0.9993969  -0.0001069   0.0003988  -0.0000092  -0.0000054  -0.0000144  -0.9280733   0.2590422
0.0022398    -0.9993759  -0.0000489   0.0004044   0.0000097  -0.0000122   0.0000062  -0.9283379   0.2590142
0.0022674    -0.9995169  -0.0002292   0.0003810  -0.0000018   0.0000047  -0.0000181  -0.9287816   0.2593020
0.0022953    -0.9994150  -0.0002930   0.0004435  -0.0000143   0.0000060  -0.0000025  -0.9290308   0.2594769
0.0023235    -0.9990677   0.0000655   0.0004211   0.0000017  -0.0000061  -0.0000002  -0.9294341   0.2594680
0.0023520    -0.9995133  -0.0000947   0.0003741   0.0000093  -0.0000078  -0.0000054  -0.9292532   0.2594361
0.0023809    -0.9992231  -0.0001094   0.0004279   0.0000120  -0.0000079   0.0000077  -0.9299422   0.2596373
0.0024102    -0.9994745  -0.0001477   0.0003995  -0.0000093   0.0000131   0.0000064  -0.9298942   0.2598229
0.0024398    -0.9993746  -0.0001577   0.0003922   0.0000222   0.0000033   0.0000032  -0.9303333   0.2599209
0.0024698    -0.9994614  -0.0001056   0.0004191   0.0000325   0.0000079  -0.0000170  -0.9305707   0.2602177
0.0025002    -0.9993962   0.0000042   0.0003911  -0.0000149  -0.0000013  -0.0000042  -0.9307198   0.2603729
0.0025309    -0.9995244  -0.0002330   0.0004052  -0.0000122  -0.0000087  -0.0000112  -0.9309336   0.2606611
0.0025621    -0.9993829  -0.0007193   0.0004312  -0.0000148   0.0000070  -0.0000087  -0.9313972   0.2606534
0.0025935    -0.9993480  -0.0003242   0.0004339  -0.0000027  -0.0000057  -0.0000035  -0.9316742   0.2605261
0.0026254    -0.9994043   0.0001722   0.0004288   0.0000151  -0.0000042  -0.0000026  -0.9317934   0.2605545
0.0026577    -0.9993959   0.0000615   0.0003929   0.0000164  -0.0000107  -0.0000105  -0.9319015   0.2609742
0.0026904    -0.9994552  -0.0005461   0.0004092  -0.0000136  -0.0000128  -0.0000062  -0.9320964   0.2613407
0.0027235    -0.9992619  -0.0001662   0.0004285   0.0000015  -0.0000013  -0.0000137  -0.9327563   0.2611832
0.0027569    -0.9994378   0.0001204   0.0003918   0.0000248  -0.0000088  -0.0000033  -0.9327095   0.2612955
0.0027908    -0.9995243  -0.0001688   0.0004001   0.0000009   0.0000059  -0.0000083  -0.9327881   0.2617246
0.0028251    -0.9993472  -0.0003230   0.0004062  -0.0000037   0.0000069   0.0000018  -0.9332618   0.2618815
0.0028599    -0.9992028   0.0000933   0.0004320   0.0000051  -0.0000022   0.0000010  -0.9334185   0.2618729
0.0028950    -0.9993672   0.0001233   0.0003978   0.0000419   0.0000031   0.0000025  -0.9336124   0.2618484
0.0029306    -0.9995800  -0.0000914   0.0003964  -0.0000190  -0.0000042  -0.0000190  -0.9337557   0.2620064
0.0029666    -0.9994812  -0.0000935   0.0003893  -0.0000055   0.0000131  -0.0000065  -0.9339990   0.2622600
0.0030031    -0.9993212  -0.0002128   0.0003900   0.0000063  -0.0000049   0.0000133  -0.9341076   0.2625548
0.0030400    -0.9994223   0.0000111   0.0003978  -0.0000042  -0.0000027  -0.0000165  -0.9343379   0.2628196
0.0030774    -0.9993597   0.0001502   0.0003826   0.0000094  -0.0000097  -0.0000045  -0.9345217   0.2629743
0.0031152    -0.9994712  -0.0003056   0.0004007   0.0000136   0.0000102   0.0000018  -0.9348862   0.2629809
0.0031535    -0.9994567  -0.0001394   0.0003898  -0.0000054  -0.0000035  -0.0000120  -0.9349260   0.2633534
0.0031923    -0.9993326  -0.0002362   0.0004106   0.0000051   0.0000126  -0.0000124  -0.9353236   0.2634966
0.0032315    -0.9992708   0.0000528   0.0004097   0.0000181  -0.0000004  -0.0000064  -0.9355121   0.2636469
0.0032713    -0.9992940  -0.0002074   0.0004063  -0.0000077   0.0000023  -0.0000089  -0.9356770   0.2636865
0.0033115    -0.9995559  -0.0000964   0.0004189  -0.0000037   0.0000084  -0.0000006  -0.9357024   0.2639999
0.0033522    -0.9994444   0.0000023   0.0004250   0.0000019  -0.0000109  -0.0000057  -0.9360229   0.2644064
0.0033934    -0.9994747  -0.0000559   0.0004121  -0.0000118   0.0000014   0.0000021  -0.9362628   0.2642656
0.0034351    -0.9993137   0.0003402   0.0003934  -0.0000195  -0.0000013   0.0000084  -0.9364516   0.2645556
0.0034773    -0.9994377  -0.0000726   0.0004233  -0.0000023   0.0000084  -0.0000086  -0.9364323   0.2647053
0.0035201    -0.9991195  -0.0001610   0.0004124   0.0000356   0.0000056  -0.0000029  -0.9367876   0.2648143
0.0035634    -0.9992869   0.0001333   0.0003957   0.0000060   0.0000070  -0.0000048  -0.9368663   0.2649771
0.0036072    -0.9992967   0.0000085   0.0004050   0.0000040  -0.0000008  -0.0000046  -0.9369396   0.2652301
0.0036515    -0.9994089   0.0001790   0.0004069   0.0000156  -0.0000051   0.0000044  -0.9372120   0.2655556
0.0036964    -0.9994129  -0.0000281   0.0003828   0.0000049  -0.0000114   0.0000007  -0.9371598   0.2658447
0.0037418    -0.9994693  -0.0001987   0.0003959  -0.0000003   0.0000014  -0.0000077  -0.9373776   0.2659021
0.0037878    -0.9995133  -0.0002755   0.0003920  -0.0000148   0.0000009  -0.0000191  -0.9374859   0.2660117
0.0038344    -0.9993323  -0.0002357   0.0004124  -0.0000011   0.0000059  -0.0000063  -0.9376847   0.2663411
0.0038815    -0.9992911  -0.0000094   0.0004235   0.0000172  -0.0000009   0.0000041  -0.9378065   0.2664228
0.0039293    -0.9996151   0.0001793   0.0004143   0.0000072   0.0000049  -0.0000071  -0.9379777   0.2663981
0.0039776    -0.9994112  -0.0000046   0.0004204   0.0000110  -0.0000018  -0.0000120  -0.9381920   0.2668196
0.0040265    -0.9993777   0.0000631   0.0004095   0.0000043   0.0000000   0.0000014  -0.9383100   0.2667670
0.0040759    -0.9993612   0.0001671   0.0003928  -0.0000151  -0.0000007   0.0000008  -0.9384242   0.2671272
0.0041261    -0.9992397  -0.0001448   0.0004073   0.0000277   0.0000015  -0.0000048  -0.9385339   0.2672093
0.0041768    -0.9994710  -0.0001340   0.0003971   0.0000110  -0.0000009   0.0000009  -0.9387328   0.2675105
0.0042281    -0.9992148   0.0000444   0.0003973   0.0000234   0.0000064  -0.0000054  -0.9388509   0.2677209
0.0042801    -0.9994877  -0.0000738   0.0004151  -0.0000103   0.0000041  -0.0000002  -0.9389324   0.2679158
0.0043327    -0.9995983  -0.0002180   0.0004068   0.0000106  -0.0000035  -0.0000042  -0.9390299   0.2683019
0.0043860    -0.9993949  -0.0000723   0.0004059   0.0000239  -0.0000025   0.0000091  -0.9392749   0.2683077
0.0044399    -0.9994201  -0.0001232   0.0003997   0.0000066   0.0000007  -0.0000043  -0.9393379   0.2684832
0.0044945    -0.9992095  -0.0001598   0.0004008  -0.0000003  -0.0000065  -0.0000034  -0.9394909   0.2686169
0.0045497    -0.9995837  -0.0000722   0.0003922  -0.0000008  -0.0000109  -0.0000034  -0.9394766   0.2688047
0.0046057    -0.9996302  -0.0002451   0.0003976   0.0000053  -0.0000053   0.0000049  -0.9395575   0.2689400
0.0046623    -0.9995707  -0.0000825   0.0004045  -0.0000186   0.0000035  -0.0000071  -0.9395089   0.2692334
0.0047196    -0.9993244  -0.0001510   0.0004192   0.0000017  -0.0000083  -0.0000009  -0.9398293   0.2694102
0.0047776    -0.9993739  -0.0001185   0.0003975  -0.0000118   0.0000065  -0.0000104  -0.9398891   0.2695281
0.0048363    -0.9995368  -0.0002725   0.0004247   0.0000090   0.0000003  -0.0000094  -0.9399332   0.2697804
0.0048958    -0.9995460  -0.0001286   0.0004126  -0.0000001  -0.0000047  -0.0000137  -0.9400721   0.2700554
0.0049560    -0.9995830  -0.0000728   0.0004271  -0.0000023  -0.0000099  -0.0000067  -0.9402632   0.2701632
0.0050169    -0.9993364  -0.0001686   0.0003997   0.0000157  -0.0000178   0.0000051  -0.9403351   0.2701639
0.0050786    -0.9993924  -0.0001492   0.0003890   0.0000033   0.0000062   0.0000011  -0.9403187   0.2703988
0.0051410    -0.9993470  -0.0003171   0.0004043  -0.0000024  -0.0000039  -0.0000105  -0.9404152   0.2706001
0.0052042    -0.9994018   0.0002239   0.0004028  -0.0000178   0.0000035  -0.0000032  -0.9405021   0.2708001
0.0052682    -0.9996714  -0.0001067   0.0004105  -0.0000189   0.0000060  -0.0000054  -0.9406327   0.2710467
0.0053330    -0.9992629   0.0001176   0.0004341  -0.0000022  -0.0000089  -0.0000088  -0.9406896   0.2711812
0.0053985    -0.9994570  -0.0001508   0.0004194   0.0000077  -0.0000131  -0.0000073  -0.9407775   0.2713440
0.0054649    -0.9993128  -0.0001024   0.0004058   0.0000139   0.0000164  -0.0000018  -0.9409076   0.2714998
0.0055321    -0.9992783   0.0000497   0.0004248  -0.0000017  -0.0000015  -0.0000112  -0.9409565   0.2716945
0.0056001    -0.9992640  -0.0001245   0.0004410   0.0000137   0.0000146   0.0000031  -0.9411138   0.2719386
0.0056689    -0.9993295   0.0000237   0.0003935   0.0000091  -0.0000082  -0.0000200  -0.9411273   0.2720064
0.0057386    -0.9993771  -0.0000992   0.0004180  -0.0000070   0.0000036  -0.0000155  -0.9411893   0.2721200
0.0058091    -0.9994368  -0.0000347   0.0003942   0.0000051   0.0000022   0.0000047  -0.9411386   0.2723728
0.0058806    -0.9995410  -0.0001003   0.0003961   0.0000286  -0.0000013  -0.0000061  -0.9411190   0.2724188
0.0059529    -0.9993148  -0.0000304   0.0003805   0.0000148  -0.0000054  -0.0000104  -0.9412062   0.2727041
0.0060260    -0.9994975  -0.0001893   0.0003878  -0.0000128  -0.0000053  -0.0000183  -0.9412507   0.2727098
0.0061001    -0.9995102   0.0000077   0.0003963   0.0000012  -0.0000142  -0.0000055  -0.9413455   0.2729546
0.0061751    -0.9994117  -0.0000646   0.0004041  -0.0000156   0.0000003   0.0000049  -0.9413314   0.2731470
0.0062510    -0.9992783  -0.0001191   0.0003887   0.0000277  -0.0000030  -0.0000002  -0.9415101   0.2732916
0.0063279    -0.9992656  -0.0001144   0.0003925  -0.0000001  -0.0000043  -0.0000012  -0.9416430   0.2734560
0.0064056    -0.9993510   0.0000318   0.0004002  -0.0000035   0.0000044  -0.0000061  -0.9416371   0.2736081
0.0064844    -0.9994292  -0.0000190   0.0004155   0.0000272   0.0000000  -0.0000076  -0.9416977   0.2736701
0.0065641    -0.9995286  -0.0001078   0.0003918   0.0000038  -0.0000063  -0.0000193  -0.9415242   0.2737903
0.0066448    -0.9993592  -0.0000992   0.0003787  -0.0000095   0.0000005  -0.0000093  -0.9416728   0.2739591
0.0067265    -0.9993095   0.0000304   0.0004136   0.0000038  -0.0000082   0.0000041  -0.9417777   0.2741424
0.0068092    -0.9992990   0.0000097   0.0003908   0.0000172   0.0000036   0.0000010  -0.9418365   0.2743665
0.0068929    -0.9995347   0.0000563   0.0003937  -0.0000043   0.0000128  -0.0000086  -0.9418909   0.2744498
0.0069776    -0.9994291   0.0000072   0.0003947   0.0000208   0.0000024  -0.0000116  -0.9420478   0.2746782
0.0070634    -0.9993533  -0.0001008   0.0004069   0.0000051   0.0000023  -0.0000052  -0.9419420   0.2748400
0.0071502    -0.9994593  -0.0000036   0.0003965   0.0000097   0.0000031  -0.0000154  -0.9419125   0.2748555
0.0072381    -0.9995456   0.0000107   0.0003830  -0.0000023  -0.0000033  -0.0000122  -0.9418756   0.2750367
0.0073271    -0.9993147  -0.0001283   0.0003978   0.0000080  -0.0000089  -0.0000030  -0.9420109   0.2752536
0.0074172    -0.9993992   0.0000400   0.0003937   0.0000052   0.0000121  -0.0000083  -0.9421284   0.2753567
0.0075084    -0.9992738  -0.0000664   0.0004276   0.0000059   0.0000064  -0.0000108  -0.9421577   0.2755385
0.0076007    -0.9994731  -0.0001370   0.0003995   0.0000033   0.0000004  -0.0000116  -0.9421461   0.2756577
0.0076941    -0.9993866  -0.0001137   0.0003922   0.0000121  -0.0000021   0.0000084  -0.9421786   0.2759126
0.0077887    -0.9993813  -0.0001392   0.0003957   0.0000128   0.0000107  -0.0000020  -0.9421820   0.2759312
0.0078844    -0.9994311  -0.0000680   0.0003984   0.0000045  -0.0000035  -0.0000018  -0.9422685   0.2760016
0.0079814    -0.9993934  -0.0000956   0.0003902   0.0000051   0.0000006  -0.0000059  -0.9422404   0.2762762
0.0080795    -0.9995457   0.0000630   0.0003897   0.0000124   0.0000058  -0.0000034  -0.9423989   0.2763341
0.0081788    -0.9993310  -0.0001564   0.0004018   0.0000293  -0.0000045   0.0000043  -0.9422137   0.2765218
0.0082793    -0.9994231   0.0000577   0.0003978   0.0000239  -0.0000005  -0.0000093  -0.9423942   0.2765888
0.0083811    -0.9995902   0.0000016   0.0004043   0.0000138  -0.0000037   0.0000070  -0.9423573   0.2767983
0.0084842    -0.9994457  -0.0000198   0.0004061  -0.0000093  -0.0000016   0.0000005  -0.9423313   0.2768930
0.0085885    -0.9993495   0.0000346   0.0003783  -0.0000091   0.0000015  -0.0000070  -0.9424398   0.2769427
0.0086940    -0.9993114  -0.0001067   0.0004057   0.0000194   0.0000127  -0.0000141  -0.9423699   0.2771411
0.0088009    -0.9993268  -0.0002059   0.0004127   0.0000094   0.0000002   0.0000062  -0.9423860   0.2772914
0.0089091    -0.9994420  -0.0000749   0.0004041   0.0000011   0.0000024  -0.0000112  -0.9423989   0.2774866
0.0090186    -0.9994924  -0.0000003   0.0004053   0.0000141  -0.0000090  -0.0000046  -0.9424998   0.2774735
0.0091295    -0.9993288  -0.0000976   0.0003890  -0.0000030   0.0000055  -0.0000005  -0.9425199   0.2777457
0.0092417    -0.9993323  -0.0000981   0.0004053   0.0000108   0.0000093  -0.0000054  -0.9424069   0.2777833
0.0093553    -0.9994696  -0.0000117   0.0003880   0.0000049   0.0000041  -0.0000095  -0.9424297   0.2779104
0.0094703    -0.9994701   0.0000304   0.0004031   0.0000141   0.0000006   0.0000108  -0.9425230   0.2779699
0.0095868    -0.9995550  -0.0002106   0.0004000   0.0000067  -0.0000033  -0.0000074  -0.9424579   0.2781670
0.0097046    -0.9993722   0.0000839   0.0004041   0.0000020  -0.0000017   0.0000127  -0.9425030   0.2781965
0.0098239    -0.9995200   0.0000173   0.0003881   0.0000190  -0.0000008   0.0000001  -0.9425577   0.2783250
0.0099447    -0.9994530   0.0001163   0.0003927   0.0000100  -0.0000004  -0.0000051  -0.9425478   0.2783615
0.0100669    -0.9994745   0.0000666   0.0003881   0.0000028  -0.0000093  -0.0000186  -0.9425242   0.2785836
0.0101907    -0.9993755  -0.0000932   0.0004040   0.0000095  -0.0000033  -0.0000092  -0.9425358   0.2786114
0.0103160    -0.9994352   0.0000754   0.0003929   0.0000001   0.0000116  -0.0000083  -0.9425019   0.2787091
0.0104428    -0.9993195  -0.0000896   0.0004127   0.0000023  -0.0000035   0.0000003  -0.9425838   0.2789201
0.0105712    -0.9992369  -0.0000840   0.0004104  -0.0000054   0.0000088   0.0000015  -0.9425830   0.2789347
0.0107011    -0.9994925   0.0000856   0.0003952   0.0000019   0.0000044  -0.0000051  -0.9426090   0.2791118
0.0108327    -0.9995262  -0.0000775   0.0004057  -0.0000006   0.0000012  -0.0000062  -0.9425325   0.2791449
0.0109658    -0.9994832  -0.0000239   0.0003859   0.0000060  -0.0000070  -0.0000045  -0.9426464   0.2792784
0.0111006    -0.9994325  -0.0000405   0.0003935   0.0000037  -0.0000041  -0.0000068  -0.9426136   0.2795289
0.0112371    -0.9994888   0.0000955   0.0004178   0.0000077  -0.0000054   0.0000003  -0.9426557   0.2794251
0.0113752    -0.9995422  -0.0000364   0.0004044   0.0000326  -0.0000107   0.0000007  -0.9425597   0.2795968
0.0115151    -0.9993065  -0.0000624   0.0004277   0.0000299   0.0000003  -0.0000004  -0.9427017   0.2798539
0.0116566    -0.9994964   0.0000760   0.0003868   0.0000263  -0.0000025  -0.0000093  -0.9425976   0.2797545
0.0117999    -0.9994678  -0.0001364   0.0004185   0.0000143  -0.0000078  -0.0000039  -0.9426702   0.2800117
0.0119450    -0.9996345  -0.0004888   0.0004160   0.0000177  -0.0000012   0.0000006  -0.9434624   0.2782170
0.0120918    -0.9994823  -0.0000392   0.0003947   0.0000134   0.0000006  -0.0000104  -0.9426943   0.2801527
0.0122405    -0.9994371  -0.0000968   0.0003949   0.0000216  -0.0000107   0.0000039  -0.9427471   0.2801706
0.0123910    -0.9995260  -0.0000819   0.0003858   0.0000107  -0.0000042  -0.0000100  -0.9426088   0.2804391
0.0125433    -0.9994360  -0.0000981   0.0004041   0.0000024  -0.0000016   0.0000043  -0.9427097   0.2803775
0.0126975    -0.9993988  -0.0000972   0.0003816   0.0000146  -0.0000036  -0.0000023  -0.9425424   0.2804387
0.0128536    -0.9994697  -0.0000781   0.0003750   0.0000132   0.0000036  -0.0000033  -0.9426407   0.2806492
0.0130116    -0.9994822  -0.0001004   0.0003907   0.0000090   0.0000031   0.0000037  -0.9426215   0.2806846
0.0131716    -0.9994104  -0.0000352   0.0003900   0.0000003  -0.0000045   0.0000010  -0.9426642   0.2806807
0.0133335    -0.9994897  -0.0000448   0.0004073  -0.0000095  -0.0000017  -0.0000095  -0.9425145   0.2809397
0.0134974    -0.9993500  -0.0001038   0.0003912  -0.0000055   0.0000014  -0.0000020  -0.9425677   0.2809175
0.0136633    -0.9994971  -0.0000857   0.0003791   0.0000071   0.0000013  -0.0000062  -0.9426221   0.2811150
0.0138313    -0.9994282  -0.0001057   0.0003945   0.0000175  -0.0000014  -0.0000050  -0.9425397   0.2811490
0.0140013    -0.9993245  -0.0000352   0.0003891  -0.0000069  -0.0000043  -0.0000027  -0.9426175   0.2812854
0.0141734    -0.9995247  -0.0002159   0.0004067   0.0000094  -0.0000133  -0.0000052  -0.9426482   0.2814176
0.0143477    -0.9993759  -0.0000634   0.0003837   0.0000213   0.0000019  -0.0000050  -0.9426134   0.2813920
0.0145240    -0.9993780  -0.0000992   0.0003779  -0.0000018   0.0000018   0.0000028  -0.9426510   0.2814696
0.0147026    -0.9994405  -0.0000064   0.0003921   0.0000080   0.0000098  -0.0000082  -0.9425887   0.2815431
0.0148833    -0.9995259   0.0000609   0.0003931   0.0000155  -0.0000038  -0.0000085  -0.9425701   0.2817147
0.0150663    -0.9994130  -0.0001525   0.0003896   0.0000057   0.0000025  -0.0000094  -0.9425500   0.2817628
0.0152515    -0.9994163   0.0000027   0.0003740   0.0000155  -0.0000064  -0.0000097  -0.9425577   0.2819218
0.0154390    -0.9993550  -0.0000559   0.0003906   0.0000130  -0.0000151   0.0000062  -0.9425825   0.2819117
0.0156288    -0.9994025  -0.0002051   0.0003992   0.0000197  -0.0000092  -0.0000074  -0.9426634   0.2819290
0.0158209    -0.9994439  -0.0001108   0.0003919   0.0000133  -0.0000031  -0.0000088  -0.9425187   0.2819562
0.0160154    -0.9994771  -0.0000755   0.0003906   0.0000030   0.0000012  -0.0000067  -0.9425096   0.2821765
0.0162123    -0.9993346  -0.0000297   0.0004057   0.0000245  -0.0000041  -0.0000005  -0.9424733   0.2823458
0.0164116    -0.9993751  -0.0000458   0.0004167   0.0000241   0.0000020  -0.0000133  -0.9425390   0.2823374
0.0166134    -0.9994014  -0.0000313   0.0004012   0.0000032   0.0000025   0.0000024  -0.9424725   0.2825105
0.0168176    -0.9994870  -0.0000720   0.0003849   0.0000120   0.0000023  -0.0000011  -0.9425681   0.2824212
0.0170243    -0.9993391  -0.0000287   0.0003948  -0.0000059  -0.0000044  -0.0000021  -0.9425075   0.2825839
0.0172336    -0.9995388   0.0000044   0.0003771   0.0000134   0.0000039  -0.0000065  -0.9424701   0.2825693
0.0174455    -0.9993558   0.0000097   0.0003700   0.0000230  -0.0000069   0.0000054  -0.9424511   0.2826684
0.0176599    -0.9994299  -0.0000553   0.0003912   0.0000026  -0.0000030  -0.0000096  -0.9424459   0.2827776
0.0178770    -0.9994115   0.0000175   0.0003988   0.0000179  -0.0000056   0.0000042  -0.9424224   0.2829245
0.0180968    -0.9994084   0.0000621   0.0004094   0.0000142  -0.0000086  -0.0000035  -0.9424302   0.2828374
0.0183193    -0.9994808  -0.0000361   0.0004100   0.0000298   0.0000087  -0.0000044  -0.9424509   0.2830002
0.0185445    -0.9994085  -0.0000783   0.0004010   0.0000151   0.0000103  -0.0000060  -0.9424455   0.2830423
0.0187724    -0.9993916  -0.0001464   0.0004165   0.0000000   0.0000036   0.0000011  -0.9423371   0.2830841
0.0190032    -0.9994905  -0.0000484   0.0003949   0.0000208  -0.0000030  -0.0000051  -0.9424280   0.2831313
0.0192368    -0.9995402   0.0000575   0.0003939   0.0000094   0.0000020   0.0000008  -0.9425254   0.2832695
0.0194733    -0.9993442  -0.0000276   0.0004105  -0.0000019   0.0000098  -0.0000044  -0.9424154   0.2833488
0.0197127    -0.9994919  -0.0000787   0.0003786  -0.0000038  -0.0000072  -0.0000149  -0.9423865   0.2834325
0.0199550    -0.9994352  -0.0000069   0.0004109   0.0000125  -0.0000085  -0.0000115  -0.9424142   0.2834576
0.0202003    -0.9995488  -0.0000527   0.0003935   0.0000235  -0.0000027  -0.0000121  -0.9424186   0.2834956
0.0204487    -0.9995181  -0.0001151   0.0004105   0.0000059  -0.0000126  -0.0000027  -0.9423482   0.2836018
0.0207001    -0.9994645   0.0000278   0.0003925   0.0000165  -0.0000050  -0.0000153  -0.9422820   0.2836091
0.0209545    -0.9993385  -0.0000529   0.0003949  -0.0000070  -0.0000042  -0.0000062  -0.9422991   0.2836966
0.0212121    -0.9993354  -0.0001274   0.0004176  -0.0000015   0.0000013   0.0000014  -0.9422630   0.2838958
0.0214729    -0.9994120  -0.0000674   0.0003906   0.0000214  -0.0000082  -0.0000137  -0.9423046   0.2839225
0.0217369    -0.9994535   0.0000371   0.0003828   0.0000223   0.0000177  -0.0000012  -0.9422967   0.2839207
0.0220041    -0.9994813   0.0000566   0.0004085   0.0000068  -0.0000034  -0.0000052  -0.9423316   0.2839710
0.0222746    -0.9994329  -0.0000832   0.0004049  -0.0000157   0.0000044  -0.0000094  -0.9421834   0.2840686
0.0225484    -0.9994984  -0.0000933   0.0003982   0.0000219  -0.0000069   0.0000029  -0.9421589   0.2840821
0.0228256    -0.9994348  -0.0001025   0.0003956   0.0000241  -0.0000015   0.0000000  -0.9422130   0.2841121
0.0231062    -0.9994026   0.0000099   0.0003934   0.0000060  -0.0000071  -0.0000067  -0.9422103   0.2841453
0.0233902    -0.9994610  -0.0000386   0.0004125   0.0000038  -0.0000062   0.0000041  -0.9421501   0.2842650
0.0236778    -0.9994893  -0.0000211   0.0003983   0.0000160   0.0000026  -0.0000065  -0.9421274   0.2843437
0.0239689    -1.0000600   0.0012729   0.0004139   0.0000477  -0.0000034  -0.0000028  -0.9431943   0.2849166
0.0242635    -0.9994929   0.0000275   0.0003849   0.0000062   0.0000020  -0.0000015  -0.9421554   0.2844378
0.0245618    -0.9994763  -0.0000804   0.0004041   0.0000191  -0.0000175  -0.0000006  -0.9420997   0.2845678
0.0248637    -0.9993740  -0.0000736   0.0004122   0.0000105  -0.0000010  -0.0000011  -0.9421057   0.2846436
0.0251694    -0.9995536  -0.0000326   0.0004040   0.0000155  -0.0000045  -0.0000092  -0.9421237   0.2846718
0.0254788    -0.9994603   0.0000709   0.0003982   0.0000182  -0.0000051  -0.0000060  -0.9420106   0.2847303
0.0257920    -0.9995931  -0.0000187   0.0004035   0.0000168   0.0000011  -0.0000116  -0.9420984   0.2848583
0.0261091    -0.9994415  -0.0001317   0.0004011   0.0000058   0.0000032  -0.0000093  -0.9419308   0.2848252
0.0264301    -0.9994327  -0.0001396   0.0003983   0.0000179   0.0000051  -0.0000114  -0.9420806   0.2849199
0.0267550    -0.9993535  -0.0000305   0.0003920   0.0000167  -0.0000017   0.0000036  -0.9419236   0.2849455
0.0270839    -0.9994605  -0.0001328   0.0004073   0.0000056  -0.0000150  -0.0000070  -0.9420152   0.2849370
0.0274168    -0.9994455  -0.0001095   0.0004038   0.0000264  -0.0000071  -0.0000091  -0.9419723   0.2849874
0.0277539    -0.9994810   0.0000319   0.0003953   0.0000220  -0.0000055  -0.0000124  -0.9418585   0.2850718
0.0280951    -0.9995094  -0.0000476   0.0003919   0.0000170  -0.0000084  -0.0000131  -0.9418695   0.2851680
0.0284404    -0.9994585   0.0000154   0.0004057   0.0000065  -0.0000050  -0.0000027  -0.9418926   0.2852433
0.0287901    -0.9993377   0.0000301   0.0003912   0.0000136  -0.0000104  -0.0000071  -0.9419360   0.2851845
0.0291440    -0.9995179  -0.0000834   0.0004112   0.0000166   0.0000046  -0.0000088  -0.9418947   0.2853351
0.0295023    -0.9994406  -0.0001195   0.0004039   0.0000142   0.0000158   0.0000033  -0.9418181   0.2853636
0.0298649    -0.9994498   0.0000035   0.0003966   0.0000194   0.0000090  -0.0000008  -0.9418149   0.2853996
0.0302321    -0.9994041  -0.0000960   0.0003975   0.0000145   0.0000043  -0.0000058  -0.9417208   0.2854923
0.0306037    -0.9994443  -0.0001720   0.0004019   0.0000230  -0.0000045  -0.0000008  -0.9417143   0.2855678
0.0309799    -0.9994882  -0.0000463   0.0003996   0.0000289  -0.0000045   0.0000013  -0.9418265   0.2855831
0.0313608    -0.9994094   0.0000050   0.0003953   0.0000224   0.0000041  -0.0000197  -0.9417779   0.2856653
0.0317463    -0.9995115  -0.0001424   0.0003980   0.0000038  -0.0000047   0.0000050  -0.9416988   0.2857371
0.0321366    -0.9992734  -0.0001366   0.0003984   0.0000218   0.0000041  -0.0000031  -0.9417880   0.2857474
0.0325316    -0.9993727  -0.0001107   0.0003988   0.0000136   0.0000030  -0.0000159  -0.9416747   0.2858300
0.0329316    -0.9993780  -0.0000141   0.0004097   0.0000306   0.0000071  -0.0000175  -0.9416642   0.2859160
0.0333364    -0.9995264  -0.0000823   0.0003919  -0.0000022   0.0000033  -0.0000037  -0.9416956   0.2859965
0.0337462    -0.9993817   0.0000109   0.0004134   0.0000084   0.0000003   0.0000066  -0.9415459   0.2858363
0.0341610    -0.9994616   0.0000502   0.0004200   0.0000189   0.0000031  -0.0000018  -0.9415890   0.2860550
0.0345810    -0.9994439   0.0000031   0.0004052   0.0000068   0.0000025  -0.0000054  -0.9415994   0.2860402
0.0350061    -0.9994268   0.0000053   0.0004035   0.0000146   0.0000041   0.0000028  -0.9416480   0.2861025
0.0354365    -0.9994207   0.0000472   0.0003879   0.0000144   0.0000008  -0.0000113  -0.9415532   0.2862356
0.0358721    -0.9995209  -0.0000304   0.0004069   0.0000196   0.0000027   0.0000040  -0.9415274   0.2861881
0.0363131    -0.9994198  -0.0000923   0.0003870   0.0000183  -0.0000035  -0.0000022  -0.9415787   0.2862180
0.0367595    -0.9994782  -0.0000181   0.0003977   0.0000192  -0.0000029  -0.0000134  -0.9414277   0.2863980
0.0372114    -0.9993773  -0.0001116   0.0004167   0.0000044   0.0000021  -0.0000147  -0.9414660   0.2864445
0.0376688    -0.9994829  -0.0001554   0.0003991   0.0000090  -0.0000015  -0.0000004  -0.9414265   0.2864517
0.0381319    -0.9994752  -0.0001551   0.0003879   0.0000111  -0.0000009  -0.0000148  -0.9414994   0.2864761
0.0386006    -0.9993916  -0.0000659   0.0003979   0.0000068  -0.0000001  -0.0000062  -0.9414738   0.2866139
0.0390752    -0.9994456  -0.0000582   0.0003866   0.0000071   0.0000058  -0.0000044  -0.9413666   0.2865701
0.0395555    -0.9993495  -0.0001090   0.0004066   0.0000311  -0.0000018  -0.0000008  -0.9413887   0.2866159
0.0400418    -0.9995357  -0.0000593   0.0004088   0.0000273  -0.0000059  -0.0000090  -0.9414225   0.2867169
0.0405340    -0.9993601  -0.0001067   0.0003996   0.0000189   0.0000032  -0.0000083  -0.9413678   0.2866962
0.0410323    -0.9993581  -0.0000931   0.0004064   0.0000127   0.0000113  -0.0000063  -0.9412536   0.2867964
0.0415368    -0.9994012  -0.0000244   0.0003886   0.0000267  -0.0000101   0.0000046  -0.9413906   0.2868516
0.0420474    -0.9994919   0.0000018   0.0003976   0.0000222  -0.0000032  -0.0000059  -0.9413047   0.2867908
0.0425643    -0.9993746  -0.0001190   0.0004055   0.0000221   0.0000041  -0.0000041  -0.9412317   0.2868349
0.0430875    -0.9995014  -0.0000394   0.0004031   0.0000086   0.0000041  -0.0000004  -0.9413051   0.2869693
0.0436172    -0.9992884  -0.0000481   0.0004112   0.0000328  -0.0000077  -0.0000074  -0.9412355   0.2870156
0.0441534    -0.9993291   0.0000415   0.0003994   0.0000169   0.0000004  -0.0000073  -0.9411886   0.2871031
0.0446962    -0.9994194  -0.0000321   0.0004031  -0.0000002  -0.0000045  -0.0000057  -0.9411981   0.2871376
0.0452457    -0.9993717  -0.0001049   0.0004116   0.0000268   0.0000028  -0.0000074  -0.9411458   0.2871384
0.0458019    -0.9994305  -0.0000848   0.0003976   0.0000061   0.0000017  -0.0000085  -0.9411226   0.2871739
0.0463649    -0.9993581  -0.0000368   0.0004158   0.0000302   0.0000098   0.0000013  -0.9410879   0.2872438
0.0469349    -0.9994497  -0.0000960   0.0004025   0.0000310  -0.0000076  -0.0000056  -0.9410962   0.2873527
0.0475119    -0.9994513  -0.0000953   0.0003972   0.0000251   0.0000017  -0.0000071  -0.9410704   0.2873649
0.0480960    -0.9995700  -0.0001141   0.0004114   0.0000276  -0.0000044  -0.0000019  -0.9409973   0.2874680
0.0486872    -0.9994180  -0.0002408   0.0004010   0.0000234  -0.0000129  -0.0000110  -0.9409651   0.2874875
0.0492857    -0.9993719  -0.0000444   0.0004144   0.0000232  -0.0000002  -0.0000042  -0.9409461   0.2875644
0.0498916    -0.9994589  -0.0001425   0.0004065   0.0000147  -0.0000045  -0.0000018  -0.9408737   0.2876173
0.0505050    -0.9993260  -0.0000414   0.0003785   0.0000183  -0.0000103  -0.0000166  -0.9409469   0.2876108
0.0511258    -0.9994472  -0.0001064   0.0004072   0.0000226  -0.0000017  -0.0000074  -0.9409396   0.2877756
0.0517543    -0.9993695  -0.0001232   0.0004079   0.0000274  -0.0000078  -0.0000062  -0.9409543   0.2877150
0.0523906    -0.9994919  -0.0000312   0.0003863   0.0000175   0.0000057  -0.0000072  -0.9408638   0.2877875
0.0530346    -0.9993587   0.0000034   0.0004084   0.0000115   0.0000032  -0.0000115  -0.9408033   0.2878187
0.0536866    -0.9994326  -0.0001042   0.0004142   0.0000186  -0.0000095  -0.0000167  -0.9408350   0.2878571
0.0543466    -0.9994908  -0.0000718   0.0003959   0.0000176  -0.0000052  -0.0000006  -0.9407425   0.2878680
0.0550146    -0.9995343  -0.0000656   0.0003937   0.0000270  -0.0000055  -0.0000045  -0.9407686   0.2879192
0.0556910    -0.9993813  -0.0001025   0.0003996   0.0000162  -0.0000121  -0.0000102  -0.9406990   0.2879734
0.0563756    -0.9992884  -0.0001160   0.0003989   0.0000220   0.0000018  -0.0000108  -0.9407175   0.2881117
0.0570686    -0.9994928  -0.0002366   0.0004042   0.0000153   0.0000006  -0.0000166  -0.9406780   0.2881488
0.0577702    -0.9993988  -0.0000901   0.0003919   0.0000244  -0.0000013  -0.0000054  -0.9406106   0.2882546
0.0584804    -0.9995363  -0.0001337   0.0004098   0.0000334   0.0000011  -0.0000075  -0.9405687   0.2881916
0.0591993    -0.9993643  -0.0001209   0.0004082   0.0000027   0.0000087   0.0000003  -0.9405477   0.2882490
0.0599270    -0.9994853  -0.0000847   0.0004023   0.0000164   0.0000084  -0.0000020  -0.9406534   0.2883762
0.0606637    -0.9994296  -0.0001452   0.0004040   0.0000339  -0.0000008  -0.0000084  -0.9404613   0.2883609
0.0614095    -0.9994315  -0.0001494   0.0003993   0.0000146  -0.0000130   0.0000009  -0.9405219   0.2883972
0.0621644    -0.9994167  -0.0001499   0.0004142   0.0000180  -0.0000010  -0.0000074  -0.9405535   0.2885076
0.0629286    -0.9994786  -0.0000748   0.0004170   0.0000159  -0.0000052  -0.0000012  -0.9404398   0.2884878
0.0637022    -0.9994447  -0.0001226   0.0003960   0.0000289   0.0000020  -0.0000046  -0.9403573   0.2886245
0.0644853    -0.9995012  -0.0001794   0.0004074   0.0000341  -0.0000014  -0.0000039  -0.9404157   0.2886764
0.0652780    -0.9994713  -0.0000727   0.0003939   0.0000125   0.0000039  -0.0000084  -0.9403190   0.2886986
0.0660805    -0.9994046  -0.0000034   0.0004022   0.0000451  -0.0000050  -0.0000067  -0.9402917   0.2888275
0.0668928    -0.9994147  -0.0001122   0.0004195   0.0000219  -0.0000128  -0.0000122  -0.9402203   0.2888212
0.0677152    -0.9994501  -0.0000440   0.0003956   0.0000271   0.0000000  -0.0000112  -0.9402024   0.2888230
0.0685476    -0.9993867  -0.0001701   0.0003893   0.0000400  -0.0000072  -0.0000117  -0.9401862   0.2888922
0.0693903    -0.9993977  -0.0002302   0.0004072   0.0000149  -0.0000004  -0.0000041  -0.9401122   0.2890172
0.0702433    -0.9994149  -0.0000459   0.0004051   0.0000244  -0.0000029   0.0000041  -0.9401311   0.2890242
0.0711068    -0.9993810  -0.0000639   0.0004111   0.0000315   0.0000037  -0.0000059  -0.9400895   0.2890692
0.0719810    -0.9995430  -0.0001364   0.0003954   0.0000222  -0.0000091   0.0000050  -0.9400307   0.2890734
0.0728659    -0.9994201  -0.0000746   0.0004110   0.0000377   0.0000052  -0.0000014  -0.9399982   0.2891921
0.0737616    -0.9993569  -0.0001309   0.0004046   0.0000330  -0.0000012   0.0000004  -0.9399166   0.2892475
0.0746684    -0.9994955  -0.0001158   0.0003987   0.0000258   0.0000073  -0.0000086  -0.9399425   0.2892933
0.0755863    -0.9993142  -0.0000491   0.0003974   0.0000320  -0.0000051  -0.0000018  -0.9398644   0.2893296
0.0765155    -0.9994529  -0.0000718   0.0004122   0.0000225  -0.0000040  -0.0000102  -0.9398543   0.2893451
0.0774561    -0.9994569  -0.0000447   0.0003997   0.0000468   0.0000021  -0.0000132  -0.9397228   0.2894283
0.0784083    -0.9994028  -0.0001801   0.0004087   0.0000140   0.0000033   0.0000006  -0.9396576   0.2894038
0.0793722    -0.9994940  -0.0002308   0.0003942   0.0000139  -0.0000042  -0.0000104  -0.9396161   0.2895158
0.0803479    -0.9994294  -0.0002106   0.0004048   0.0000227   0.0000014  -0.0000099  -0.9396115   0.2895176
0.0813357    -0.9994780  -0.0000722   0.0004105   0.0000315  -0.0000006  -0.0000007  -0.9394970   0.2895606
0.0823356    -0.9993912  -0.0001733   0.0004061   0.0000295  -0.0000053  -0.0000076  -0.9394075   0.2896695
0.0833477    -0.9993388  -0.0001225   0.0004167   0.0000259   0.0000061  -0.0000029  -0.9393761   0.2896456
0.0843723    -0.9993294  -0.0001003   0.0004114   0.0000074   0.0000086  -0.0000037  -0.9393115   0.2897923
0.0854095    -0.9993042  -0.0001657   0.0004053   0.0000270  -0.0000026  -0.0000074  -0.9392051   0.2896720
0.0864595    -0.9994736  -0.0001200   0.0004003   0.0000275  -0.0000029   0.0000073  -0.9391912   0.2898053
0.0875224    -0.9994089  -0.0001932   0.0004040   0.0000260   0.0000034  -0.0000104  -0.9391330   0.2897833
0.0885983    -0.9994584  -0.0000833   0.0003979   0.0000402  -0.0000022  -0.0000038  -0.9390844   0.2898074
0.0896875    -0.9994949  -0.0001683   0.0004006   0.0000211   0.0000089  -0.0000091  -0.9389901   0.2898603
0.0907900    -0.9993932  -0.0001410   0.0004018   0.0000398  -0.0000058  -0.0000009  -0.9389029   0.2897670
0.0919061    -0.9994569  -0.0000155   0.0004033   0.0000333   0.0000026   0.0000009  -0.9387465   0.2898359
0.0930359    -0.9994457  -0.0001704   0.0003925   0.0000216   0.0000012   0.0000016  -0.9387368   0.2897206
0.0941797    -0.9993836  -0.0001467   0.0004118   0.0000411   0.0000025   0.0000095  -0.9386642   0.2897788
0.0953374    -0.9995274  -0.0001761   0.0004123   0.0000289  -0.0000047   0.0000036  -0.9386589   0.2896874
0.0965094    -0.9994472  -0.0000535   0.0003991   0.0000250   0.0000008  -0.0000022  -0.9385277   0.2897067
0.0976959    -0.9994293  -0.0002039   0.0003923   0.0000387   0.0000064  -0.0000051  -0.9385353   0.2896980
0.0988969    -0.9993579  -0.0002898   0.0004147   0.0000448  -0.0000068  -0.0000015  -0.9384663   0.2896201
0.1001126    -0.9994202  -0.0001495   0.0003965   0.0000343  -0.0000042  -0.0000113  -0.9384273   0.2896009
0.1013433    -0.9994643  -0.0001777   0.0003964   0.0000369  -0.0000066  -0.0000005  -0.9384162   0.2895283
0.1025892    -0.9994417  -0.0001042   0.0004028   0.0000437  -0.0000089  -0.0000156  -0.9383242   0.2894642
0.1038503    -0.9994865  -0.0002172   0.0004138   0.0000297  -0.0000061   0.0000026  -0.9383898   0.2893628
0.1051270    -0.9993577  -0.0000990   0.0004193   0.0000268  -0.0000042   0.0000032  -0.9384645   0.2893710
0.1064193    -0.9994288  -0.0002598   0.0004080   0.0000360  -0.0000009  -0.0000043  -0.9385210   0.2892712
0.1077276    -0.9995336  -0.0003085   0.0003863   0.0000266  -0.0000010   0.0000042  -0.9385561   0.2893075
0.1090519    -0.9994128  -0.0002184   0.0004119   0.0000340   0.0000081   0.0000023  -0.9386699   0.2891948
0.1103925    -0.9993468  -0.0001454   0.0004054   0.0000335  -0.0000053  -0.0000082  -0.9386504   0.2892372
0.1117496    -0.9994148  -0.0002034   0.0004116   0.0000459   0.0000070  -0.0000009  -0.9387449   0.2892651
0.1131233    -0.9994220  -0.0000874   0.0003968   0.0000529  -0.0000109  -0.0000063  -0.9388706   0.2892237
0.1145140    -0.9994234  -0.0002049   0.0004053   0.0000413  -0.0000020  -0.0000139  -0.9389367   0.2893050
0.1159217    -0.9994414  -0.0001849   0.0003959   0.0000263  -0.0000058  -0.0000006  -0.9389502   0.2893045
0.1173468    -0.9993556  -0.0002127   0.0004031   0.0000359   0.0000043  -0.0000100  -0.9390159   0.2893834
0.1187893    -0.9994833  -0.0000949   0.0003940   0.0000452  -0.0000015  -0.0000112  -0.9391408   0.2894386
0.1202497    -0.9993892  -0.0001499   0.0004029   0.0000277  -0.0000076  -0.0000202  -0.9391425   0.2894774
0.1217279    -0.9994556  -0.0001141   0.0004033   0.0000355   0.0000047   0.0000067  -0.9391774   0.2895602
0.1232243    -0.9993579  -0.0002426   0.0004013   0.0000454  -0.0000059  -0.0000097  -0.9393238   0.2897100
0.1247392    -0.9994327  -0.0001399   0.0004124   0.0000333  -0.0000005  -0.0000021  -0.9393441   0.2897610
0.1262726    -0.9994177  -0.0001865   0.0003978   0.0000384  -0.0000082  -0.0000107  -0.9393835   0.2898578
0.1278249    -0.9994742  -0.0001696   0.0004049   0.0000504  -0.0000011  -0.0000062  -0.9393711   0.2899272
0.1293963    -0.9993528  -0.0001488   0.0004073   0.0000443  -0.0000038  -0.0000042  -0.9394349   0.2900448
0.1309870    -0.9994858  -0.0001845   0.0003987   0.0000390   0.0000004  -0.0000140  -0.9394403   0.2901690
0.1325973    -0.9993629  -0.0002048   0.0004141   0.0000426  -0.0000006   0.0000020  -0.9394429   0.2901727
0.1342273    -0.9994281  -0.0001356   0.0004027   0.0000271  -0.0000030  -0.0000066  -0.9395119   0.2902830
0.1358774    -0.9993467  -0.0001294   0.0004058   0.0000449  -0.0000045   0.0000028  -0.9394840   0.2904587
0.1375478    -0.9993772  -0.0001414   0.0004185   0.0000497   0.0000041  -0.0000011  -0.9395102   0.2904983
0.1392387    -0.9994413  -0.0002124   0.0003907   0.0000431  -0.0000016  -0.0000030  -0.9394896   0.2906542
0.1409504    -0.9994729  -0.0001595   0.0004163   0.0000385  -0.0000098  -0.0000030  -0.9395416   0.2907525
0.1426831    -0.9994345  -0.0002469   0.0004077   0.0000224  -0.0000051  -0.0000032  -0.9395182   0.2907696
0.1444371    -0.9993683  -0.0002093   0.0003957   0.0000392   0.0000040  -0.0000025  -0.9394529   0.2909111
0.1462127    -0.9993358  -0.0003112   0.0004034   0.0000443   0.0000011  -0.0000080  -0.9395321   0.2910522
0.1480102    -0.9994321  -0.0002312   0.0004013   0.0000231  -0.0000016  -0.0000117  -0.9394888   0.2911476
0.1498297    -0.9993772  -0.0002430   0.0004056   0.0000312  -0.0000046   0.0000006  -0.9394295   0.2911965
0.1516716    -0.9993654  -0.0002137   0.0004011   0.0000414  -0.0000031   0.0000037  -0.9394114   0.2913293
0.1535361    -0.9993877  -0.0002277   0.0004004   0.0000401  -0.0000056  -0.0000089  -0.9394468   0.2914228
0.1554236    -0.9993815  -0.0002061   0.0003991   0.0000326   0.0000006   0.0000022  -0.9394299   0.2915906
0.1573342    -0.9994544  -0.0002491   0.0004148   0.0000326  -0.0000109  -0.0000090  -0.9393141   0.2916879
0.1592684    -0.9993583  -0.0001790   0.0004222   0.0000539   0.0000048   0.0000032  -0.9394186   0.2917255
0.1612263    -0.9994035  -0.0002923   0.0004199   0.0000239   0.0000049  -0.0000010  -0.9393069   0.2918717
0.1632083    -0.9994017  -0.0002375   0.0004147   0.0000374   0.0000052  -0.0000046  -0.9393931   0.2919294
0.1652147    -0.9993098  -0.0001985   0.0004007   0.0000448  -0.0000054   0.0000015  -0.9392935   0.2920767
0.1672457    -0.9993289  -0.0002256   0.0004065   0.0000421   0.0000058  -0.0000092  -0.9392819   0.2921465
0.1693017    -0.9993768  -0.0002112   0.0003966   0.0000481  -0.0000093  -0.0000026  -0.9392562   0.2921591
0.1713829    -0.9992392  -0.0003877   0.0004209   0.0000442  -0.0000062  -0.0000029  -0.9392212   0.2923577
0.1734898    -0.9994562  -0.0001634   0.0004138   0.0000444  -0.0000008   0.0000005  -0.9391912   0.2923584
0.1756225    -0.9995030  -0.0002121   0.0004081   0.0000460   0.0000067  -0.0000024  -0.9391699   0.2925539
0.1777815    -0.9994123  -0.0003480   0.0003959   0.0000512  -0.0000031  -0.0000086  -0.9390592   0.2925714
0.1799670    -0.9993472  -0.0002773   0.0003946   0.0000364  -0.0000053  -0.0000102  -0.9390654   0.2927581
0.1821794    -0.9993454  -0.0002867   0.0004122   0.0000497   0.0000027  -0.0000042  -0.9390483   0.2928551
0.1844190    -0.9993660  -0.0002785   0.0004050   0.0000410  -0.0000014  -0.0000113  -0.9391059   0.2929285
0.1866861    -0.9993566  -0.0003331   0.0004132   0.0000455  -0.0000025  -0.0000085  -0.9389236   0.2930493
0.1889811    -0.9994163  -0.0002723   0.0004059   0.0000440  -0.0000052  -0.0000045  -0.9389341   0.2931909
0.1913043    -0.9993908  -0.0003862   0.0004052   0.0000602  -0.0000022  -0.0000077  -0.9389398   0.2931881
0.1936560    -0.9994911  -0.0003300   0.0004126   0.0000395  -0.0000029   0.0000011  -0.9388743   0.2934055
0.1960367    -0.9993897  -0.0003151   0.0004235   0.0000520  -0.0000034  -0.0000113  -0.9388666   0.2935421
0.1984466    -0.9993796  -0.0003791   0.0003904   0.0000525  -0.0000069  -0.0000007  -0.9388003   0.2935264
0.2008861    -0.9993921  -0.0002882   0.0004006   0.0000426  -0.0000035  -0.0000135  -0.9388468   0.2937072
0.2033557    -0.9994904  -0.0001479   0.0004152   0.0000535  -0.0000017  -0.0000072  -0.9388149   0.2937507
0.2058556    -0.9993836  -0.0002962   0.0004050   0.0000622   0.0000063  -0.0000012  -0.9386165   0.2938308
0.2083862    -0.9994925  -0.0003926   0.0004092   0.0000516  -0.0000007  -0.0000098  -0.9386430   0.2939738
0.2109480    -0.9994667  -0.0002837   0.0004125   0.0000502  -0.0000041   0.0000037  -0.9386125   0.2940661
0.2135412    -0.9994667  -0.0003738   0.0004172   0.0000485   0.0000026  -0.0000099  -0.9385548   0.2941996
0.2161663    -0.9994394  -0.0003775   0.0004192   0.0000554   0.0000069  -0.0000061  -0.9385860   0.2942747
0.2188237    -0.9994362  -0.0003472   0.0004101   0.0000604  -0.0000015  -0.0000051  -0.9385893   0.2944157
0.2215137    -0.9993993  -0.0002907   0.0004114   0.0000571  -0.0000176  -0.0000081  -0.9384733   0.2944849
0.2242369    -0.9994202  -0.0002602   0.0004239   0.0000559  -0.0000093  -0.0000156  -0.9383799   0.2946712
0.2269935    -0.9993435  -0.0002960   0.0004148   0.0000512  -0.0000070  -0.0000102  -0.9383557   0.2947396
0.2297839    -0.9993084  -0.0003445   0.0004069   0.0000657   0.0000008  -0.0000095  -0.9383288   0.2948782
0.2326087    -0.9995373  -0.0002713   0.0003992   0.0000609  -0.0000072  -0.0000042  -0.9383012   0.2949777
0.2354682    -0.9995034  -0.0004365   0.0004238   0.0000595   0.0000062  -0.0000025  -0.9382314   0.2950852
0.2383629    -0.9992969  -0.0003079   0.0004045   0.0000676   0.0000095  -0.0000077  -0.9382402   0.2951383
0.2412932    -0.9993068  -0.0003366   0.0004212   0.0000624  -0.0000204  -0.0000146  -0.9381400   0.2952565
0.2442594    -0.9994741  -0.0002683   0.0004075   0.0000639  -0.0000093   0.0000065  -0.9381314   0.2954319
0.2472622    -0.9993429  -0.0002310   0.0004199   0.0000543  -0.0000034  -0.0000044  -0.9381191   0.2955686
0.2503018    -0.9993273  -0.0002746   0.0004099   0.0000589  -0.0000125  -0.0000093  -0.9379876   0.2957517
0.2533788    -0.9993216  -0.0004065   0.0004179   0.0000486  -0.0000040   0.0000031  -0.9379655   0.2957465
0.2564937    -0.9994688  -0.0002960   0.0004287   0.0000728  -0.0000017  -0.0000116  -0.9379517   0.2958429
0.2596468    -0.9994439  -0.0004402   0.0004076   0.0000756  -0.0000103  -0.0000019  -0.9378675   0.2960615
0.2628387    -0.9994326  -0.0003159   0.0004163   0.0000511   0.0000019   0.0000031  -0.9378421   0.2962113
0.2660699    -0.9994445  -0.0004421   0.0004172   0.0000519   0.0000030  -0.0000001  -0.9377637   0.2962477
0.2693407    -0.9993807  -0.0003811   0.0004255   0.0000624   0.0000029   0.0000017  -0.9376920   0.2964796
0.2726518    -0.9994077  -0.0003610   0.0004012   0.0000530   0.0000098  -0.0000065  -0.9376563   0.2965318
0.2760036    -0.9993383  -0.0004954   0.0004132   0.0000699  -0.0000009  -0.0000004  -0.9376370   0.2967253
0.2793966    -0.9993765  -0.0004732   0.0004038   0.0000563   0.0000015  -0.0000069  -0.9375655   0.2967840
0.2828312    -0.9994534  -0.0004962   0.0004054   0.0000577  -0.0000054  -0.0000065  -0.9375553   0.2969881
0.2863082    -0.9993741  -0.0004421   0.0004050   0.0000652  -0.0000069  -0.0000156  -0.9374514   0.2970842
0.2898278    -0.9992638  -0.0004695   0.0004061   0.0000701   0.0000011  -0.0000148  -0.9373987   0.2972562
0.2933907    -0.9994308  -0.0004168   0.0004104   0.0000620  -0.0000071  -0.0000110  -0.9374491   0.2973166
0.2969975    -0.9995335  -0.0004596   0.0004285   0.0000694   0.0000025  -0.0000002  -0.9373918   0.2974570
0.3006485    -0.9992674  -0.0003881   0.0004031   0.0000710  -0.0000037  -0.0000003  -0.9372446   0.2976492
0.3043445    -0.9994318  -0.0005249   0.0004006   0.0000727   0.0000030  -0.0000090  -0.9372233   0.2977212
0.3080858    -0.9993685  -0.0004592   0.0004222   0.0000719   0.0000008  -0.0000047  -0.9371217   0.2978439
0.3118732    -0.9994285  -0.0004514   0.0004101   0.0000859  -0.0000029  -0.0000037  -0.9370846   0.2981255
0.3157071    -0.9994211  -0.0004679   0.0004326   0.0000858   0.0000001  -0.0000051  -0.9369519   0.2981806
0.3195882    -0.9993559  -0.0004718   0.0004169   0.0000737  -0.0000056  -0.0000075  -0.9369621   0.2983713
0.3235170    -0.9992565  -0.0005777   0.0004151   0.0000696   0.0000005  -0.0000101  -0.9368877   0.2985743
0.3274941    -0.9994700  -0.0005716   0.0004228   0.0000817  -0.0000171  -0.0000030  -0.9368245   0.2986018
0.3315200    -0.9993427  -0.0004458   0.0004202   0.0000712  -0.0000011  -0.0000002  -0.9366881   0.2987612
0.3355955    -0.9992545  -0.0004281   0.0004276   0.0000829   0.0000024  -0.0000098  -0.9367534   0.2988743
0.3397210    -0.9993989  -0.0004765   0.0004125   0.0000811  -0.0000033  -0.0000140  -0.9366286   0.2991156
0.3438973    -0.9993739  -0.0005206   0.0004252   0.0000754   0.0000025  -0.0000018  -0.9365542   0.2991742
0.3481249    -0.9993779  -0.0004453   0.0004289   0.0000807  -0.0000090  -0.0000003  -0.9365513   0.2993079
0.3524045    -0.9993883  -0.0005901   0.0004131   0.0000677   0.0000071  -0.0000049  -0.9364981   0.2994654
0.3567367    -0.9995121  -0.0005919   0.0004112   0.0000853   0.0000048  -0.0000006  -0.9364733   0.2996630
0.3611221    -0.9993874  -0.0005728   0.0004196   0.0000742  -0.0000009  -0.0000053  -0.9363157   0.2998125
0.3655615    -0.9993287  -0.0005946   0.0004325   0.0000709   0.0000008   0.0000035  -0.9362350   0.2999891
0.3700554    -0.9992965  -0.0005012   0.0004149   0.0000970  -0.0000078   0.0000013  -0.9361766   0.3001423
0.3746046    -0.9994502  -0.0005275   0.0004281   0.0000894  -0.0000074   0.0000052  -0.9360952   0.3002810
0.3792097    -0.9993720  -0.0006252   0.0004192   0.0000698   0.0000027  -0.0000014  -0.9360310   0.3005167
0.3838714    -0.9994092  -0.0005263   0.0004263   0.0000775  -0.0000147   0.0000006  -0.9360487   0.3006684
0.3885905    -0.9993763  -0.0006664   0.0004254   0.0000797   0.0000014  -0.0000025  -0.9359445   0.3008066
0.3933675    -0.9993827  -0.0005203   0.0004172   0.0000895  -0.0000064  -0.0000079  -0.9358374   0.3010662
0.3982033    -0.9994411  -0.0006266   0.0004433   0.0000795   0.0000045  -0.0000028  -0.9357388   0.3011775
0.4030985    -0.9993782  -0.0007204   0.0004197   0.0000763  -0.0000013  -0.0000019  -0.9356822   0.3013380
0.4080538    -0.9993450  -0.0005882   0.0004102   0.0001041   0.0000088  -0.0000011  -0.9356213   0.3015114
0.4130701    -0.9994017  -0.0006677   0.0004234   0.0000841  -0.0000030  -0.0000011  -0.9354990   0.3017008
0.4181481    -0.9993616  -0.0006768   0.0004189   0.0000923  -0.0000217  -0.0000123  -0.9354835   0.3019167
0.4232885    -0.9994175  -0.0006908   0.0004302   0.0001000   0.0000013  -0.0000042  -0.9353929   0.3020374
0.4284921    -0.9994248  -0.0007262   0.0004151   0.0000843   0.0000050  -0.0000019  -0.9353126   0.3021829
0.4337597    -0.9994118  -0.0006510   0.0004264   0.0000856  -0.0000025  -0.0000129  -0.9351899   0.3024178
0.4390920    -0.9992033  -0.0006958   0.0004193   0.0000774   0.0000014  -0.0000040  -0.9351455   0.3026475
0.4444898    -0.9993041  -0.0006606   0.0004459   0.0000829   0.0000003  -0.0000071  -0.9350953   0.3028394
0.4499541    -0.9993689  -0.0007827   0.0004158   0.0000840   0.0000018   0.0000071  -0.9349420   0.3029515
0.4554854    -0.9993561  -0.0007215   0.0004131   0.0000796  -0.0000024   0.0000004  -0.9349191   0.3031716
0.4610848    -0.9994459  -0.0008266   0.0004278   0.0000885   0.0000036  -0.0000010  -0.9347462   0.3034583
0.4667531    -0.9993980  -0.0006618   0.0004325   0.0000964  -0.0000048  -0.0000122  -0.9347264   0.3035858
0.4724910    -0.9993119  -0.0007119   0.0004217   0.0001075   0.0000114  -0.0000039  -0.9345766   0.3037551
0.4782994    -0.9993094  -0.0007034   0.0004206   0.0001087  -0.0000062  -0.0000052  -0.9345650   0.3040264
0.4841793    -0.9993135  -0.0006841   0.0004132   0.0001074   0.0000106   0.0000023  -0.9344129   0.3041643
0.4901314    -0.9993004  -0.0007497   0.0004201   0.0000851   0.0000062  -0.0000086  -0.9344641   0.3044346
0.4961567    -0.9993632  -0.0008223   0.0004281   0.0001035  -0.0000058  -0.0000014  -0.9343045   0.3046205
0.5022561    -0.9993147  -0.0008206   0.0004336   0.0001141  -0.0000017  -0.0000053  -0.9341865   0.3048411
0.5084304    -0.9994076  -0.0007924   0.0004260   0.0000866  -0.0000013  -0.0000019  -0.9340425   0.3051119
0.5146807    -0.9993842  -0.0009048   0.0004426   0.0001005  -0.0000092  -0.0000063  -0.9339961   0.3052493
0.5210078    -0.9993700  -0.0007932   0.0004280   0.0001030   0.0000043  -0.0000041  -0.9338725   0.3054744
0.5274126    -0.9994270  -0.0009614   0.0004181   0.0001098  -0.0000064  -0.0000075  -0.9338402   0.3057256
0.5338963    -0.9993578  -0.0008609   0.0004372   0.0001065   0.0000003   0.0000057  -0.9337405   0.3059158
0.5404596    -0.9993993  -0.0008494   0.0004524   0.0000999  -0.0000084   0.0000050  -0.9336710   0.3062319
0.5471036    -0.9993291  -0.0009031   0.0004265   0.0000981  -0.0000094  -0.0000065  -0.9335276   0.3063257
0.5538292    -0.9993412  -0.0009143   0.0004250   0.0001043   0.0000020  -0.0000054  -0.9334165   0.3066357
0.5606376    -0.9993637  -0.0009467   0.0004224   0.0000948  -0.0000026  -0.0000073  -0.9332411   0.3068205
0.5675297    -0.9992704  -0.0008373   0.0004305   0.0000983  -0.0000022  -0.0000028  -0.9331879   0.3071370
0.5745064    -0.9993499  -0.0009320   0.0004263   0.0001203   0.0000018   0.0000011  -0.9330557   0.3073340
0.5815690    -0.9993564  -0.0009977   0.0004231   0.0001114   0.0000020   0.0000047  -0.9330523   0.3075216
0.5887183    -0.9993330  -0.0009748   0.0004296   0.0001091  -0.0000109  -0.0000114  -0.9328489   0.3077647
0.5959556    -0.9993559  -0.0009204   0.0004276   0.0001221  -0.0000057  -0.0000093  -0.9327533   0.3080503
0.6032818    -0.9994096  -0.0009622   0.0004215   0.0001060  -0.0000051  -0.0000031  -0.9326622   0.3083318
0.6106981    -0.9993663  -0.0009708   0.0004302   0.0001041   0.0000033  -0.0000101  -0.9325332   0.3086434
0.6182056    -0.9993747  -0.0009566   0.0004311   0.0001196   0.0000045  -0.0000047  -0.9324797   0.3087512
0.6258053    -0.9993784  -0.0010506   0.0004406   0.0001118  -0.0000036   0.0000009  -0.9323100   0.3090988
0.6334985    -0.9993237  -0.0010447   0.0004337   0.0001176   0.0000043  -0.0000057  -0.9322906   0.3093580
0.6412862    -0.9993631  -0.0011238   0.0004289   0.0001057  -0.0000087  -0.0000039  -0.9320162   0.3096498
0.6491697    -0.9994048  -0.0010309   0.0004338   0.0001262  -0.0000025   0.0000017  -0.9320639   0.3099768
0.6571501    -0.9992937  -0.0011124   0.0004246   0.0001261  -0.0000156  -0.0000076  -0.9318527   0.3101546
0.6652286    -0.9993743  -0.0010747   0.0004330   0.0001259   0.0000013  -0.0000025  -0.9317385   0.3105023
0.6734064    -0.9993786  -0.0011592   0.0004323   0.0001252  -0.0000007  -0.0000128  -0.9316249   0.3107810
0.6816848    -0.9993824  -0.0010709   0.0004345   0.0001252  -0.0000108  -0.0000052  -0.9314518   0.3109770
0.6900649    -0.9993102  -0.0012080   0.0004319   0.0001266  -0.0000001  -0.0000024  -0.9313558   0.3112493
0.6985480    -0.9993895  -0.0011363   0.0004324   0.0001171  -0.0000011  -0.0000022  -0.9312130   0.3116300
0.7071355    -0.9993801  -0.0012363   0.0004311   0.0001247   0.0000024  -0.0000047  -0.9311384   0.3119213
0.7158284    -0.9992696  -0.0012416   0.0004489   0.0001443   0.0000018  -0.0000044  -0.9310515   0.3121998
0.7246283    -0.9994296  -0.0011559   0.0004312   0.0001178  -0.0000065  -0.0000022  -0.9308397   0.3124587
0.7335363    -0.9993402  -0.0011714   0.0004243   0.0001280   0.0000072  -0.0000030  -0.9308036   0.3127722
0.7425539    -0.9994233  -0.0012770   0.0004390   0.0001329  -0.0000014  -0.0000051  -0.9306783   0.3131388
0.7516822    -0.9993780  -0.0012019   0.0004431   0.0001506  -0.0000061   0.0000039  -0.9304417   0.3133883
0.7609229    -0.9993400  -0.0012389   0.0004346   0.0001504  -0.0000108  -0.0000073  -0.9302693   0.3136903
0.7702771    -0.9993655  -0.0012204   0.0004327   0.0001266   0.0000060  -0.0000118  -0.9301103   0.3139566
0.7797463    -0.9994198  -0.0012552   0.0004214   0.0001341  -0.0000053  -0.0000039  -0.9299867   0.3143409
0.7893319    -0.9993141  -0.0012960   0.0004444   0.0001581  -0.0000011  -0.0000039  -0.9298566   0.3146606
0.7990353    -0.9992131  -0.0013387   0.0004425   0.0001265   0.0000108   0.0000006  -0.9297423   0.3149845
0.8088580    -0.9994543  -0.0013928   0.0004274   0.0001492  -0.0000011  -0.0000043  -0.9295781   0.3153214
0.8188015    -0.9993843  -0.0014134   0.0004476   0.0001485  -0.0000041  -0.0000032  -0.9294537   0.3156519
0.8288673    -0.9994673  -0.0013431   0.0004442   0.0001475  -0.0000032  -0.0000065  -0.9292674   0.3159989
0.8390567    -0.9993824  -0.0014609   0.0004416   0.0001583   0.0000029  -0.0000167  -0.9291964   0.3163791
0.8493714    -0.9992192  -0.0013452   0.0004338   0.0001469   0.0000081  -0.0000012  -0.9290133   0.3166715
0.8598130    -0.9993635  -0.0014085   0.0004299   0.0001602   0.0000073  -0.0000083  -0.9288463   0.3170546
0.8703829    -0.9993472  -0.0014737   0.0004520   0.0001467   0.0000037  -0.0000044  -0.9286617   0.3173866
0.8810827    -0.9992900  -0.0014463   0.0004290   0.0001492  -0.0000029  -0.0000054  -0.9285109   0.3178376
0.8919140    -0.9992767  -0.0014177   0.0004223   0.0001593   0.0000023  -0.0000108  -0.9283561   0.3181357
0.9028786    -0.9993511  -0.0015112   0.0004388   0.0001543  -0.0000092   0.0000004  -0.9281942   0.3185210
0.9139779    -0.9994188  -0.0016496   0.0004458   0.0001465  -0.0000026  -0.0000067  -0.9280326   0.3189216
0.9252136    -0.9992508  -0.0014645   0.0004434   0.0001630  -0.0000001  -0.0000139  -0.9278553   0.3192816
0.9365875    -0.9994152  -0.0016168   0.0004355   0.0001543  -0.0000034   0.0000006  -0.9276938   0.3196557
0.9481012    -0.9993781  -0.0015345   0.0004440   0.0001440  -0.0000017  -0.0000055  -0.9275186   0.3200543
0.9597564    -0.9993125  -0.0014857   0.0004271   0.0001626  -0.0000017  -0.0000023  -0.9273121   0.3204456
0.9715549    -0.9993129  -0.0015382   0.0004261   0.0001744  -0.0000036  -0.0000012  -0.9271461   0.3208858
0.9834985    -0.9992086  -0.0015974   0.0004361   0.0001609  -0.0000065  -0.0000013  -0.9270109   0.3212321
0.9955889    -0.9993801  -0.0017112   0.0004424   0.0001679  -0.0000032  -0.0000050  -0.9268638   0.3216050
1.0078279    -0.9993395  -0.0017658   0.0004407   0.0001599   0.0000107  -0.0000079  -0.9265545   0.3220619
1.0202173    -0.9993456  -0.0016643   0.0004316   0.0001723   0.0000011  -0.0000053  -0.9264578   0.3224213
1.0327591    -0.9992971  -0.0017338   0.0004542   0.0001679  -0.0000039  -0.0000004  -0.9262505   0.3229331
1.0454551    -0.9994016  -0.0018297   0.0004283   0.0001771   0.0000008  -0.0000101  -0.9260666   0.3233381
1.0583071    -0.9992982  -0.0016827   0.0004597   0.0001714  -0.0000013   0.0000049  -0.9258682   0.3237213
1.0713171    -0.9993043  -0.0017864   0.0004336   0.0001814  -0.0000064   0.0000018  -0.9255917   0.3241481
1.0844871    -0.9994118  -0.0017537   0.0004426   0.0001898  -0.0000048   0.0000027  -0.9254617   0.3245377
1.0978189    -0.9992858  -0.0018604   0.0004343   0.0001794   0.0000007   0.0000068  -0.9252756   0.3250599
1.1113147    -0.9994371  -0.0018544   0.0004357   0.0001773  -0.0000006  -0.0000055  -0.9250334   0.3254274
1.1249763    -0.9993415  -0.0019141   0.0004328   0.0001702  -0.0000013  -0.0000018  -0.9248774   0.3259905
1.1388059    -0.9992577  -0.0019377   0.0004466   0.0001893  -0.0000019  -0.0000060  -0.9247198   0.3264517
1.1528056    -0.9993570  -0.0018831   0.0004324   0.0001869  -0.0000044  -0.0000036  -0.9244583   0.3268988
1.1669773    -0.9993102  -0.0019680   0.0004445   0.0001836  -0.0000009  -0.0000082  -0.9242727   0.3273953
1.1813232    -0.9993928  -0.0019951   0.0004324   0.0001869  -0.0000031  -0.0000048  -0.9240773   0.3278585
1.1958455    -0.9992831  -0.0019154   0.0004396   0.0001959   0.0000009   0.0000004  -0.9238039   0.3283554
1.2105463    -0.9993653  -0.0020176   0.0004318   0.0001929  -0.0000031  -0.0000085  -0.9236208   0.3288517
1.2254278    -0.9993213  -0.0020743   0.0004420   0.0002030  -0.0000064   0.0000002  -0.9233540   0.3293477
1.2404923    -0.9993042  -0.0019933   0.0004343   0.0002058   0.0000005  -0.0000006  -0.9232183   0.3298264
1.2557420    -0.9994685  -0.0021553   0.0004415   0.0001881   0.0000060  -0.0000034  -0.9229541   0.3303611
1.2711791    -0.9991866  -0.0021205   0.0004620   0.0002144   0.0000058   0.0000032  -0.9226769   0.3308420
1.2868060    -0.9993886  -0.0021670   0.0004415   0.0002103  -0.0000086   0.0000018  -0.9224299   0.3313969
1.3026251    -0.9993231  -0.0021953   0.0004453   0.0002060   0.0000010  -0.0000178  -0.9221532   0.3319239
1.3186385    -0.9993144  -0.0021496   0.0004509   0.0001922  -0.0000032  -0.0000001  -0.9219294   0.3324706
1.3348489    -0.9993872  -0.0022141   0.0004470   0.0002108  -0.0000022  -0.0000067  -0.9217568   0.3330027
1.3512585    -0.9993153  -0.0023536   0.0004484   0.0002204  -0.0000067  -0.0000152  -0.9214508   0.3335168
1.3678698    -0.9993788  -0.0022965   0.0004555   0.0002198  -0.0000091  -0.0000157  -0.9212825   0.3340755
1.3846854    -0.9992869  -0.0022924   0.0004502   0.0002276   0.0000027  -0.0000135  -0.9210106   0.3347380
1.4017077    -0.9993068  -0.0024126   0.0004448   0.0002238   0.0000041   0.0000045  -0.9207423   0.3352204
1.4189392    -0.9993346  -0.0024057   0.0004398   0.0002231   0.0000006   0.0000001  -0.9205003   0.3357456
1.4363825    -0.9994186  -0.0024296   0.0004372   0.0002293  -0.0000072  -0.0000012  -0.9202484   0.3363581
1.4540403    -0.9993021  -0.0024576   0.0004545   0.0002276  -0.0000064  -0.0000011  -0.9199559   0.3369570
1.4719152    -0.9994044  -0.0025257   0.0004307   0.0002294   0.0000078   0.0000075  -0.9197156   0.3376479
1.4900098    -0.9992427  -0.0025895   0.0004333   0.0002281   0.0000059  -0.0000025  -0.9193985   0.3381595
1.5083269    -0.9993532  -0.0025988   0.0004404   0.0002355  -0.0000053   0.0000013  -0.9191216   0.3387463
1.5268691    -0.9992860  -0.0025532   0.0004459   0.0002312   0.0000075  -0.0000016  -0.9188447   0.3393919
1.5456392    -0.9992606  -0.0025189   0.0004441   0.0002391  -0.0000034  -0.0000016  -0.9186352   0.3399954
1.5646402    -0.9993154  -0.0026033   0.0004479   0.0002548   0.0000027  -0.0000022  -0.9183255   0.3407034
1.5838747    -0.9994708  -0.0026864   0.0004466   0.0002260  -0.0000058   0.0000018  -0.9180071   0.3413056
1.6033456    -0.9992154  -0.0027528   0.0004357   0.0002574  -0.0000038   0.0000005  -0.9178175   0.3419714
1.6230559    -0.9993301  -0.0027623   0.0004497   0.0002526   0.0000040  -0.0000088  -0.9174998   0.3426997
1.6430085    -0.9992779  -0.0027909   0.0004562   0.0002534  -0.0000092  -0.0000087  -0.9171685   0.3433497
1.6632064    -0.9993523  -0.0027488   0.0004515   0.0002628  -0.0000108  -0.0000073  -0.9168588   0.3440620
1.6836526    -0.9992518  -0.0028198   0.0004537   0.0002614   0.0000037  -0.0000099  -0.9166106   0.3447857
1.7043502    -0.9992407  -0.0028352   0.0004543   0.0002791   0.0000002  -0.0000113  -0.9161800   0.3455200
1.7253021    -0.9992295  -0.0029828   0.0004503   0.0002699  -0.0000079  -0.0000040  -0.9159925   0.3461715
1.7465117    -0.9992696  -0.0029911   0.0004519   0.0002668   0.0000025  -0.0000055  -0.9157903   0.3469968
1.7679820    -0.9993228  -0.0029405   0.0004404   0.0002776  -0.0000045   0.0000031  -0.9154066   0.3477171
1.7897162    -0.9992939  -0.0029683   0.0004530   0.0002840  -0.0000016  -0.0000074  -0.9151174   0.3484560
1.8117176    -0.9992761  -0.0029986   0.0004450   0.0002701  -0.0000088  -0.0000035  -0.9147761   0.3493066
1.8339895    -0.9993114  -0.0031564   0.0004486   0.0002855  -0.0000118  -0.0000034  -0.9144893   0.3500739
1.8565352    -0.9993497  -0.0031395   0.0004652   0.0002850  -0.0000061  -0.0000007  -0.9141587   0.3508992
1.8793580    -0.9994088  -0.0031974   0.0004573   0.0002836   0.0000050  -0.0000067  -0.9138773   0.3516445
1.9024614    -0.9992207  -0.0031567   0.0004544   0.0002968   0.0000034   0.0000019  -0.9136433   0.3524820
1.9258488    -0.9993427  -0.0033456   0.0004567   0.0002966  -0.0000040  -0.0000066  -0.9132013   0.3533232
1.9495237    -0.9993905  -0.0032933   0.0004457   0.0003015  -0.0000036  -0.0000086  -0.9128573   0.3542622
1.9734897    -0.9992870  -0.0033231   0.0004494   0.0003049  -0.0000027  -0.0000027  -0.9124967   0.3551210
1.9977503    -0.9993583  -0.0033044   0.0004424   0.0002967  -0.0000022  -0.0000100  -0.9121862   0.3560367
2.0223091    -0.9993724  -0.0034523   0.0004471   0.0003206   0.0000036  -0.0000066  -0.9117146   0.3569520
2.0471698    -0.9993558  -0.0035177   0.0004557   0.0003104   0.0000021  -0.0000058  -0.9112576   0.3578717
2.0723362    -0.9992982  -0.0035407   0.0004451   0.0003142  -0.0000052  -0.0000109  -0.9108508   0.3587810
2.0978119    -0.9992765  -0.0035733   0.0004557   0.0003312  -0.0000046  -0.0000081  -0.9103719   0.3597379
2.1236008    -0.9993923  -0.0036114   0.0004548   0.0003204  -0.0000093  -0.0000004  -0.9098752   0.3606545
2.1497067    -0.9993488  -0.0037098   0.0004501   0.0003285  -0.0000046  -0.0000022  -0.9093895   0.3616367
2.1761336    -0.9993041  -0.0036343   0.0004517   0.0003345  -0.0000068  -0.0000094  -0.9089004   0.3624516
2.2028853    -0.9993313  -0.0037408   0.0004427   0.0003306  -0.0000069  -0.0000036  -0.9082573   0.3634525
2.2299659    -0.9992244  -0.0037689   0.0004388   0.0003338  -0.0000041  -0.0000103  -0.9079217   0.3643863
2.2573794    -0.9993899  -0.0038622   0.0004485   0.0003415  -0.0000005   0.0000045  -0.9073349   0.3653268
2.2851299    -0.9992393  -0.0039187   0.0004521   0.0003462  -0.0000203  -0.0000078  -0.9067572   0.3662666
2.3132216    -0.9993771  -0.0039657   0.0004605   0.0003425  -0.0000061  -0.0000051  -0.9062437   0.3671181
2.3416586    -0.9993308  -0.0039248   0.0004491   0.0003568   0.0000013  -0.0000147  -0.9056892   0.3680784
2.3704451    -0.9994324  -0.0040230   0.0004600   0.0003497  -0.0000051  -0.0000091  -0.9051684   0.3691096
2.3995856    -0.9992632  -0.0040705   0.0004544   0.0003624  -0.0000066  -0.0000082  -0.9045189   0.3700807
2.4290843    -0.9993184  -0.0041073   0.0004430   0.0003592  -0.0000003  -0.0000136  -0.9041214   0.3709168
2.4589456    -0.9993567  -0.0042173   0.0004525   0.0003790  -0.0000015  -0.0000055  -0.9035454   0.3719175
2.4891740    -0.9993058  -0.0042759   0.0004644   0.0003819   0.0000065   0.0000046  -0.9030067   0.3729132
2.5197740    -0.9992965  -0.0042882   0.0004404   0.0003702  -0.0000101  -0.0000049  -0.9025121   0.3739415
2.5507502    -0.9993270  -0.0043235   0.0004575   0.0003846  -0.0000041   0.0000006  -0.9019500   0.3748543
2.5821072    -0.9993267  -0.0043678   0.0004366   0.0003729   0.0000005  -0.0000009  -0.9013914   0.3758758
2.6138496    -0.9993462  -0.0044980   0.0004616   0.0003886  -0.0000073  -0.0000027  -0.9007222   0.3768633
2.6459823    -0.9993225  -0.0044738   0.0004768   0.0004032  -0.0000029   0.0000048  -0.9001987   0.3779199
2.6785100    -0.9991666  -0.0045830   0.0004453   0.0003754  -0.0000082  -0.0000121  -0.8996597   0.3790409
2.7114376    -0.9994577  -0.0045610   0.0004444   0.0003969  -0.0000063  -0.0000062  -0.8990225   0.3800620
2.7447699    -0.9993703  -0.0046856   0.0004594   0.0004077   0.0000017  -0.0000063  -0.8984440   0.3810689
2.7785120    -0.9992496  -0.0046317   0.0004644   0.0004111  -0.0000026  -0.0000068  -0.8978285   0.3821643
2.8126689    -0.9992417  -0.0048424   0.0004682   0.0004171  -0.0000122   0.0000035  -0.8973122   0.3833147
2.8472457    -0.9994158  -0.0048196   0.0004498   0.0004298  -0.0000035  -0.0000070  -0.8967607   0.3844286
2.8822476    -0.9993770  -0.0048821   0.0004699   0.0004391   0.0000060   0.0000022  -0.8961782   0.3855124
2.9176798    -0.9993062  -0.0050030   0.0004399   0.0004128  -0.0000007  -0.0000141  -0.8955195   0.3866086
2.9535475    -0.9992876  -0.0049989   0.0004418   0.0004269  -0.0000058  -0.0000054  -0.8949483   0.3878070
2.9898562    -0.9993184  -0.0051619   0.0004532   0.0004484  -0.0000028  -0.0000049  -0.8942470   0.3890268
3.0266112    -0.9992542  -0.0051646   0.0004629   0.0004472  -0.0000014  -0.0000102  -0.8936296   0.3901293
3.0638180    -0.9992814  -0.0052214   0.0004554   0.0004547  -0.0000027  -0.0000106  -0.8929854   0.3913348
3.1014823    -0.9992462  -0.0052820   0.0004556   0.0004614   0.0000122   0.0000001  -0.8923790   0.3926033
3.1396096    -0.9992834  -0.0053185   0.0004540   0.0004535   0.0000007  -0.0000151  -0.8916534   0.3937399
3.1782055    -0.9992739  -0.0053729   0.0004653   0.0004728  -0.0000052  -0.0000060  -0.8910269   0.3950064
3.2172760    -0.9993328  -0.0054101   0.0004637   0.0004695  -0.0000021  -0.0000025  -0.8903442   0.3962763
3.2568267    -0.9992139  -0.0054768   0.0004540   0.0004890   0.0000000   0.0000010  -0.8897056   0.3975141
3.2968637    -0.9992337  -0.0056101   0.0004616   0.0004733   0.0000079  -0.0000071  -0.8889123   0.3988380
3.3373928    -0.9993540  -0.0056847   0.0004638   0.0004837  -0.0000055  -0.0000043  -0.8882090   0.4000991
3.3784202    -0.9993916  -0.0056611   0.0004538   0.0004985   0.0000017  -0.0000115  -0.8874257   0.4014749
3.4199519    -0.9993186  -0.0056965   0.0004585   0.0005046  -0.0000018  -0.0000072  -0.8867184   0.4027799
3.4619942    -0.9993117  -0.0058349   0.0004757   0.0005097   0.0000094  -0.0000015  -0.8859021   0.4040620
3.5045533    -0.9992510  -0.0060300   0.0004540   0.0005149  -0.0000130  -0.0000043  -0.8851955   0.4055343
3.5476356    -0.9994576  -0.0059738   0.0004558   0.0005185  -0.0000032  -0.0000072  -0.8844131   0.4068135
3.5912475    -0.9992567  -0.0061172   0.0004648   0.0005354   0.0000050  -0.0000068  -0.8835820   0.4081858
3.6353956    -0.9993297  -0.0061041   0.0004589   0.0005340  -0.0000033   0.0000033  -0.8828196   0.4096963
3.6800864    -0.9992841  -0.0062911   0.0004502   0.0005369  -0.0000019  -0.0000012  -0.8820544   0.4111741
3.7253266    -0.9992857  -0.0063973   0.0004627   0.0005525  -0.0000012   0.0000029  -0.8812237   0.4125975
3.7711229    -0.9993149  -0.0064952   0.0004596   0.0005451   0.0000036  -0.0000073  -0.8804596   0.4140384
3.8174822    -0.9993586  -0.0064246   0.0004508   0.0005572   0.0000054  -0.0000037  -0.8795996   0.4154965
3.8644115    -0.9992394  -0.0066488   0.0004676   0.0005820  -0.0000027  -0.0000005  -0.8788628   0.4170898
3.9119176    -0.9992491  -0.0067077   0.0004609   0.0005689   0.0000050  -0.0000047  -0.8780034   0.4186069
3.9600077    -0.9993100  -0.0067525   0.0004539   0.0005701  -0.0000003  -0.0000106  -0.8772529   0.4201030
4.0086890    -0.9993419  -0.0068742   0.0004590   0.0005913  -0.0000001  -0.0000011  -0.8762245   0.4216955
4.0579688    -0.9994154  -0.0068979   0.0004688   0.0005858   0.0000105  -0.0000087  -0.8753939   0.4232443
4.1078544    -0.9993423  -0.0068606   0.0004695   0.0005941   0.0000009  -0.0000062  -0.8745147   0.4247613
4.1583532    -0.9993094  -0.0071283   0.0004778   0.0005965  -0.0000076  -0.0000134  -0.8735491   0.4263804
4.2094729    -0.9992331  -0.0071128   0.0004642   0.0006163  -0.0000130  -0.0000085  -0.8727399   0.4279787
4.2612209    -0.9992763  -0.0073231   0.0004569   0.0006252   0.0000049  -0.0000003  -0.8717528   0.4295703
4.3136051    -0.9992573  -0.0073157   0.0004607   0.0006117   0.0000094  -0.0000038  -0.8707551   0.4312195
4.3666333    -0.9992953  -0.0074356   0.0004552   0.0006160  -0.0000042  -0.0000094  -0.8698497   0.4329018
4.4203134    -0.9993663  -0.0074788   0.0004570   0.0006370  -0.0000094  -0.0000055  -0.8687537   0.4345216
4.4746534    -0.9992376  -0.0076514   0.0004602   0.0006520  -0.0000100  -0.0000040  -0.8676684   0.4362446
4.5296613    -0.9993198  -0.0076875   0.0004596   0.0006497  -0.0000140  -0.0000062  -0.8666960   0.4379928
4.5853455    -0.9994326  -0.0078584   0.0004579   0.0006671   0.0000126  -0.0000056  -0.8655878   0.4397037
4.6417143    -0.9992732  -0.0079028   0.0004727   0.0006672   0.0000038  -0.0000010  -0.8644354   0.4412928
4.6987760    -0.9993480  -0.0078699   0.0004562   0.0006873  -0.0000146  -0.0000077  -0.8633619   0.4429503
4.7565392    -0.9993306  -0.0080800   0.0004632   0.0006700  -0.0000048  -0.0000118  -0.8622112   0.4446939
4.8150125    -0.9993444  -0.0081099   0.0004635   0.0006809   0.0000012  -0.0000054  -0.8610678   0.4463435
4.8742045    -0.9993089  -0.0082996   0.0004635   0.0007113   0.0000013  -0.0000100  -0.8598778   0.4479819
4.9341243    -0.9993375  -0.0084873   0.0004644   0.0006830  -0.0000079  -0.0000109  -0.8588102   0.4494953
4.9947807    -0.9992960  -0.0085171   0.0004781   0.0007164  -0.0000006  -0.0000013  -0.8578174   0.4510817
5.0561827    -0.9993149  -0.0085052   0.0004707   0.0007272  -0.0000007  -0.0000055  -0.8568059   0.4527803
5.1183396    -0.9993246  -0.0086111   0.0004627   0.0007290   0.0000014  -0.0000067  -0.8558557   0.4544847
5.1812606    -0.9992514  -0.0087388   0.0004804   0.0007382   0.0000041   0.0000007  -0.8549632   0.4562606
5.2449550    -0.9992864  -0.0090089   0.0004780   0.0007394  -0.0000038  -0.0000165  -0.8540537   0.4582926
5.3094325    -0.9993224  -0.0090141   0.0004634   0.0007592  -0.0000002  -0.0000129  -0.8530595   0.4601084
5.3747026    -0.9993251  -0.0091639   0.0004685   0.0007744  -0.0000032  -0.0000010  -0.8520304   0.4623129
5.4407751    -0.9993469  -0.0092170   0.0004667   0.0007774   0.0000050  -0.0000045  -0.8508710   0.4642557
5.5076599    -0.9992242  -0.0092518   0.0004593   0.0007908  -0.0000117  -0.0000096  -0.8497691   0.4663224
5.5753669    -0.9993589  -0.0094753   0.0004751   0.0007958   0.0000046  -0.0000046  -0.8485973   0.4684798
5.6439062    -0.9992712  -0.0096006   0.0004676   0.0007961   0.0000020  -0.0000020  -0.8474325   0.4705647
5.7132881    -0.9994412  -0.0096666   0.0004717   0.0008072  -0.0000053  -0.0000021  -0.8461542   0.4727491
5.7835229    -0.9993904  -0.0097217   0.0004804   0.0008208   0.0000120  -0.0000015  -0.8448744   0.4749231
5.8546211    -0.9993313  -0.0100173   0.0004764   0.0008300   0.0000019  -0.0000059  -0.8436650   0.4771559
5.9265934    -0.9992108  -0.0100327   0.0004809   0.0008488   0.0000031  -0.0000032  -0.8422969   0.4793258
5.9994504    -0.9993434  -0.0101288   0.0004697   0.0008615  -0.0000047  -0.0000054  -0.8409209   0.4814409
6.0732031    -0.9992305  -0.0103431   0.0004772   0.0008618  -0.0000113  -0.0000100  -0.8395623   0.4836481
6.1478624    -0.9993315  -0.0105217   0.0004884   0.0008526   0.0000063  -0.0000045  -0.8381859   0.4858738
6.2234396    -0.9993648  -0.0105477   0.0004699   0.0008602  -0.0000013  -0.0000036  -0.8366054   0.4881844
6.2999458    -0.9992521  -0.0106693   0.0004773   0.0008996  -0.0000015  -0.0000074  -0.8352632   0.4904485
6.3773925    -0.9992880  -0.0108858   0.0004634   0.0008932  -0.0000065  -0.0000109  -0.8337530   0.4927246
6.4557914    -0.9992143  -0.0109033   0.0004768   0.0009151   0.0000019  -0.0000044  -0.8322471   0.4949631
6.5351539    -0.9992671  -0.0110717   0.0004801   0.0009275  -0.0000016   0.0000001  -0.8307492   0.4973691
6.6154922    -0.9993297  -0.0111487   0.0004632   0.0009348   0.0000017  -0.0000067  -0.8291662   0.4997310
6.6968180    -0.9993018  -0.0113098   0.0004769   0.0009547  -0.0000013  -0.0000054  -0.8275994   0.5021189
6.7791436    -0.9992515  -0.0115186   0.0004835   0.0009628  -0.0000036  -0.0000061  -0.8260330   0.5044637
6.8624812    -0.9993193  -0.0116286   0.0004776   0.0009592  -0.0000017  -0.0000108  -0.8244187   0.5069328
6.9468433    -0.9992500  -0.0117620   0.0004721   0.0009770  -0.0000075   0.0000006  -0.8228260   0.5093485
7.0322425    -0.9993080  -0.0119536   0.0004773   0.0009827  -0.0000001  -0.0000017  -0.8211146   0.5118158
7.1186916    -0.9992363  -0.0120248   0.0004853   0.0010103   0.0000055  -0.0000068  -0.8194095   0.5143454
7.2062034    -0.9993677  -0.0122190   0.0004688   0.0010063  -0.0000054  -0.0000028  -0.8176992   0.5169044
7.2947909    -0.9992987  -0.0124947   0.0004852   0.0010199  -0.0000060  -0.0000003  -0.8159561   0.5194736
7.3844675    -0.9994468  -0.0124957   0.0004745   0.0010305  -0.0000109  -0.0000018  -0.8142863   0.5220747
7.4752466    -0.9993523  -0.0125694   0.0004820   0.0010421   0.0000062  -0.0000064  -0.8124937   0.5246904
7.5671416    -0.9992978  -0.0128371   0.0004778   0.0010774  -0.0000101   0.0000033  -0.8107805   0.5273408
7.6601662    -0.9992494  -0.0129602   0.0004730   0.0010777  -0.0000032  -0.0000058  -0.8089321   0.5300260
7.7543345    -0.9993043  -0.0132160   0.0004976   0.0010874  -0.0000011  -0.0000027  -0.8070409   0.5328550
7.8496604    -0.9993311  -0.0133079   0.0004858   0.0011094  -0.0000081  -0.0000079  -0.8052010   0.5356596
7.9461581    -0.9992359  -0.0135031   0.0004838   0.0011115  -0.0000041  -0.0000001  -0.8031845   0.5385086
8.0438422    -0.9992843  -0.0136234   0.0004905   0.0011459  -0.0000019   0.0000034  -0.8012046   0.5413537
8.1427270    -0.9992877  -0.0138223   0.0004719   0.0011427   0.0000042   0.0000010  -0.7990345   0.5443276
8.2428275    -0.9993325  -0.0140016   0.0004883   0.0011538   0.0000016   0.0000028  -0.7968067   0.5471867
8.3441586    -0.9993750  -0.0141665   0.0004771   0.0011525  -0.0000017   0.0000017  -0.7946318   0.5499687
8.4467353    -0.9993275  -0.0143189   0.0004787   0.0011807   0.0000085  -0.0000037  -0.7923743   0.5529673
8.5505731    -0.9993122  -0.0145458   0.0004838   0.0011976   0.0000036  -0.0000037  -0.7900742   0.5557386
8.6556873    -0.9993264  -0.0148092   0.0004959   0.0012069   0.0000022  -0.0000069  -0.7877981   0.5586649
8.7620937    -0.9993138  -0.0149808   0.0004809   0.0012254  -0.0000146  -0.0000022  -0.7855033   0.5615264
8.8698082    -0.9992430  -0.0150375   0.0004836   0.0012364   0.0000006  -0.0000076  -0.7831491   0.5644380
8.9788469    -0.9992064  -0.0153657   0.0004937   0.0012614   0.0000057  -0.0000060  -0.7808526   0.5673655
9.0892260    -0.9993391  -0.0154484   0.0005006   0.0012732  -0.0000017  -0.0000065  -0.7784899   0.5703176
9.2009621    -0.9993302  -0.0156290   0.0004925   0.0012880  -0.0000012  -0.0000011  -0.7759998   0.5733714
9.3140717    -0.9992614  -0.0157688   0.0004943   0.0012972   0.0000038   0.0000058  -0.7735743   0.5763568
9.4285718    -0.9993037  -0.0159309   0.0005041   0.0013076  -0.0000053  -0.0000121  -0.7711036   0.5794398
9.5444795    -0.9993120  -0.0161998   0.0004739   0.0013311  -0.0000082   0.0000062  -0.7685506   0.5825374
9.6618121    -0.9992031  -0.0163888   0.0004983   0.0013372   0.0000018  -0.0000043  -0.7660223   0.5856292
9.7805870    -0.9991911  -0.0166894   0.0005027   0.0013505   0.0000009   0.0000032  -0.7634060   0.5888029
9.9008221    -0.9992379  -0.0167531   0.0004843   0.0013798   0.0000039  -0.0000012  -0.7607542   0.5920226
10.0225353   -0.9991869  -0.0168750   0.0005045   0.0014014  -0.0000049  -0.0000083  -0.7581033   0.5951324
10.1457447   -0.9992147  -0.0171815   0.0005091   0.0014099  -0.0000039  -0.0000058  -0.7553612   0.5984296
10.2704688   -0.9991956  -0.0174140   0.0004804   0.0014277  -0.0000041  -0.0000085  -0.7526769   0.6017045
10.3967261   -0.9992072  -0.0176599   0.0005068   0.0014397  -0.0000061  -0.0000066  -0.7498397   0.6050384
10.5245356   -0.9993344  -0.0178762   0.0005088   0.0014569  -0.0000079  -0.0000076  -0.7469667   0.6082174
10.6539162   -0.9992367  -0.0180899   0.0005014   0.0014916   0.0000029   0.0000029  -0.7440703   0.6115378
10.7848873   -0.9992627  -0.0183060   0.0004886   0.0014841   0.0000005  -0.0000063  -0.7411368   0.6149778
10.9174685   -0.9992995  -0.0185132   0.0004945   0.0015109  -0.0000070  -0.0000035  -0.7381281   0.6183689
11.0516796   -0.9992166  -0.0188298   0.0004938   0.0015280  -0.0000045   0.0000037  -0.7349763   0.6217995
11.1875405   -0.9992968  -0.0188978   0.0005090   0.0015530   0.0000009  -0.0000076  -0.7319551   0.6253218
11.3250716   -0.9991845  -0.0192129   0.0004829   0.0015714  -0.0000013  -0.0000002  -0.7288001   0.6287838
11.4642934   -0.9992358  -0.0193853   0.0005030   0.0015722  -0.0000070  -0.0000020  -0.7255736   0.6322627
11.6052267   -0.9992190  -0.0196512   0.0005022   0.0015866  -0.0000104  -0.0000051  -0.7223402   0.6358978
11.7478926   -0.9992149  -0.0200115   0.0005056   0.0016143  -0.0000036   0.0000009  -0.7190147   0.6394037
11.8923122   -0.9992271  -0.0202376   0.0005053   0.0016343   0.0000007   0.0000002  -0.7156511   0.6429700
12.0385073   -0.9991847  -0.0203461   0.0005086   0.0016717  -0.0000075  -0.0000003  -0.7121713   0.6466395
12.1864995   -0.9991516  -0.0207340   0.0005131   0.0016803  -0.0000044  -0.0000095  -0.7086981   0.6502674
12.3363111   -0.9991824  -0.0209123   0.0005025   0.0016997  -0.0000098  -0.0000015  -0.7052440   0.6539590
12.4879643   -0.9991877  -0.0211739   0.0004936   0.0017191  -0.0000047  -0.0000026  -0.7015574   0.6576797
12.6414818   -0.9992459  -0.0214380   0.0004904   0.0017220   0.0000050  -0.0000068  -0.6978449   0.6613944
12.7968866   -0.9991189  -0.0217540   0.0004862   0.0017596   0.0000019  -0.0000131  -0.6941116   0.6651428
12.9542018   -0.9992415  -0.0219681   0.0005136   0.0017921   0.0000027   0.0000004  -0.6903715   0.6689079
13.1134509   -0.9993732  -0.0222327   0.0005146   0.0018077  -0.0000100  -0.0000035  -0.6864955   0.6727020
13.2746577   -0.9990892  -0.0226152   0.0005035   0.0018301  -0.0000033  -0.0000037  -0.6825288   0.6765492
13.4378462   -0.9991596  -0.0227669   0.0005168   0.0018406   0.0000116  -0.0000093  -0.6785797   0.6805044
13.6030409   -0.9991894  -0.0229736   0.0005157   0.0018711   0.0000024  -0.0000091  -0.6744924   0.6843455
13.7702663   -0.9991604  -0.0232913   0.0005064   0.0019026  -0.0000078   0.0000053  -0.6703140   0.6882447
13.9395475   -0.9991650  -0.0235820   0.0005004   0.0019012  -0.0000009  -0.0000010  -0.6661352   0.6921232
14.1109097   -0.9991502  -0.0237885   0.0005179   0.0019347  -0.0000038  -0.0000051  -0.6618006   0.6961022
14.2843785   -0.9991566  -0.0240448   0.0005072   0.0019580   0.0000052   0.0000030  -0.6574447   0.7000021
14.4599797   -0.9991270  -0.0245058   0.0005106   0.0019680   0.0000036  -0.0000067  -0.6530176   0.7040575
14.6377397   -0.9991617  -0.0247359   0.0005118   0.0019993  -0.0000093  -0.0000076  -0.6485291   0.7080584
14.8176850   -0.9989807  -0.0251548   0.0005178   0.0020050  -0.0000131   0.0000027  -0.6439510   0.7120446
14.9998423   -0.9990744  -0.0253496   0.0005074   0.0020521  -0.0000022  -0.0000131  -0.6392536   0.7161155
15.1842390   -0.9990395  -0.0256936   0.0005061   0.0020641  -0.0000130   0.0000049  -0.6344815   0.7202062
15.3709024   -0.9991046  -0.0261042   0.0005122   0.0020991  -0.0000048   0.0000017  -0.6297241   0.7242485
15.5598606   -0.9990685  -0.0263745   0.0005062   0.0021186  -0.0000054  -0.0000108  -0.6248621   0.7283607
15.7511417   -0.9991384  -0.0267174   0.0005148   0.0021477   0.0000019  -0.0000063  -0.6198680   0.7325479
15.9447743   -0.9990912  -0.0269999   0.0005114   0.0021735   0.0000020  -0.0000005  -0.6148227   0.7366409
16.1407872   -0.9990237  -0.0272584   0.0005130   0.0022082  -0.0000153  -0.0000110  -0.6095775   0.7408179
16.3392097   -0.9990301  -0.0275568   0.0005267   0.0022233  -0.0000056   0.0000011  -0.6043237   0.7450111
16.5400716   -0.9991232  -0.0280742   0.0005248   0.0022542  -0.0000077   0.0000002  -0.5990279   0.7492048
16.7434026   -0.9990050  -0.0283878   0.0005270   0.0022849  -0.0000112  -0.0000024  -0.5935454   0.7533613
16.9492333   -0.9990416  -0.0286777   0.0005299   0.0023229   0.0000049   0.0000022  -0.5880423   0.7577115
17.1575942   -0.9990186  -0.0290496   0.0005064   0.0023501  -0.0000039   0.0000064  -0.5824226   0.7618352
17.3685166   -0.9988664  -0.0293075   0.0005191   0.0023527  -0.0000002   0.0000013  -0.5767305   0.7661086
17.5820320   -0.9989262  -0.0296753   0.0005362   0.0023818  -0.0000036  -0.0000010  -0.5708657   0.7702965
17.7981721   -0.9989743  -0.0301205   0.0005254   0.0024278  -0.0000008  -0.0000063  -0.5649477   0.7746078
18.0169693   -0.9989263  -0.0304447   0.0005195   0.0024407  -0.0000148   0.0000015  -0.5589829   0.7788677
18.2384562   -0.9989675  -0.0308367   0.0005120   0.0024741  -0.0000088  -0.0000066  -0.5528978   0.7832294
18.4626659   -0.9989038  -0.0312030   0.0005207   0.0024991   0.0000017  -0.0000043  -0.5466180   0.7874117
18.6896319   -0.9989401  -0.0316038   0.0005220   0.0025206  -0.0000066   0.0000047  -0.5403799   0.7916946
18.9193880   -0.9989793  -0.0319641   0.0005258   0.0025626  -0.0000040  -0.0000020  -0.5338648   0.7960754
19.1519686   -0.9989205  -0.0324473   0.0005260   0.0025882   0.0000009  -0.0000067  -0.5272533   0.8003731
19.3874083   -0.9988676  -0.0327391   0.0005347   0.0026296  -0.0000090  -0.0000072  -0.5205907   0.8046701
19.6257423   -0.9989270  -0.0331159   0.0005152   0.0026608  -0.0000034  -0.0000054  -0.5139282   0.8090026
19.8670063   -0.9988955  -0.0336232   0.0005300   0.0026897  -0.0000003  -0.0000053  -0.5070653   0.8132444
20.1112361   -0.9989321  -0.0339360   0.0005328   0.0027210   0.0000014   0.0000039  -0.5000667   0.8175503
20.3584684   -0.9988621  -0.0344389   0.0005242   0.0027530  -0.0000109  -0.0000031  -0.4928451   0.8218131
20.6087399   -0.9988801  -0.0348278   0.0005285   0.0027736   0.0000064  -0.0000074  -0.4856078   0.8260492
20.8620881   -0.9987605  -0.0352372   0.0005237   0.0028213  -0.0000070   0.0000015  -0.4781752   0.8303917
21.1185507   -0.9987689  -0.0357291   0.0005254   0.0028535  -0.0000055   0.0000029  -0.4706816   0.8346281
21.3781661   -0.9987700  -0.0361872   0.0005305   0.0028881  -0.0000035  -0.0000010  -0.4630449   0.8387695
21.6409730   -0.9987781  -0.0365189   0.0005236   0.0029202  -0.0000039  -0.0000078  -0.4552968   0.8429882
21.9070107   -0.9987942  -0.0370686   0.0005160   0.0029532  -0.0000070   0.0000040  -0.4474480   0.8472129
22.1763188   -0.9986793  -0.0374593   0.0005312   0.0029930  -0.0000040   0.0000040  -0.4393970   0.8514093
22.4489376   -0.9987107  -0.0379264   0.0005243   0.0030295  -0.0000043  -0.0000038  -0.4312338   0.8556008
22.7249077   -0.9987370  -0.0383067   0.0005247   0.0030572  -0.0000006  -0.0000028  -0.4229033   0.8597198
23.0042705   -0.9986652  -0.0387487   0.0005222   0.0031041  -0.0000025   0.0000032  -0.4144679   0.8638397
23.2870675   -0.9985762  -0.0394235   0.0005246   0.0031329  -0.0000063   0.0000051  -0.4059703   0.8679089
23.5733409   -0.9986791  -0.0398285   0.0005228   0.0031755  -0.0000101  -0.0000119  -0.3971808   0.8719871
23.8631337   -0.9985283  -0.0402756   0.0005320   0.0032018  -0.0000095   0.0000009  -0.3882574   0.8759217
24.1564889   -0.9986714  -0.0407727   0.0005193   0.0032403  -0.0000145   0.0000020  -0.3793041   0.8799030
24.4534504   -0.9985873  -0.0412840   0.0005279   0.0032971  -0.0000039  -0.0000033  -0.3701540   0.8837846
24.7540625   -0.9985499  -0.0418548   0.0005222   0.0033178  -0.0000011  -0.0000056  -0.3608652   0.8877116
25.0583701   -0.9985038  -0.0423350   0.0005340   0.0033740   0.0000015  -0.0000007  -0.3513553   0.8915770
25.3664186   -0.9984764  -0.0428431   0.0005360   0.0033998  -0.0000058  -0.0000061  -0.3416299   0.8953736
25.6782541   -0.9985473  -0.0433588   0.0005335   0.0034401   0.0000039  -0.0000031  -0.3318719   0.8991532
25.9939230   -0.9984450  -0.0438895   0.0005445   0.0035188  -0.0000041  -0.0000050  -0.3219447   0.9027781
26.3134725   -0.9984104  -0.0444052   0.0005335   0.0035419   0.0000036  -0.0000035  -0.3118192   0.9063520
26.6369503   -0.9984014  -0.0450160   0.0005289   0.0035600  -0.0000030  -0.0000139  -0.3015927   0.9099376
26.9644047   -0.9984068  -0.0455161   0.0005330   0.0036219   0.0000019   0.0000037  -0.2911556   0.9134289
27.2958846   -0.9982986  -0.0460279   0.0005468   0.0036692  -0.0000076   0.0000021  -0.2805167   0.9167797
27.6314394   -0.9983833  -0.0467061   0.0005259   0.0037000  -0.0000017  -0.0000051  -0.2698048   0.9201340
27.9711193   -0.9983953  -0.0471669   0.0005488   0.0037469   0.0000071  -0.0000031  -0.2588429   0.9232956
28.3149750   -0.9982828  -0.0478343   0.0005235   0.0037992   0.0000039  -0.0000051  -0.2477763   0.9264440
28.6630578   -0.9981967  -0.0483838   0.0005321   0.0038360  -0.0000087  -0.0000003  -0.2365017   0.9294491
29.0154196   -0.9982201  -0.0489214   0.0005186   0.0038929  -0.0000064  -0.0000030  -0.2250419   0.9323611
29.3721131   -0.9981769  -0.0495791   0.0005365   0.0039407   0.0000014  -0.0000039  -0.2134533   0.9351741
29.7331915   -0.9982331  -0.0501927   0.0005274   0.0039793  -0.0000054  -0.0000036  -0.2016027   0.9379710
30.0987087   -0.9980906  -0.0507124   0.0005393   0.0040253  -0.0000033   0.0000123  -0.1897006   0.9405994
30.4687194   -0.9979714  -0.0513123   0.0005237   0.0040709  -0.0000021  -0.0000058  -0.1775500   0.9431766
30.8432786   -0.9981031  -0.0520323   0.0005308   0.0041191  -0.0000102   0.0000030  -0.1652043   0.9454509
31.2224424   -0.9979928  -0.0526157   0.0005228   0.0041769   0.0000061   0.0000027  -0.1527992   0.9476807
31.6062674   -0.9979216  -0.0533028   0.0005361   0.0042128  -0.0000091  -0.0000072  -0.1400337   0.9498177
31.9948108   -0.9979655  -0.0539238   0.0005262   0.0042810   0.0000000   0.0000043  -0.1271896   0.9518871
32.3881306   -0.9979310  -0.0546549   0.0005222   0.0043312  -0.0000007  -0.0000042  -0.1141830   0.9537462
32.7862857   -0.9977136  -0.0552563   0.0005341   0.0043775  -0.0000070  -0.0000062  -0.1009629   0.9553778
33.1893353   -0.9977738  -0.0559679   0.0005125   0.0044320  -0.0000018  -0.0000006  -0.0875903   0.9570247
33.5973398   -0.9977824  -0.0566334   0.0005252   0.0044959   0.0000037  -0.0000116  -0.0740442   0.9583378
34.0103599   -0.9976776  -0.0574087   0.0005160   0.0045427  -0.0000011   0.0000036  -0.0602129   0.9594876
34.4284574   -0.9976926  -0.0579396   0.0005219   0.0045892  -0.0000075  -0.0000028  -0.0465159   0.9606917
34.8516946   -0.9976268  -0.0586449   0.0005199   0.0046503  -0.0000053   0.0000028  -0.0322434   0.9616950
35.2801349   -0.9975599  -0.0594228   0.0005307   0.0047010  -0.0000032  -0.0000036  -0.0177784   0.9624635
35.7138420   -0.9975183  -0.0601783   0.0005393   0.0047617  -0.0000069  -0.0000060  -0.0032039   0.9628964
36.1528808   -0.9975338  -0.0609560   0.0005259   0.0048233  -0.0000086  -0.0000063   0.0115347   0.9632563
36.5973168   -0.9974656  -0.0616523   0.0005250   0.0048842   0.0000000  -0.0000055   0.0264333   0.9633738
37.0472164   -0.9973362  -0.0624185   0.0005290   0.0049391  -0.0000010  -0.0000025   0.0415912   0.9631242
37.5026467   -0.9973365  -0.0631483   0.0005081   0.0050045   0.0000005  -0.0000051   0.0569194   0.9628974
37.9636757   -0.9972354  -0.0640727   0.0005240   0.0050671  -0.0000025  -0.0000048   0.0726387   0.9619464
38.4303722   -0.9971768  -0.0647639   0.0005278   0.0051232   0.0000012  -0.0000023   0.0881824   0.9611452
38.9028060   -0.9970496  -0.0655162   0.0005168   0.0051955   0.0000032   0.0000041   0.1040381   0.9599848
39.3810475   -0.9971149  -0.0663385   0.0005258   0.0052540  -0.0000019   0.0000034   0.1201362   0.9586652
39.8651681   -0.9969728  -0.0670424   0.0005166   0.0053141  -0.0000008   0.0000047   0.1362896   0.9569852
40.3552402   -0.9970350  -0.0679765   0.0005181   0.0053823   0.0000052   0.0000025   0.1527017   0.9550329
40.8513368   -0.9969039  -0.0687634   0.0005211   0.0054366  -0.0000009  -0.0000083   0.1693457   0.9526915
41.3535320   -0.9967912  -0.0696785   0.0005194   0.0055020  -0.0000069  -0.0000035   0.1860114   0.9501695
41.8619009   -0.9967176  -0.0704847   0.0005075   0.0055596  -0.0000012   0.0000013   0.2030277   0.9472720
42.3765193   -0.9967573  -0.0713538   0.0005096   0.0056296   0.0000010  -0.0000008   0.2201222   0.9440599
42.8974639   -0.9966384  -0.0722686   0.0005116   0.0057089  -0.0000026   0.0000052   0.2373514   0.9404513
43.4248127   -0.9965869  -0.0731595   0.0004995   0.0057816   0.0000010  -0.0000060   0.2547651   0.9366341
43.9586443   -0.9964854  -0.0741044   0.0005110   0.0058545   0.0000045  -0.0000092   0.2723270   0.9323410
44.4990385   -0.9964338  -0.0749476   0.0005026   0.0059244  -0.0000060   0.0000010   0.2900678   0.9276746
45.0460758   -0.9962924  -0.0757978   0.0005135   0.0059897   0.0000030   0.0000042   0.3079234   0.9226692
45.5998380   -0.9962431  -0.0767573   0.0005012   0.0060557  -0.0000014  -0.0000026   0.3258964   0.9172927
46.1604077   -0.9962011  -0.0777061   0.0005166   0.0061507  -0.0000057  -0.0000096   0.3439905   0.9114112
46.7278686   -0.9961246  -0.0787213   0.0004941   0.0062136  -0.0000078  -0.0000061   0.3622095   0.9051561
47.3023055   -0.9959723  -0.0796587   0.0004860   0.0062900  -0.0000035   0.0000063   0.3805383   0.8984954
47.8838040   -0.9959916  -0.0805944   0.0005085   0.0063650   0.0000035  -0.0000116   0.3990787   0.8913030
48.4724511   -0.9958442  -0.0815909   0.0004872   0.0064576  -0.0000043   0.0000037   0.4175483   0.8837820
49.0683345   -0.9957194  -0.0825995   0.0004929   0.0065228  -0.0000065   0.0000016   0.4362200   0.8757527
49.6715433   -0.9957224  -0.0835935   0.0004868   0.0066095  -0.0000056  -0.0000091   0.4548566   0.8672616
50.2821675   -0.9955306  -0.0846077   0.0004946   0.0066944  -0.0000049  -0.0000026   0.4737366   0.8581977
50.9002982   -0.9954502  -0.0855286   0.0004752   0.0067620  -0.0000001  -0.0000023   0.4925113   0.8486204
51.5260277   -0.9952725  -0.0866598   0.0004836   0.0068615   0.0000016  -0.0000145   0.5114078   0.8386844
52.1594495   -0.9951897  -0.0877169   0.0004805   0.0069369   0.0000007  -0.0000111   0.5302185   0.8281260
52.8006581   -0.9950902  -0.0888288   0.0004689   0.0070219   0.0000019  -0.0000070   0.5491565   0.8169084
53.4497492   -0.9949499  -0.0899392   0.0004784   0.0071123   0.0000038  -0.0000035   0.5682259   0.8053365
54.1068198   -0.9948371  -0.0910738   0.0004685   0.0072171   0.0000014  -0.0000070   0.5870810   0.7931806
54.7719678   -0.9947789  -0.0921384   0.0004644   0.0072821  -0.0000080  -0.0000108   0.6059003   0.7804755
55.4452927   -0.9947336  -0.0931899   0.0004643   0.0073866  -0.0000031   0.0000036   0.6248029   0.7668483
56.1268950   -0.9945066  -0.0944339   0.0004616   0.0074507  -0.0000012  -0.0000006   0.6436129   0.7528409
56.8168763   -0.9943728  -0.0956062   0.0004689   0.0075745  -0.0000113  -0.0000002   0.6623330   0.7382715
57.5153398   -0.9943475  -0.0966756   0.0004598   0.0076620  -0.0000006  -0.0000099   0.6809259   0.7230836
58.2223896   -0.9940556  -0.0978502   0.0004436   0.0077625   0.0000062  -0.0000063   0.6993919   0.7071741
58.9381314   -0.9939276  -0.0992261   0.0004470   0.0078469   0.0000077  -0.0000018   0.7177304   0.6906869
59.6626719   -0.9939255  -0.1002443   0.0004593   0.0079476   0.0000018  -0.0000044   0.7358872   0.6734457
60.3961194   -0.9937240  -0.1016263   0.0004537   0.0080495  -0.0000076  -0.0000076   0.7539451   0.6555725
61.1385834   -0.9935059  -0.1027713   0.0004408   0.0081515   0.0000077  -0.0000151   0.7717916   0.6369847
61.8901746   -0.9933937  -0.1041082   0.0004384   0.0082525  -0.0000007  -0.0000055   0.7892939   0.6177425
62.6510053   -0.9932862  -0.1052411   0.0004359   0.0083689  -0.0000042  -0.0000129   0.8065969   0.5978861
63.4211891   -0.9930623  -0.1065109   0.0004305   0.0084571  -0.0000005   0.0000010   0.8236544   0.5771804
64.2008409   -0.9929357  -0.1078918   0.0004317   0.0085501  -0.0000013  -0.0000071   0.8403290   0.5559154
64.9900772   -0.9927227  -0.1092513   0.0004335   0.0086776   0.0000060  -0.0000039   0.8567017   0.5338548
65.7890158   -0.9926599  -0.1105153   0.0004273   0.0087908   0.0000066  -0.0000067   0.8726612   0.5111127
66.5977759   -0.9923760  -0.1119603   0.0004248   0.0088883  -0.0000110   0.0000004   0.8881822   0.4875516
67.4164783   -0.9923505  -0.1132705   0.0004258   0.0089959   0.0000024  -0.0000098   0.9034119   0.4632958
68.2452452   -0.9920776  -0.1145709   0.0003891   0.0091200  -0.0000016  -0.0000030   0.9180764   0.4384124
69.0842003   -0.9919826  -0.1160196   0.0004130   0.0092292  -0.0000021  -0.0000152   0.9322427   0.4127304
69.9334689   -0.9917630  -0.1173997   0.0003873   0.0093470  -0.0000106  -0.0000085   0.9455765   0.3863505
70.7931778   -0.9913838  -0.1189812   0.0004002   0.0094742   0.0000082  -0.0000021   0.9591080   0.3591561
71.6634552   -0.9911384  -0.1205015   0.0004011   0.0095891  -0.0000035  -0.0000070   0.9716677   0.3310241
72.5444312   -0.9910181  -0.1218760   0.0003996   0.0097090   0.0000123   0.0000005   0.9836817   0.3023485
73.4362373   -0.9908130  -0.1234918   0.0004151   0.0098519  -0.0000012  -0.0000107   0.9948434   0.2729349
74.3390065   -0.9907549  -0.1247643   0.0003486   0.0099404   0.0000080  -0.0000129   1.0046945   0.2431284
75.2528737   -0.9905098  -0.1263420   0.0003664   0.0100777  -0.0000040  -0.0000102   1.0143737   0.2123149
76.1779753   -0.9903399  -0.1278855   0.0003415   0.0102262  -0.0000051  -0.0000124   1.0232854   0.1808396
77.1144493   -0.9899700  -0.1295161   0.0003545   0.0103377  -0.0000026  -0.0000045   1.0313023   0.1486103
78.0624357   -0.9897383  -0.1310167   0.0003554   0.0104871  -0.0000029  -0.0000080   1.0384154   0.1157628
79.0220759   -0.9894638  -0.1325531   0.0003502   0.0106020   0.0000002  -0.0000036   1.0445212   0.0821697
79.9935132   -0.9892974  -0.1343305   0.0003479   0.0107386   0.0000041  -0.0000131   1.0496229   0.0480313
80.9768926   -0.9889702  -0.1359246   0.0003501   0.0108831  -0.0000064  -0.0000116   1.0537186   0.0132410
81.9723609   -0.9886678  -0.1375896   0.0003464   0.0110210   0.0000053  -0.0000071   1.0567157  -0.0222640
82.9800667   -0.9884388  -0.1392895   0.0003194   0.0111711  -0.0000016  -0.0000180   1.0586042  -0.0582525
84.0001605   -0.9880981  -0.1409274   0.0003463   0.0112976   0.0000053  -0.0000160   1.0593000  -0.0947391
85.0327946   -0.9878973  -0.1426069   0.0003350   0.0114528   0.0000022  -0.0000081   1.0586965  -0.1319093
86.0781231   -0.9876476  -0.1444661   0.0003230   0.0116019   0.0000029  -0.0000101   1.0568105  -0.1694968
87.1363020   -0.9872848  -0.1462048   0.0003207   0.0117452   0.0000048  -0.0000041   1.0536046  -0.2074041
88.2074894   -0.9869324  -0.1480100   0.0002984   0.0119019  -0.0000051  -0.0000155   1.0489040  -0.2458368
89.2918452   -0.9866875  -0.1498073   0.0003104   0.0120482  -0.0000005  -0.0000021   1.0430306  -0.2849234
90.3895312   -0.9863761  -0.1517556   0.0003158   0.0122018  -0.0000024  -0.0000180   1.0355088  -0.3237174
91.5007114   -0.9860061  -0.1534874   0.0003053   0.0123683  -0.0000084  -0.0000163   1.0264270  -0.3630294
92.6255515   -0.9856521  -0.1554174   0.0002864   0.0125166  -0.0000034  -0.0000041   1.0155656  -0.4024850
93.7642195   -0.9854209  -0.1572912   0.0002840   0.0126802  -0.0000052  -0.0000188   1.0031624  -0.4420937
94.9168855   -0.9850658  -0.1591733   0.0002749   0.0128515  -0.0000125  -0.0000104   0.9892346  -0.4818269
96.0837215   -0.9846772  -0.1610539   0.0002862   0.0130231  -0.0000039  -0.0000178   0.9734644  -0.5215695
97.2649017   -0.9844179  -0.1630971   0.0002935   0.0131941  -0.0000004  -0.0000104   0.9559370  -0.5609835
98.4606024   -0.9839079  -0.1650941   0.0002711   0.0133716  -0.0000038  -0.0000064   0.9365502  -0.6005025
99.6710021   -0.9835311  -0.1671089   0.0002894   0.0135400  -0.0000145  -0.0000062   0.9153443  -0.6396754
100.8962816  -0.9831333  -0.1689519   0.0002838   0.0137118  -0.0000102  -0.0000124   0.8922365  -0.6784421
102.1366237  -0.9826707  -0.1711943   0.0002948   0.0138939   0.0000052  -0.0000179   0.8671283  -0.7166929
103.3922136  -0.9821831  -0.1731940   0.0002694   0.0140726  -0.0000096  -0.0000112   0.8401955  -0.7544722
104.6632389  -0.9817967  -0.1753324   0.0002875   0.0142672  -0.0000105  -0.0000055   0.8113415  -0.7912682
105.9498891  -0.9808152  -0.1774707   0.0002895   0.0145418  -0.0000069  -0.0000089   0.7803574  -0.8250929
107.2523564  -0.9811538  -0.1796247   0.0002278   0.0146312  -0.0000016  -0.0000085   0.7458400  -0.8653272
108.5708353  -0.9809767  -0.1817327   0.0002507   0.0148030  -0.0000106  -0.0000041   0.7121824  -0.8993932
109.9055225  -0.9791548  -0.1840520   0.0003406   0.0150635   0.0000076  -0.0000064   0.6774515  -0.9319120
111.2566174  -0.9794291  -0.1861748   0.0002832   0.0152484  -0.0000017  -0.0000120   0.6366632  -0.9623526
112.6243216  -0.9790159  -0.1885067   0.0002759   0.0154303   0.0000017  -0.0000150   0.5956314  -0.9930429
114.0088393  -0.9785847  -0.1907746   0.0002902   0.0156407  -0.0000127  -0.0000032   0.5528684  -1.0220177
115.4103773  -0.9780312  -0.1931133   0.0002785   0.0158254  -0.0000076  -0.0000214   0.5080600  -1.0493846
116.8291446  -0.9774628  -0.1953970   0.0003364   0.0160359   0.0000125  -0.0000049   0.4616156  -1.0748125
118.2653533  -0.9770147  -0.1977858   0.0002909   0.0162543  -0.0000004  -0.0000118   0.4131618  -1.0983546
119.7192175  -0.9764351  -0.2001591   0.0003028   0.0164706  -0.0000147  -0.0000006   0.3630310  -1.1198741
121.1909545  -0.9759523  -0.2026127   0.0003162   0.0166779  -0.0000096  -0.0000137   0.3112472  -1.1389094
122.6807839  -0.9753957  -0.2049997   0.0003264   0.0168996  -0.0000186  -0.0000183   0.2578829  -1.1556283
124.1889281  -0.9746630  -0.2075723   0.0003409   0.0171149   0.0000025  -0.0000021   0.2030196  -1.1697805
125.7156123  -0.9740853  -0.2100010   0.0003752   0.0173462  -0.0000108  -0.0000053   0.1468018  -1.1813263
127.2610644  -0.9732923  -0.2124945   0.0003219   0.0175842  -0.0000061  -0.0000096   0.0899457  -1.1898236
128.8255151  -0.9727875  -0.2150267   0.0003623   0.0177838  -0.0000125  -0.0000101   0.0310541  -1.1954536
130.4091980  -0.9722459  -0.2176929   0.0003638   0.0180414  -0.0000132  -0.0000125  -0.0282397  -1.1979713
132.0123495  -0.9715347  -0.2203422   0.0004179   0.0182788  -0.0000062  -0.0000027  -0.0885005  -1.1971293
133.6352088  -0.9706931  -0.2230533   0.0004110   0.0184997  -0.0000239  -0.0000059  -0.1491135  -1.1931309
135.2780184  -0.9700789  -0.2257187   0.0004269   0.0187812  -0.0000031  -0.0000057  -0.2103454  -1.1854267
136.9410235  -0.9693958  -0.2283280   0.0004299   0.0190100  -0.0000093  -0.0000137  -0.2717939  -1.1740384
138.6244722  -0.9685678  -0.2311369   0.0004457   0.0192496  -0.0000096  -0.0000023  -0.3330388  -1.1591738
140.3286160  -0.9678440  -0.2338844   0.0004638   0.0195156  -0.0000127  -0.0000127  -0.3943408  -1.1406394
142.0537093  -0.9672026  -0.2364394   0.0004954   0.0197033  -0.0000183  -0.0000196  -0.4577303  -1.1193078
143.8000095  -0.9660530  -0.2392975   0.0004814   0.0200282  -0.0000058   0.0000000  -0.5114804  -1.0920313
145.5677774  -0.9651912  -0.2423903   0.0005541   0.0203740   0.0000058  -0.0000122  -0.5686752  -1.0596310
147.3572769  -0.9647016  -0.2452159   0.0005630   0.0205654  -0.0000021  -0.0000169  -0.6296031  -1.0274029
149.1687752  -0.9639751  -0.2481871   0.0005768   0.0208061   0.0000015  -0.0000091  -0.6842854  -0.9897038
151.0025426  -0.9629581  -0.2512950   0.0006051   0.0211059  -0.0000053  -0.0000193  -0.7376444  -0.9478988
152.8588530  -0.9620788  -0.2542462   0.0006483   0.0213560  -0.0000013  -0.0000092  -0.7884430  -0.9023780
154.7379834  -0.9612448  -0.2573551   0.0006781   0.0216273  -0.0000086  -0.0000110  -0.8368112  -0.8532143
156.6402144  -0.9603307  -0.2604187   0.0007345   0.0219246  -0.0000084  -0.0000061  -0.8822036  -0.8005717
158.5658301  -0.9592957  -0.2632932   0.0007587   0.0221926  -0.0000037   0.0000147  -0.9241073  -0.7445390
160.5151177  -0.9584211  -0.2665152   0.0008259   0.0224756   0.0000014  -0.0000065  -0.9630209  -0.6849737
162.4883685  -0.9573679  -0.2705993   0.0008608   0.0228700   0.0000013  -0.0000028  -0.9967976  -0.6237559
164.4858769  -0.9562569  -0.2729034   0.0008858   0.0230716   0.0000046  -0.0000033  -1.0278789  -0.5582318
166.5079411  -0.9554752  -0.2761595   0.0009583   0.0233625  -0.0000070  -0.0000102  -1.0539276  -0.4910024
168.5548630  -0.9542065  -0.2794485   0.0010160   0.0236691  -0.0000107   0.0000016  -1.0755896  -0.4214285
170.6269483  -0.9531013  -0.2830099   0.0010593   0.0239308  -0.0000006  -0.0000172  -1.0920161  -0.3500769
172.7245062  -0.9518079  -0.2863849   0.0010844   0.0242623   0.0000046  -0.0000030  -1.1035268  -0.2774294
174.8478498  -0.9509705  -0.2895660   0.0011735   0.0245653   0.0000061  -0.0000036  -1.1094082  -0.2032648
176.9972963  -0.9496462  -0.2933493   0.0012160   0.0248988   0.0000235  -0.0000062  -1.1102204  -0.1277967
179.1731664  -0.9484182  -0.2996214   0.0013566   0.0253084  -0.0000187  -0.0000088  -1.1019377  -0.0580540
181.3757850  -0.9479259  -0.3007415   0.0015278   0.0252867  -0.0000020  -0.0000058  -1.0923748   0.0172629
183.6054809  -0.9463406  -0.3045179   0.0013736   0.0257482  -0.0000115  -0.0000014  -1.0773858   0.0954521
185.8625870  -0.9451802  -0.3088960   0.0014780   0.0260711  -0.0000271  -0.0000083  -1.0548059   0.1676861
188.1474402  -0.9458000  -0.3134084   0.0015074   0.0263687  -0.0000045  -0.0000041  -1.0266452   0.2388777
190.4603817  -0.9461581  -0.3131029   0.0016235   0.0267248  -0.0000241  -0.0000166  -0.9928692   0.3077410
192.8017567  -0.9425241  -0.3161139   0.0017036   0.0270255   0.0000113  -0.0000080  -0.9528826   0.3737659
195.1719148  -0.9400825  -0.3201736   0.0018229   0.0273555  -0.0000411   0.0000164  -0.9079903   0.4365081
197.5712099  -0.9388001  -0.3233133   0.0019100   0.0275363   0.0000064  -0.0000064  -0.8584258   0.4960860
200.0000000  -0.9367504  -0.3283977   0.0020055   0.0279532  -0.0000129  -0.0000066  -0.8026131   0.5505821
