! ListType=Log
# MHZ S RI R 50
0.0010000    -0.9993433   0.0004166  -0.0013161  -0.0016770  -0.0000115  -0.0000299  -0.9088780   0.2599563
0.0010123    -1.0003419  -0.0001930  -0.0010190   0.0000536   0.0000121  -0.0000287  -0.9094622   0.2603417
0.0010247    -0.9985056  -0.0007343  -0.0000583   0.0003492  -0.0000157   0.0000266  -0.9095897   0.2591301
0.0010373    -0.9995182  -0.0002854   0.0007224   0.0010144  -0.0000085  -0.0000056  -0.9097936   0.2598523
0.0010501    -0.9992744   0.0009813  -0.0001538  -0.0000790  -0.0000136  -0.0000118  -0.9091506   0.2596915
0.0010630    -1.0004349  -0.0000317  -0.0003486  -0.0002059   0.0000229   0.0000125  -0.9105505   0.2595735
0.0010761    -0.9990500   0.0001314  -0.0006150   0.0004495  -0.0000149   0.0000095  -0.9107037   0.2587981
0.0010893    -1.0008071  -0.0001137  -0.0003360   0.0007203   0.0000198  -0.0000037  -0.9110865   0.2599258
0.0011027    -0.9998537  -0.0001630  -0.0002475   0.0006807   0.0000030  -0.0000187  -0.9110775   0.2587990
0.0011162    -0.9994171  -0.0011769  -0.0003146   0.0005703  -0.0000056   0.0000030  -0.9120701   0.2584382
0.0011300    -0.9990686   0.0002653  -0.0005193   0.0002336  -0.0000259  -0.0000173  -0.9112969   0.2587179
0.0011439    -0.9996948   0.0001423   0.0000300   0.0008627   0.0000190  -0.0000020  -0.9120502   0.2590832
0.0011579    -0.9988229   0.0000135  -0.0003583   0.0005512  -0.0000080   0.0000011  -0.9120575   0.2578675
0.0011721    -0.9997405  -0.0000800   0.0000466   0.0002381   0.0000114  -0.0000118  -0.9124015   0.2585311
0.0011866    -0.9988557   0.0007895  -0.0002551  -0.0002198  -0.0000454  -0.0000152  -0.9122040   0.2582435
0.0012011    -0.9996316  -0.0000742  -0.0002298  -0.0001907  -0.0000151   0.0000003  -0.9128818   0.2582597
0.0012159    -1.0000960  -0.0003704   0.0001610   0.0007488   0.0000208   0.0000031  -0.9136437   0.2584854
0.0012309    -0.9994105  -0.0004149  -0.0003770   0.0004213   0.0000094   0.0000109  -0.9137401   0.2577885
0.0012460    -0.9996127   0.0005188  -0.0001672   0.0001048  -0.0000062  -0.0000060  -0.9134154   0.2581256
0.0012613    -1.0001793  -0.0003640  -0.0001233   0.0009049   0.0000269  -0.0000021  -0.9147353   0.2579363
0.0012768    -0.9989401   0.0001638  -0.0000364   0.0003589  -0.0000207   0.0000053  -0.9141770   0.2576231
0.0012925    -1.0003894  -0.0000633   0.0001635   0.0009128   0.0000140   0.0000076  -0.9151106   0.2580592
0.0013084    -0.9992228  -0.0000321  -0.0000506   0.0002037  -0.0000049   0.0000097  -0.9149123   0.2575421
0.0013245    -1.0003955  -0.0002328  -0.0006833   0.0002488   0.0000181  -0.0000016  -0.9155488   0.2580240
0.0013408    -0.9993347   0.0001617  -0.0001751   0.0000597   0.0000024  -0.0000096  -0.9153819   0.2572752
0.0013572    -1.0001806  -0.0005173  -0.0002520   0.0004067   0.0000187   0.0000077  -0.9163567   0.2576933
0.0013739    -0.9994230   0.0004040  -0.0005166  -0.0001525   0.0000133   0.0000164  -0.9162218   0.2575399
0.0013908    -0.9998360  -0.0008275  -0.0000715   0.0000944   0.0000136   0.0000045  -0.9169530   0.2576089
0.0014079    -0.9992805   0.0003093  -0.0003207   0.0004240  -0.0000214  -0.0000005  -0.9167295   0.2573538
0.0014252    -0.9997678  -0.0006665   0.0002352   0.0004138   0.0000186   0.0000247  -0.9176592   0.2572531
0.0014427    -0.9996562   0.0005142  -0.0005414   0.0000559  -0.0000097  -0.0000156  -0.9173659   0.2571991
0.0014605    -0.9998032  -0.0003996  -0.0006212   0.0005881   0.0000009  -0.0000180  -0.9180822   0.2573986
0.0014784    -0.9993115   0.0003461  -0.0000102   0.0003637  -0.0000049   0.0000082  -0.9178605   0.2569127
0.0014966    -0.9999897   0.0004727  -0.0005128  -0.0003084   0.0000002  -0.0000287  -0.9186111   0.2574162
0.0015150    -0.9998123  -0.0006410  -0.0000200   0.0002207   0.0000270   0.0000241  -0.9189818   0.2573396
0.0015336    -0.9991114  -0.0000115   0.0001772   0.0000777  -0.0000074  -0.0000028  -0.9190102   0.2570696
0.0015525    -0.9995278   0.0007925  -0.0002194   0.0003110  -0.0000076  -0.0000167  -0.9190290   0.2573496
0.0015716    -0.9994165   0.0002846  -0.0002314   0.0002599   0.0000126  -0.0000211  -0.9196280   0.2571869
0.0015909    -0.9998350   0.0004613   0.0002092   0.0000243   0.0000100  -0.0000345  -0.9199847   0.2575694
0.0016104    -0.9992781  -0.0002177  -0.0004069   0.0000472  -0.0000243   0.0000094  -0.9203199   0.2569523
0.0016302    -0.9997957   0.0007092  -0.0001330   0.0001139   0.0000135  -0.0000063  -0.9203642   0.2573044
0.0016503    -0.9999310   0.0000324  -0.0006250   0.0005663   0.0000088  -0.0000100  -0.9213751   0.2574882
0.0016706    -0.9995872  -0.0000069   0.0001017   0.0002486   0.0000033  -0.0000045  -0.9211996   0.2574022
0.0016911    -0.9992228  -0.0003835  -0.0001842   0.0001765  -0.0000210  -0.0000159  -0.9218180   0.2570958
0.0017119    -0.9994837   0.0002201  -0.0002025   0.0003271  -0.0000161  -0.0000298  -0.9218589   0.2574357
0.0017329    -0.9995685  -0.0001087  -0.0001985   0.0002493  -0.0000031   0.0000134  -0.9220861   0.2573962
0.0017542    -0.9991796  -0.0004625  -0.0000171   0.0000497   0.0000071   0.0000175  -0.9225671   0.2571541
0.0017758    -0.9995209   0.0000971   0.0000922   0.0001952  -0.0000018  -0.0000029  -0.9227763   0.2574617
0.0017976    -0.9996320  -0.0002230   0.0000267  -0.0001284   0.0000059  -0.0000063  -0.9233452   0.2574793
0.0018197    -0.9992826   0.0000258   0.0000345   0.0000830  -0.0000150  -0.0000040  -0.9231438   0.2573279
0.0018421    -0.9999037  -0.0001840   0.0001560  -0.0000296   0.0000151  -0.0000070  -0.9238326   0.2577191
0.0018648    -0.9991829  -0.0000125  -0.0001125   0.0002015  -0.0000028   0.0000040  -0.9239003   0.2574820
0.0018877    -0.9996528   0.0005334   0.0000266   0.0000619  -0.0000105  -0.0000158  -0.9239804   0.2577066
0.0019109    -0.9995895  -0.0002354  -0.0004669   0.0003421  -0.0000036   0.0000066  -0.9248491   0.2579357
0.0019344    -0.9993150  -0.0001150   0.0000217   0.0004924  -0.0000050  -0.0000064  -0.9247153   0.2577397
0.0019582    -0.9995915   0.0001029  -0.0000645   0.0004192   0.0000018  -0.0000051  -0.9248236   0.2579512
0.0019822    -0.9999233  -0.0000056  -0.0009187   0.0015841   0.0000061   0.0000007  -0.9256894   0.2580907
0.0020066    -0.9996312   0.0000986  -0.0008311   0.0006807   0.0000030   0.0000010  -0.9257598   0.2582423
0.0020313    -0.9995796  -0.0003746   0.0004502  -0.0009221   0.0000072   0.0000076  -0.9261621   0.2581689
0.0020562    -0.9993860  -0.0002262  -0.0000619  -0.0001758  -0.0000161  -0.0000018  -0.9265384   0.2580705
0.0020815    -0.9996977   0.0000076  -0.0001702   0.0003621   0.0000003  -0.0000015  -0.9265952   0.2584793
0.0021071    -0.9994496  -0.0000572  -0.0001778   0.0004551  -0.0000104  -0.0000033  -0.9270215   0.2585237
0.0021330    -0.9999140   0.0001230  -0.0002934   0.0002150  -0.0000010  -0.0000229  -0.9272019   0.2587586
0.0021592    -0.9999252   0.0000985  -0.0000732   0.0000112  -0.0000025  -0.0000190  -0.9277383   0.2588852
0.0021858    -0.9992783  -0.0004859  -0.0001695   0.0002134  -0.0000026  -0.0000044  -0.9279115   0.2586740
0.0022126    -0.9995396   0.0000087  -0.0001817  -0.0000568  -0.0000054  -0.0000144  -0.9280733   0.2590422
0.0022398    -0.9995959  -0.0000867  -0.0000480   0.0001041  -0.0000122   0.0000062  -0.9283379   0.2590142
0.0022674    -0.9998858  -0.0000458  -0.0000834  -0.0001724   0.0000047  -0.0000181  -0.9287816   0.2593020
0.0022953    -0.9997619   0.0000740  -0.0000097   0.0003168   0.0000060  -0.0000025  -0.9290308   0.2594769
0.0023235    -0.9995591  -0.0003509  -0.0002120  -0.0002333  -0.0000061  -0.0000002  -0.9294341   0.2594680
0.0023520    -0.9995710   0.0001041  -0.0002907   0.0000608  -0.0000078  -0.0000054  -0.9292532   0.2594361
0.0023809    -0.9997488  -0.0001570  -0.0000589   0.0004805  -0.0000079   0.0000077  -0.9299422   0.2596373
0.0024102    -0.9995805  -0.0001622   0.0001818   0.0001981   0.0000131   0.0000064  -0.9298942   0.2598229
0.0024398    -0.9995334  -0.0000928   0.0000883   0.0001935   0.0000033   0.0000032  -0.9303333   0.2599209
0.0024698    -0.9996495   0.0000096  -0.0003744   0.0001278   0.0000079  -0.0000170  -0.9305707   0.2602177
0.0025002    -0.9995653  -0.0000220   0.0000139  -0.0001806  -0.0000013  -0.0000042  -0.9307198   0.2603729
0.0025309    -0.9999202   0.0000360   0.0000556  -0.0000951  -0.0000087  -0.0000112  -0.9309336   0.2606611
0.0025621    -0.9999372  -0.0002287  -0.0000723   0.0001969   0.0000070  -0.0000087  -0.9313972   0.2606534
0.0025935    -0.9997352  -0.0001145  -0.0002941   0.0001417  -0.0000057  -0.0000035  -0.9316742   0.2605261
0.0026254    -0.9995049  -0.0001657  -0.0000390   0.0000995  -0.0000042  -0.0000026  -0.9317934   0.2605545
0.0026577    -0.9993557   0.0001787  -0.0001623   0.0002799  -0.0000107  -0.0000105  -0.9319015   0.2609742
0.0026904    -0.9998810  -0.0000743  -0.0000725   0.0001529  -0.0000128  -0.0000062  -0.9320964   0.2613407
0.0027235    -0.9996037  -0.0003024  -0.0001732  -0.0000306  -0.0000013  -0.0000137  -0.9327563   0.2611832
0.0027569    -0.9992145  -0.0000398  -0.0001054   0.0004856  -0.0000088  -0.0000033  -0.9327095   0.2612955
0.0027908    -0.9996646   0.0001087  -0.0001333   0.0001387   0.0000059  -0.0000083  -0.9327881   0.2617246
0.0028251    -0.9997780  -0.0001551  -0.0002513   0.0001368   0.0000069   0.0000018  -0.9332618   0.2618815
0.0028599    -0.9995391  -0.0000995  -0.0004057   0.0002320  -0.0000022   0.0000010  -0.9334185   0.2618729
0.0028950    -0.9995480  -0.0000217  -0.0001618   0.0000777   0.0000031   0.0000025  -0.9336124   0.2618484
0.0029306    -0.9995369   0.0000495  -0.0001470   0.0001657  -0.0000042  -0.0000190  -0.9337557   0.2620064
0.0029666    -0.9993835   0.0001228  -0.0001840   0.0002095   0.0000131  -0.0000065  -0.9339990   0.2622600
0.0030031    -0.9997469  -0.0000346  -0.0002748  -0.0004328  -0.0000049   0.0000133  -0.9341076   0.2625548
0.0030400    -0.9994393  -0.0001638   0.0000694   0.0002585  -0.0000027  -0.0000165  -0.9343379   0.2628196
0.0030774    -0.9996956   0.0000192  -0.0000751   0.0000355  -0.0000097  -0.0000045  -0.9345217   0.2629743
0.0031152    -0.9995810  -0.0004044   0.0000585   0.0001791   0.0000102   0.0000018  -0.9348862   0.2629809
0.0031535    -0.9996321  -0.0001573  -0.0001711   0.0002225  -0.0000035  -0.0000120  -0.9349260   0.2633534
0.0031923    -0.9998158  -0.0001076  -0.0000248   0.0001360   0.0000126  -0.0000124  -0.9353236   0.2634966
0.0032315    -0.9996858   0.0000470  -0.0002095   0.0002368  -0.0000004  -0.0000064  -0.9355121   0.2636469
0.0032713    -0.9996585  -0.0001985   0.0001383   0.0003037   0.0000023  -0.0000089  -0.9356770   0.2636865
0.0033115    -0.9995645  -0.0000103  -0.0001900   0.0002806   0.0000084  -0.0000006  -0.9357024   0.2639999
0.0033522    -0.9996692   0.0001509  -0.0002051   0.0000723  -0.0000109  -0.0000057  -0.9360229   0.2644064
0.0033934    -0.9995939  -0.0000906  -0.0000455  -0.0001017   0.0000014   0.0000021  -0.9362628   0.2642656
0.0034351    -0.9995991  -0.0001079  -0.0003125   0.0001952  -0.0000013   0.0000084  -0.9364516   0.2645556
0.0034773    -0.9995889  -0.0001257  -0.0000154   0.0002693   0.0000084  -0.0000086  -0.9364323   0.2647053
0.0035201    -0.9997552  -0.0004091  -0.0002128   0.0001374   0.0000056  -0.0000029  -0.9367876   0.2648143
0.0035634    -0.9994329  -0.0002326  -0.0001899   0.0000508   0.0000070  -0.0000048  -0.9368663   0.2649771
0.0036072    -0.9996347  -0.0000749  -0.0001341  -0.0001688  -0.0000008  -0.0000046  -0.9369396   0.2652301
0.0036515    -0.9991136  -0.0000890  -0.0003898   0.0001329  -0.0000051   0.0000044  -0.9372120   0.2655556
0.0036964    -0.9994648   0.0000688  -0.0000686  -0.0001284  -0.0000114   0.0000007  -0.9371598   0.2658447
0.0037418    -0.9994995   0.0001305  -0.0005025  -0.0000080   0.0000014  -0.0000077  -0.9373776   0.2659021
0.0037878    -0.9995908  -0.0000539  -0.0001015   0.0002392   0.0000009  -0.0000191  -0.9374859   0.2660117
0.0038344    -0.9997599  -0.0002026  -0.0001251   0.0002441   0.0000059  -0.0000063  -0.9376847   0.2663411
0.0038815    -0.9996455  -0.0002260  -0.0000168   0.0001221  -0.0000009   0.0000041  -0.9378065   0.2664228
0.0039293    -0.9994994   0.0001455   0.0001486   0.0003353   0.0000049  -0.0000071  -0.9379777   0.2663981
0.0039776    -0.9994348  -0.0001841   0.0002534   0.0009874  -0.0000018  -0.0000120  -0.9381920   0.2668196
0.0040265    -0.9995258  -0.0000219   0.0006456   0.0006333   0.0000000   0.0000014  -0.9383100   0.2667670
0.0040759    -0.9996314   0.0000248  -0.0000810   0.0000638  -0.0000007   0.0000008  -0.9384242   0.2671272
0.0041261    -0.9996036  -0.0001567   0.0002520  -0.0001262   0.0000015  -0.0000048  -0.9385339   0.2672093
0.0041768    -0.9996032  -0.0000503  -0.0000466   0.0001357  -0.0000009   0.0000009  -0.9387328   0.2675105
0.0042281    -0.9995664  -0.0002104  -0.0001167   0.0001258   0.0000064  -0.0000054  -0.9388509   0.2677209
0.0042801    -0.9996668   0.0000585  -0.0000539   0.0000478   0.0000041  -0.0000002  -0.9389324   0.2679158
0.0043327    -0.9997424  -0.0000132   0.0002423   0.0001739  -0.0000035  -0.0000042  -0.9390299   0.2683019
0.0043860    -0.9997692  -0.0000153  -0.0000888  -0.0000253  -0.0000025   0.0000091  -0.9392749   0.2683077
0.0044399    -0.9996455  -0.0000952   0.0000586  -0.0000558   0.0000007  -0.0000043  -0.9393379   0.2684832
0.0044945    -0.9993516  -0.0001241   0.0000156  -0.0001125  -0.0000065  -0.0000034  -0.9394909   0.2686169
0.0045497    -0.9997269   0.0001974  -0.0002083   0.0000897  -0.0000109  -0.0000034  -0.9394766   0.2688047
0.0046057    -0.9999138   0.0001028  -0.0001170   0.0000531  -0.0000053   0.0000049  -0.9395575   0.2689400
0.0046623    -0.9996200   0.0000179  -0.0001232   0.0000354   0.0000035  -0.0000071  -0.9395089   0.2692334
0.0047196    -0.9996859  -0.0000171  -0.0002515   0.0000122  -0.0000083  -0.0000009  -0.9398293   0.2694102
0.0047776    -0.9995720  -0.0001302  -0.0001486   0.0001447   0.0000065  -0.0000104  -0.9398891   0.2695281
0.0048363    -0.9998564   0.0000701  -0.0000285  -0.0001565   0.0000003  -0.0000094  -0.9399332   0.2697804
0.0048958    -0.9997598   0.0000489  -0.0000511   0.0002612  -0.0000047  -0.0000137  -0.9400721   0.2700554
0.0049560    -0.9998334  -0.0000075  -0.0000065  -0.0000550  -0.0000099  -0.0000067  -0.9402632   0.2701632
0.0050169    -0.9996306  -0.0000446  -0.0003250   0.0000334  -0.0000178   0.0000051  -0.9403351   0.2701639
0.0050786    -0.9994806  -0.0001427  -0.0000730  -0.0000681   0.0000062   0.0000011  -0.9403187   0.2703988
0.0051410    -0.9996476   0.0000903  -0.0001099   0.0002247  -0.0000039  -0.0000105  -0.9404152   0.2706001
0.0052042    -0.9995030  -0.0000861  -0.0001312  -0.0000764   0.0000035  -0.0000032  -0.9405021   0.2708001
0.0052682    -0.9996835   0.0000084  -0.0000416   0.0000514   0.0000060  -0.0000054  -0.9406327   0.2710467
0.0053330    -0.9996570  -0.0000622  -0.0001028  -0.0000667  -0.0000089  -0.0000088  -0.9406896   0.2711812
0.0053985    -0.9996874  -0.0000755  -0.0002174   0.0001671  -0.0000131  -0.0000073  -0.9407775   0.2713440
0.0054649    -0.9996292  -0.0000359  -0.0000965   0.0001118   0.0000164  -0.0000018  -0.9409076   0.2714998
0.0055321    -0.9996437  -0.0001366  -0.0001357   0.0000255  -0.0000015  -0.0000112  -0.9409565   0.2716945
0.0056001    -0.9996326  -0.0000609  -0.0001641   0.0001765   0.0000146   0.0000031  -0.9411138   0.2719386
0.0056689    -0.9995344  -0.0002233  -0.0001912   0.0002401  -0.0000082  -0.0000200  -0.9411273   0.2720064
0.0057386    -0.9997047   0.0002453  -0.0001676   0.0000606   0.0000036  -0.0000155  -0.9411893   0.2721200
0.0058091    -0.9997473   0.0000595  -0.0001989   0.0000698   0.0000022   0.0000047  -0.9411386   0.2723728
0.0058806    -0.9996346  -0.0001081  -0.0002014   0.0001974  -0.0000013  -0.0000061  -0.9411190   0.2724188
0.0059529    -0.9995980   0.0000784  -0.0001608   0.0001077  -0.0000054  -0.0000104  -0.9412062   0.2727041
0.0060260    -0.9995976   0.0000776   0.0001045  -0.0004586  -0.0000053  -0.0000183  -0.9412507   0.2727098
0.0061001    -0.9997031   0.0000313  -0.0002686   0.0000753  -0.0000142  -0.0000055  -0.9413455   0.2729546
0.0061751    -0.9996073   0.0000790  -0.0001551  -0.0000424   0.0000003   0.0000049  -0.9413314   0.2731470
0.0062510    -0.9995791   0.0000092  -0.0002149   0.0001469  -0.0000030  -0.0000002  -0.9415101   0.2732916
0.0063279    -0.9997930  -0.0000007  -0.0002054   0.0001059  -0.0000043  -0.0000012  -0.9416430   0.2734560
0.0064056    -0.9994727  -0.0002769  -0.0002346  -0.0000657   0.0000044  -0.0000061  -0.9416371   0.2736081
0.0064844    -0.9995597   0.0000880  -0.0000664  -0.0000466   0.0000000  -0.0000076  -0.9416977   0.2736701
0.0065641    -0.9995247  -0.0000577  -0.0002873  -0.0001199  -0.0000063  -0.0000193  -0.9415242   0.2737903
0.0066448    -0.9996160  -0.0000089  -0.0002193  -0.0001472   0.0000005  -0.0000093  -0.9416728   0.2739591
0.0067265    -0.9995476  -0.0000547  -0.0002189  -0.0000065  -0.0000082   0.0000041  -0.9417777   0.2741424
0.0068092    -0.9995337  -0.0000883  -0.0001559   0.0001334   0.0000036   0.0000010  -0.9418365   0.2743665
0.0068929    -0.9995121  -0.0000153  -0.0000375  -0.0000373   0.0000128  -0.0000086  -0.9418909   0.2744498
0.0069776    -0.9996278   0.0000366  -0.0003940   0.0000750   0.0000024  -0.0000116  -0.9420478   0.2746782
0.0070634    -0.9996619  -0.0001436  -0.0003373   0.0000915   0.0000023  -0.0000052  -0.9419420   0.2748400
0.0071502    -0.9998084  -0.0000444  -0.0001817   0.0001020   0.0000031  -0.0000154  -0.9419125   0.2748555
0.0072381    -0.9995163  -0.0001247  -0.0001835  -0.0000254  -0.0000033  -0.0000122  -0.9418756   0.2750367
0.0073271    -0.9995825   0.0000923  -0.0001321  -0.0000637  -0.0000089  -0.0000030  -0.9420109   0.2752536
0.0074172    -0.9995047   0.0000045  -0.0002196   0.0000880   0.0000121  -0.0000083  -0.9421284   0.2753567
0.0075084    -0.9995819  -0.0000723  -0.0000970   0.0000540   0.0000064  -0.0000108  -0.9421577   0.2755385
0.0076007    -0.9996672  -0.0001017  -0.0002689  -0.0000263   0.0000004  -0.0000116  -0.9421461   0.2756577
0.0076941    -0.9995462  -0.0001160  -0.0002871  -0.0000002  -0.0000021   0.0000084  -0.9421786   0.2759126
0.0077887    -0.9994338   0.0000285  -0.0001921   0.0000482   0.0000107  -0.0000020  -0.9421820   0.2759312
0.0078844    -0.9996140  -0.0001508  -0.0001657   0.0000273  -0.0000035  -0.0000018  -0.9422685   0.2760016
0.0079814    -0.9996423  -0.0000340  -0.0003451  -0.0003712   0.0000006  -0.0000059  -0.9422404   0.2762762
0.0080795    -0.9996457  -0.0000979  -0.0003510  -0.0000044   0.0000058  -0.0000034  -0.9423989   0.2763341
0.0081788    -0.9997196  -0.0000066  -0.0001921  -0.0000319  -0.0000045   0.0000043  -0.9422137   0.2765218
0.0082793    -0.9995926   0.0001432  -0.0001041   0.0000166  -0.0000005  -0.0000093  -0.9423942   0.2765888
0.0083811    -0.9995531  -0.0001149  -0.0001931   0.0000103  -0.0000037   0.0000070  -0.9423573   0.2767983
0.0084842    -0.9995005   0.0000084  -0.0001407   0.0000210  -0.0000016   0.0000005  -0.9423313   0.2768930
0.0085885    -0.9997182  -0.0000595  -0.0001617   0.0000714   0.0000015  -0.0000070  -0.9424398   0.2769427
0.0086940    -0.9995540  -0.0001167  -0.0003255  -0.0000266   0.0000127  -0.0000141  -0.9423699   0.2771411
0.0088009    -0.9997489  -0.0001820  -0.0001575   0.0000168   0.0000002   0.0000062  -0.9423860   0.2772914
0.0089091    -0.9995991   0.0000382  -0.0003066   0.0000256   0.0000024  -0.0000112  -0.9423989   0.2774866
0.0090186    -0.9994456   0.0000354  -0.0002554   0.0001872  -0.0000090  -0.0000046  -0.9424998   0.2774735
0.0091295    -0.9996468  -0.0000760  -0.0002610  -0.0000644   0.0000055  -0.0000005  -0.9425199   0.2777457
0.0092417    -0.9996930  -0.0001212  -0.0002402   0.0000232   0.0000093  -0.0000054  -0.9424069   0.2777833
0.0093553    -0.9994858   0.0000968  -0.0001792   0.0001016   0.0000041  -0.0000095  -0.9424297   0.2779104
0.0094703    -0.9996243  -0.0001352  -0.0001997  -0.0000004   0.0000006   0.0000108  -0.9425230   0.2779699
0.0095868    -0.9996603   0.0000619  -0.0001787   0.0000243  -0.0000033  -0.0000074  -0.9424579   0.2781670
0.0097046    -0.9995590   0.0000996  -0.0002582   0.0002104  -0.0000017   0.0000127  -0.9425030   0.2781965
0.0098239    -0.9996479  -0.0000317  -0.0001947   0.0000767  -0.0000008   0.0000001  -0.9425577   0.2783250
0.0099447    -0.9995647   0.0001203  -0.0000543   0.0001050  -0.0000004  -0.0000051  -0.9425478   0.2783615
0.0100669    -0.9994469  -0.0000680  -0.0003251   0.0000899  -0.0000093  -0.0000186  -0.9425242   0.2785836
0.0101907    -0.9996697   0.0000251  -0.0002542   0.0000401  -0.0000033  -0.0000092  -0.9425358   0.2786114
0.0103160    -0.9994021  -0.0000423  -0.0003390   0.0001606   0.0000116  -0.0000083  -0.9425019   0.2787091
0.0104428    -0.9997441  -0.0000371  -0.0003526   0.0000096  -0.0000035   0.0000003  -0.9425838   0.2789201
0.0105712    -0.9996355   0.0000623  -0.0002734   0.0001159   0.0000088   0.0000015  -0.9425830   0.2789347
0.0107011    -0.9996673  -0.0000512  -0.0002461   0.0000681   0.0000044  -0.0000051  -0.9426090   0.2791118
0.0108327    -0.9995883   0.0000286  -0.0003189   0.0001290   0.0000012  -0.0000062  -0.9425325   0.2791449
0.0109658    -0.9997588   0.0000190  -0.0003967   0.0002041  -0.0000070  -0.0000045  -0.9426464   0.2792784
0.0111006    -0.9996651   0.0000614  -0.0002622   0.0000708  -0.0000041  -0.0000068  -0.9426136   0.2795289
0.0112371    -0.9995751   0.0000150  -0.0001550   0.0001070  -0.0000054   0.0000003  -0.9426557   0.2794251
0.0113752    -0.9994644  -0.0000252  -0.0003119   0.0001288  -0.0000107   0.0000007  -0.9425597   0.2795968
0.0115151    -0.9996993  -0.0002804  -0.0002215   0.0000553   0.0000003  -0.0000004  -0.9427017   0.2798539
0.0116566    -0.9995001   0.0000199  -0.0003422   0.0000405  -0.0000025  -0.0000093  -0.9425976   0.2797545
0.0117999    -0.9995510  -0.0001113  -0.0003105   0.0000845  -0.0000078  -0.0000039  -0.9426702   0.2800117
0.0119450    -0.9973578   0.0010256  -0.0003281  -0.0000184  -0.0000012   0.0000006  -0.9434624   0.2782170
0.0120918    -0.9994556   0.0000290  -0.0003299   0.0000981   0.0000006  -0.0000104  -0.9426943   0.2801527
0.0122405    -0.9994718   0.0000317  -0.0001911  -0.0000030  -0.0000107   0.0000039  -0.9427471   0.2801706
0.0123910    -0.9997765  -0.0000689  -0.0002593   0.0001623  -0.0000042  -0.0000100  -0.9426088   0.2804391
0.0125433    -0.9995350  -0.0000526  -0.0001891   0.0000685  -0.0000016   0.0000043  -0.9427097   0.2803775
0.0126975    -0.9997630  -0.0001029  -0.0002984   0.0001471  -0.0000036  -0.0000023  -0.9425424   0.2804387
0.0128536    -0.9997056  -0.0001629  -0.0002482   0.0000829   0.0000036  -0.0000033  -0.9426407   0.2806492
0.0130116    -0.9995516  -0.0000600  -0.0002447   0.0000894   0.0000031   0.0000037  -0.9426215   0.2806846
0.0131716    -0.9996900   0.0000003  -0.0001673   0.0000420  -0.0000045   0.0000010  -0.9426642   0.2806807
0.0133335    -0.9996341   0.0000109  -0.0002973  -0.0000291  -0.0000017  -0.0000095  -0.9425145   0.2809397
0.0134974    -0.9995822  -0.0000670  -0.0003195   0.0001635   0.0000014  -0.0000020  -0.9425677   0.2809175
0.0136633    -0.9997469  -0.0000270  -0.0002701   0.0000346   0.0000013  -0.0000062  -0.9426221   0.2811150
0.0138313    -0.9997033  -0.0000830  -0.0001708   0.0001804  -0.0000014  -0.0000050  -0.9425397   0.2811490
0.0140013    -0.9996760  -0.0000529  -0.0004590   0.0001849  -0.0000043  -0.0000027  -0.9426175   0.2812854
0.0141734    -0.9995948  -0.0000323  -0.0005039   0.0000999  -0.0000133  -0.0000052  -0.9426482   0.2814176
0.0143477    -0.9998370  -0.0000664  -0.0003799   0.0002734   0.0000019  -0.0000050  -0.9426134   0.2813920
0.0145240    -0.9996663  -0.0000269  -0.0004266   0.0001522   0.0000018   0.0000028  -0.9426510   0.2814696
0.0147026    -0.9997992  -0.0000494  -0.0001396   0.0001329   0.0000098  -0.0000082  -0.9425887   0.2815431
0.0148833    -0.9996829   0.0001641  -0.0001880   0.0001224  -0.0000038  -0.0000085  -0.9425701   0.2817147
0.0150663    -0.9996808  -0.0001078  -0.0002351  -0.0000307   0.0000025  -0.0000094  -0.9425500   0.2817628
0.0152515    -0.9995454   0.0000207  -0.0002597   0.0002202  -0.0000064  -0.0000097  -0.9425577   0.2819218
0.0154390    -0.9995634  -0.0000639  -0.0003780   0.0001549  -0.0000151   0.0000062  -0.9425825   0.2819117
0.0156288    -0.9996511   0.0001075  -0.0000779   0.0000455  -0.0000092  -0.0000074  -0.9426634   0.2819290
0.0158209    -0.9995545   0.0000645  -0.0002212   0.0000473  -0.0000031  -0.0000088  -0.9425187   0.2819562
0.0160154    -0.9996004  -0.0000246  -0.0004241   0.0000537   0.0000012  -0.0000067  -0.9425096   0.2821765
0.0162123    -0.9995419  -0.0000901  -0.0001374   0.0002127  -0.0000041  -0.0000005  -0.9424733   0.2823458
0.0164116    -0.9996864   0.0000162  -0.0001810   0.0001231   0.0000020  -0.0000133  -0.9425390   0.2823374
0.0166134    -0.9997163  -0.0000776  -0.0002931   0.0001379   0.0000025   0.0000024  -0.9424725   0.2825105
0.0168176    -0.9996310   0.0000169  -0.0002758   0.0002262   0.0000023  -0.0000011  -0.9425681   0.2824212
0.0170243    -0.9996430  -0.0000305  -0.0002934   0.0003132  -0.0000044  -0.0000021  -0.9425075   0.2825839
0.0172336    -0.9997230  -0.0000739  -0.0002404   0.0001569   0.0000039  -0.0000065  -0.9424701   0.2825693
0.0174455    -0.9996844  -0.0001125  -0.0001897   0.0000907  -0.0000069   0.0000054  -0.9424511   0.2826684
0.0176599    -0.9995732   0.0000013  -0.0000761   0.0002494  -0.0000030  -0.0000096  -0.9424459   0.2827776
0.0178770    -0.9997462   0.0000131  -0.0003567   0.0000192  -0.0000056   0.0000042  -0.9424224   0.2829245
0.0180968    -0.9996111  -0.0001127  -0.0001585   0.0001983  -0.0000086  -0.0000035  -0.9424302   0.2828374
0.0183193    -0.9996468  -0.0001042  -0.0002203   0.0001045   0.0000087  -0.0000044  -0.9424509   0.2830002
0.0185445    -0.9997252  -0.0000924  -0.0002227   0.0000073   0.0000103  -0.0000060  -0.9424455   0.2830423
0.0187724    -0.9994041  -0.0001319  -0.0002636  -0.0000238   0.0000036   0.0000011  -0.9423371   0.2830841
0.0190032    -0.9995996   0.0000229  -0.0003241  -0.0002229  -0.0000030  -0.0000051  -0.9424280   0.2831313
0.0192368    -0.9996704  -0.0000781  -0.0003903   0.0001837   0.0000020   0.0000008  -0.9425254   0.2832695
0.0194733    -0.9995826  -0.0001410  -0.0003410   0.0003601   0.0000098  -0.0000044  -0.9424154   0.2833488
0.0197127    -0.9995607  -0.0001314  -0.0001980   0.0002238  -0.0000072  -0.0000149  -0.9423865   0.2834325
0.0199550    -0.9995633  -0.0001153  -0.0003266   0.0001007  -0.0000085  -0.0000115  -0.9424142   0.2834576
0.0202003    -0.9996942   0.0000007  -0.0001830   0.0002361  -0.0000027  -0.0000121  -0.9424186   0.2834956
0.0204487    -0.9995377  -0.0000141  -0.0001382   0.0001633  -0.0000126  -0.0000027  -0.9423482   0.2836018
0.0207001    -0.9995963  -0.0000861  -0.0001751   0.0000080  -0.0000050  -0.0000153  -0.9422820   0.2836091
0.0209545    -0.9996412  -0.0000046  -0.0001290   0.0002552  -0.0000042  -0.0000062  -0.9422991   0.2836966
0.0212121    -0.9994396  -0.0001319  -0.0001658   0.0001569   0.0000013   0.0000014  -0.9422630   0.2838958
0.0214729    -0.9997199   0.0000450  -0.0002341   0.0001610  -0.0000082  -0.0000137  -0.9423046   0.2839225
0.0217369    -0.9996441  -0.0001941   0.0000156   0.0001899   0.0000177  -0.0000012  -0.9422967   0.2839207
0.0220041    -0.9995012  -0.0000198   0.0001148  -0.0000969  -0.0000034  -0.0000052  -0.9423316   0.2839710
0.0222746    -0.9996155   0.0000334  -0.0002094   0.0002205   0.0000044  -0.0000094  -0.9421834   0.2840686
0.0225484    -0.9995828  -0.0001459  -0.0002424   0.0001930  -0.0000069   0.0000029  -0.9421589   0.2840821
0.0228256    -0.9996508   0.0000069  -0.0001751   0.0001898  -0.0000015   0.0000000  -0.9422130   0.2841121
0.0231062    -0.9996967  -0.0001295  -0.0002342   0.0001103  -0.0000071  -0.0000067  -0.9422103   0.2841453
0.0233902    -0.9995189   0.0000505  -0.0001552   0.0001711  -0.0000062   0.0000041  -0.9421501   0.2842650
0.0236778    -0.9994045  -0.0000381  -0.0001150   0.0001878   0.0000026  -0.0000065  -0.9421274   0.2843437
0.0239689    -1.0015930   0.0000406  -0.0002874  -0.0001363  -0.0000034  -0.0000028  -0.9431943   0.2849166
0.0242635    -0.9994826  -0.0001419  -0.0002059   0.0000894   0.0000020  -0.0000015  -0.9421554   0.2844378
0.0245618    -0.9995620  -0.0000258  -0.0001652   0.0001664  -0.0000175  -0.0000006  -0.9420997   0.2845678
0.0248637    -0.9996744  -0.0001376  -0.0001372   0.0001963  -0.0000010  -0.0000011  -0.9421057   0.2846436
0.0251694    -0.9996608  -0.0001262  -0.0001152   0.0001973  -0.0000045  -0.0000092  -0.9421237   0.2846718
0.0254788    -0.9995313   0.0000105  -0.0001766   0.0001901  -0.0000051  -0.0000060  -0.9420106   0.2847303
0.0257920    -0.9996830   0.0000052  -0.0001635   0.0001955   0.0000011  -0.0000116  -0.9420984   0.2848583
0.0261091    -0.9995382  -0.0000803  -0.0001259   0.0001882   0.0000032  -0.0000093  -0.9419308   0.2848252
0.0264301    -0.9996387  -0.0000158  -0.0000428   0.0001793   0.0000051  -0.0000114  -0.9420806   0.2849199
0.0267550    -0.9996333   0.0001491  -0.0001354   0.0001522  -0.0000017   0.0000036  -0.9419236   0.2849455
0.0270839    -0.9997066  -0.0000749  -0.0001464   0.0002205  -0.0000150  -0.0000070  -0.9420152   0.2849370
0.0274168    -0.9995832  -0.0000327  -0.0000913   0.0001930  -0.0000071  -0.0000091  -0.9419723   0.2849874
0.0277539    -0.9996351  -0.0001503  -0.0000217   0.0002511  -0.0000055  -0.0000124  -0.9418585   0.2850718
0.0280951    -0.9995332  -0.0001460  -0.0000765   0.0001309  -0.0000084  -0.0000131  -0.9418695   0.2851680
0.0284404    -0.9996554  -0.0001784  -0.0001844   0.0002232  -0.0000050  -0.0000027  -0.9418926   0.2852433
0.0287901    -0.9996448  -0.0000286  -0.0001162   0.0001483  -0.0000104  -0.0000071  -0.9419360   0.2851845
0.0291440    -0.9996917   0.0000003  -0.0000429   0.0002069   0.0000046  -0.0000088  -0.9418947   0.2853351
0.0295023    -0.9997159  -0.0000632  -0.0001195   0.0001868   0.0000158   0.0000033  -0.9418181   0.2853636
0.0298649    -0.9996412  -0.0000960  -0.0000981   0.0001582   0.0000090  -0.0000008  -0.9418149   0.2853996
0.0302321    -0.9996631   0.0000011  -0.0001211   0.0002308   0.0000043  -0.0000058  -0.9417208   0.2854923
0.0306037    -0.9996489  -0.0000102  -0.0000832   0.0002242  -0.0000045  -0.0000008  -0.9417143   0.2855678
0.0309799    -0.9995730  -0.0000683  -0.0000489   0.0002843  -0.0000045   0.0000013  -0.9418265   0.2855831
0.0313608    -0.9995879  -0.0001980  -0.0000671   0.0001579   0.0000041  -0.0000197  -0.9417779   0.2856653
0.0317463    -0.9996617  -0.0001829  -0.0000579   0.0001999  -0.0000047   0.0000050  -0.9416988   0.2857371
0.0321366    -0.9995670  -0.0000770  -0.0000099   0.0002064   0.0000041  -0.0000031  -0.9417880   0.2857474
0.0325316    -0.9995432  -0.0000879  -0.0000384   0.0001785   0.0000030  -0.0000159  -0.9416747   0.2858300
0.0329316    -0.9996700  -0.0000201  -0.0000162   0.0000650   0.0000071  -0.0000175  -0.9416642   0.2859160
0.0333364    -0.9996099  -0.0000889   0.0000117   0.0001900   0.0000033  -0.0000037  -0.9416956   0.2859965
0.0337462    -0.9997620  -0.0002002  -0.0001298   0.0001663   0.0000003   0.0000066  -0.9415459   0.2858363
0.0341610    -0.9996567  -0.0000592  -0.0001538   0.0001568   0.0000031  -0.0000018  -0.9415890   0.2860550
0.0345810    -0.9996013  -0.0000349  -0.0000713   0.0001607   0.0000025  -0.0000054  -0.9415994   0.2860402
0.0350061    -0.9996251  -0.0000651  -0.0000647   0.0000136   0.0000041   0.0000028  -0.9416480   0.2861025
0.0354365    -0.9996200  -0.0000356  -0.0000656   0.0001633   0.0000008  -0.0000113  -0.9415532   0.2862356
0.0358721    -0.9996574  -0.0000542  -0.0001146   0.0001978   0.0000027   0.0000040  -0.9415274   0.2861881
0.0363131    -0.9996467  -0.0000479  -0.0001267   0.0001565  -0.0000035  -0.0000022  -0.9415787   0.2862180
0.0367595    -0.9997230  -0.0001037  -0.0000440   0.0001908  -0.0000029  -0.0000134  -0.9414277   0.2863980
0.0372114    -0.9995965  -0.0000756  -0.0001239   0.0001307   0.0000021  -0.0000147  -0.9414660   0.2864445
0.0376688    -0.9995586  -0.0001018  -0.0000885   0.0002172  -0.0000015  -0.0000004  -0.9414265   0.2864517
0.0381319    -0.9996757  -0.0002265  -0.0004443   0.0000228  -0.0000009  -0.0000148  -0.9414994   0.2864761
0.0386006    -0.9996476  -0.0000052  -0.0001219   0.0001602  -0.0000001  -0.0000062  -0.9414738   0.2866139
0.0390752    -0.9996321  -0.0001470  -0.0000253   0.0002132   0.0000058  -0.0000044  -0.9413666   0.2865701
0.0395555    -0.9995490  -0.0001518  -0.0001278   0.0001455  -0.0000018  -0.0000008  -0.9413887   0.2866159
0.0400418    -0.9996364  -0.0001862   0.0000450   0.0000924  -0.0000059  -0.0000090  -0.9414225   0.2867169
0.0405340    -0.9995536  -0.0000494  -0.0000671   0.0001063   0.0000032  -0.0000083  -0.9413678   0.2866962
0.0410323    -0.9996036  -0.0001338  -0.0000425   0.0001306   0.0000113  -0.0000063  -0.9412536   0.2867964
0.0415368    -0.9995381  -0.0001040  -0.0001066   0.0000818  -0.0000101   0.0000046  -0.9413906   0.2868516
0.0420474    -0.9996172  -0.0000918  -0.0001685   0.0000588  -0.0000032  -0.0000059  -0.9413047   0.2867908
0.0425643    -0.9996627  -0.0000145  -0.0000787   0.0000057   0.0000041  -0.0000041  -0.9412317   0.2868349
0.0430875    -0.9995782  -0.0000255  -0.0001437   0.0000892   0.0000041  -0.0000004  -0.9413051   0.2869693
0.0436172    -0.9996399  -0.0000731  -0.0001271   0.0001092  -0.0000077  -0.0000074  -0.9412355   0.2870156
0.0441534    -0.9996575  -0.0001476  -0.0000502   0.0000964   0.0000004  -0.0000073  -0.9411886   0.2871031
0.0446962    -0.9997038  -0.0000331  -0.0000784   0.0001128  -0.0000045  -0.0000057  -0.9411981   0.2871376
0.0452457    -0.9997143  -0.0001670  -0.0001544   0.0001196   0.0000028  -0.0000074  -0.9411458   0.2871384
0.0458019    -0.9997148  -0.0000276  -0.0000854   0.0000711   0.0000017  -0.0000085  -0.9411226   0.2871739
0.0463649    -0.9996848  -0.0001135  -0.0001353   0.0000617   0.0000098   0.0000013  -0.9410879   0.2872438
0.0469349    -0.9994397  -0.0000656  -0.0001227   0.0000494  -0.0000076  -0.0000056  -0.9410962   0.2873527
0.0475119    -0.9995482  -0.0001944  -0.0000687   0.0000861   0.0000017  -0.0000071  -0.9410704   0.2873649
0.0480960    -0.9995957  -0.0000132  -0.0001385   0.0001222  -0.0000044  -0.0000019  -0.9409973   0.2874680
0.0486872    -0.9995856  -0.0000274  -0.0001073   0.0001579  -0.0000129  -0.0000110  -0.9409651   0.2874875
0.0492857    -0.9996504  -0.0002118  -0.0001392   0.0000405  -0.0000002  -0.0000042  -0.9409461   0.2875644
0.0498916    -0.9995321  -0.0000365  -0.0001477   0.0000760  -0.0000045  -0.0000018  -0.9408737   0.2876173
0.0505050    -0.9996562  -0.0000821  -0.0001836   0.0000788  -0.0000103  -0.0000166  -0.9409469   0.2876108
0.0511258    -0.9995720  -0.0000390  -0.0001549   0.0001256  -0.0000017  -0.0000074  -0.9409396   0.2877756
0.0517543    -0.9996658  -0.0001159  -0.0001617   0.0000934  -0.0000078  -0.0000062  -0.9409543   0.2877150
0.0523906    -0.9995931  -0.0001414  -0.0001723   0.0001224   0.0000057  -0.0000072  -0.9408638   0.2877875
0.0530346    -0.9996965  -0.0000861  -0.0001667   0.0000274   0.0000032  -0.0000115  -0.9408033   0.2878187
0.0536866    -0.9996156  -0.0001260  -0.0001615   0.0000899  -0.0000095  -0.0000167  -0.9408350   0.2878571
0.0543466    -0.9995702  -0.0000878  -0.0001138   0.0000339  -0.0000052  -0.0000006  -0.9407425   0.2878680
0.0550146    -0.9996285  -0.0000472  -0.0001373   0.0001048  -0.0000055  -0.0000045  -0.9407686   0.2879192
0.0556910    -0.9996437  -0.0001607  -0.0001744   0.0000502  -0.0000121  -0.0000102  -0.9406990   0.2879734
0.0563756    -0.9995937  -0.0001080  -0.0001199   0.0000812   0.0000018  -0.0000108  -0.9407175   0.2881117
0.0570686    -0.9996365  -0.0000926  -0.0001681   0.0001118   0.0000006  -0.0000166  -0.9406780   0.2881488
0.0577702    -0.9996389  -0.0001374  -0.0001246   0.0000550  -0.0000013  -0.0000054  -0.9406106   0.2882546
0.0584804    -0.9996883  -0.0000245  -0.0001678   0.0002253   0.0000011  -0.0000075  -0.9405687   0.2881916
0.0591993    -0.9996508  -0.0002455  -0.0002256   0.0001596   0.0000087   0.0000003  -0.9405477   0.2882490
0.0599270    -0.9996143  -0.0001961  -0.0002188   0.0001390   0.0000084  -0.0000020  -0.9406534   0.2883762
0.0606637    -0.9995818  -0.0002528  -0.0001673   0.0001146  -0.0000008  -0.0000084  -0.9404613   0.2883609
0.0614095    -0.9996102  -0.0000439  -0.0001368   0.0001451  -0.0000130   0.0000009  -0.9405219   0.2883972
0.0621644    -0.9996023  -0.0000326  -0.0001863   0.0001547  -0.0000010  -0.0000074  -0.9405535   0.2885076
0.0629286    -0.9996881  -0.0002021  -0.0002308   0.0001098  -0.0000052  -0.0000012  -0.9404398   0.2884878
0.0637022    -0.9995447  -0.0000898  -0.0001536   0.0001454   0.0000020  -0.0000046  -0.9403573   0.2886245
0.0644853    -0.9995961  -0.0000263  -0.0001663   0.0001267  -0.0000014  -0.0000039  -0.9404157   0.2886764
0.0652780    -0.9996502  -0.0001073  -0.0001775   0.0001535   0.0000039  -0.0000084  -0.9403190   0.2886986
0.0660805    -0.9996604  -0.0001228  -0.0002681   0.0000699  -0.0000050  -0.0000067  -0.9402917   0.2888275
0.0668928    -0.9996655  -0.0000988  -0.0001895   0.0000983  -0.0000128  -0.0000122  -0.9402203   0.2888212
0.0677152    -0.9996014  -0.0000585  -0.0001921   0.0001667   0.0000000  -0.0000112  -0.9402024   0.2888230
0.0685476    -0.9996632  -0.0001617  -0.0002234   0.0000883  -0.0000072  -0.0000117  -0.9401862   0.2888922
0.0693903    -0.9996069  -0.0002022  -0.0001976   0.0001530  -0.0000004  -0.0000041  -0.9401122   0.2890172
0.0702433    -0.9996114  -0.0001948  -0.0002207   0.0001213  -0.0000029   0.0000041  -0.9401311   0.2890242
0.0711068    -0.9995671  -0.0001458  -0.0002401   0.0000951   0.0000037  -0.0000059  -0.9400895   0.2890692
0.0719810    -0.9994954  -0.0001841  -0.0001143   0.0000966  -0.0000091   0.0000050  -0.9400307   0.2890734
0.0728659    -0.9996086  -0.0001223  -0.0002760   0.0001442   0.0000052  -0.0000014  -0.9399982   0.2891921
0.0737616    -0.9996745  -0.0001941  -0.0002702   0.0001041  -0.0000012   0.0000004  -0.9399166   0.2892475
0.0746684    -0.9996349  -0.0001340  -0.0001691   0.0000799   0.0000073  -0.0000086  -0.9399425   0.2892933
0.0755863    -0.9996474  -0.0001679  -0.0001623   0.0000929  -0.0000051  -0.0000018  -0.9398644   0.2893296
0.0765155    -0.9995394  -0.0001520  -0.0002355   0.0001212  -0.0000040  -0.0000102  -0.9398543   0.2893451
0.0774561    -0.9996313  -0.0001866  -0.0002308   0.0001555   0.0000021  -0.0000132  -0.9397228   0.2894283
0.0784083    -0.9996509  -0.0000914  -0.0001796   0.0001478   0.0000033   0.0000006  -0.9396576   0.2894038
0.0793722    -0.9996412  -0.0001319  -0.0002069   0.0001781  -0.0000042  -0.0000104  -0.9396161   0.2895158
0.0803479    -0.9996104  -0.0001649  -0.0002331   0.0001397   0.0000014  -0.0000099  -0.9396115   0.2895176
0.0813357    -0.9996475  -0.0001819  -0.0002600   0.0001107  -0.0000006  -0.0000007  -0.9394970   0.2895606
0.0823356    -0.9995379  -0.0001473  -0.0002604   0.0001481  -0.0000053  -0.0000076  -0.9394075   0.2896695
0.0833477    -0.9995582  -0.0001526  -0.0002892   0.0001654   0.0000061  -0.0000029  -0.9393761   0.2896456
0.0843723    -0.9996645  -0.0002062  -0.0002672   0.0001799   0.0000086  -0.0000037  -0.9393115   0.2897923
0.0854095    -0.9996342  -0.0002118  -0.0001598   0.0001910  -0.0000026  -0.0000074  -0.9392051   0.2896720
0.0864595    -0.9997489  -0.0002548  -0.0002691   0.0002016  -0.0000029   0.0000073  -0.9391912   0.2898053
0.0875224    -0.9995965  -0.0001005  -0.0002383   0.0002392   0.0000034  -0.0000104  -0.9391330   0.2897833
0.0885983    -0.9995381  -0.0001393  -0.0001651   0.0002163  -0.0000022  -0.0000038  -0.9390844   0.2898074
0.0896875    -0.9995856  -0.0001629  -0.0001554   0.0002097   0.0000089  -0.0000091  -0.9389901   0.2898603
0.0907900    -0.9997398  -0.0001377  -0.0001946   0.0001912  -0.0000058  -0.0000009  -0.9389029   0.2897670
0.0919061    -0.9995549  -0.0001508  -0.0002274   0.0002020   0.0000026   0.0000009  -0.9387465   0.2898359
0.0930359    -0.9996721  -0.0003328  -0.0001592   0.0002228   0.0000012   0.0000016  -0.9387368   0.2897206
0.0941797    -0.9996050  -0.0002224  -0.0001867   0.0001940   0.0000025   0.0000095  -0.9386642   0.2897788
0.0953374    -0.9995719  -0.0002316  -0.0001842   0.0002163  -0.0000047   0.0000036  -0.9386589   0.2896874
0.0965094    -0.9996540  -0.0001645  -0.0001661   0.0002205   0.0000008  -0.0000022  -0.9385277   0.2897067
0.0976959    -0.9996673  -0.0001317  -0.0001556   0.0002442   0.0000064  -0.0000051  -0.9385353   0.2896980
0.0988969    -0.9995111  -0.0001738  -0.0001970   0.0002586  -0.0000068  -0.0000015  -0.9384663   0.2896201
0.1001126    -0.9995787  -0.0002427  -0.0002215   0.0002165  -0.0000042  -0.0000113  -0.9384273   0.2896009
0.1013433    -0.9996626  -0.0002648  -0.0002523   0.0002438  -0.0000066  -0.0000005  -0.9384162   0.2895283
0.1025892    -0.9996209  -0.0002810  -0.0002360   0.0002666  -0.0000089  -0.0000156  -0.9383242   0.2894642
0.1038503    -0.9995964  -0.0002290  -0.0002416   0.0002503  -0.0000061   0.0000026  -0.9383898   0.2893628
0.1051270    -0.9995987  -0.0002354  -0.0002524   0.0002466  -0.0000042   0.0000032  -0.9384645   0.2893710
0.1064193    -0.9996166  -0.0000599  -0.0002365   0.0002519  -0.0000009  -0.0000043  -0.9385210   0.2892712
0.1077276    -0.9995355  -0.0002763  -0.0002893   0.0002819  -0.0000010   0.0000042  -0.9385561   0.2893075
0.1090519    -0.9995613  -0.0002780  -0.0002072   0.0002288   0.0000081   0.0000023  -0.9386699   0.2891948
0.1103925    -0.9995796  -0.0002182  -0.0002597   0.0002484  -0.0000053  -0.0000082  -0.9386504   0.2892372
0.1117496    -0.9994768  -0.0002871  -0.0001898   0.0002533   0.0000070  -0.0000009  -0.9387449   0.2892651
0.1131233    -0.9996856  -0.0002939  -0.0002272   0.0003176  -0.0000109  -0.0000063  -0.9388706   0.2892237
0.1145140    -0.9996387  -0.0002637  -0.0002874   0.0003021  -0.0000020  -0.0000139  -0.9389367   0.2893050
0.1159217    -0.9994772  -0.0002551  -0.0002427   0.0003145  -0.0000058  -0.0000006  -0.9389502   0.2893045
0.1173468    -0.9996923  -0.0002592  -0.0002509   0.0002465   0.0000043  -0.0000100  -0.9390159   0.2893834
0.1187893    -0.9995966  -0.0002236  -0.0002188   0.0002929  -0.0000015  -0.0000112  -0.9391408   0.2894386
0.1202497    -0.9996789  -0.0003089  -0.0002149   0.0003380  -0.0000076  -0.0000202  -0.9391425   0.2894774
0.1217279    -0.9997704  -0.0001692  -0.0002614   0.0004152   0.0000047   0.0000067  -0.9391774   0.2895602
0.1232243    -0.9996713  -0.0002544  -0.0002284   0.0003159  -0.0000059  -0.0000097  -0.9393238   0.2897100
0.1247392    -0.9996235  -0.0002099  -0.0002907   0.0003654  -0.0000005  -0.0000021  -0.9393441   0.2897610
0.1262726    -0.9994443  -0.0002042  -0.0002290   0.0003335  -0.0000082  -0.0000107  -0.9393835   0.2898578
0.1278249    -0.9996781  -0.0002526  -0.0001940   0.0002749  -0.0000011  -0.0000062  -0.9393711   0.2899272
0.1293963    -0.9995613  -0.0003066  -0.0002463   0.0003774  -0.0000038  -0.0000042  -0.9394349   0.2900448
0.1309870    -0.9995113  -0.0002408  -0.0002478   0.0003974   0.0000004  -0.0000140  -0.9394403   0.2901690
0.1325973    -0.9996188  -0.0002320  -0.0002265   0.0003211  -0.0000006   0.0000020  -0.9394429   0.2901727
0.1342273    -0.9996507  -0.0002233  -0.0002277   0.0004143  -0.0000030  -0.0000066  -0.9395119   0.2902830
0.1358774    -0.9995212  -0.0002579  -0.0002520   0.0003760  -0.0000045   0.0000028  -0.9394840   0.2904587
0.1375478    -0.9996300  -0.0002932  -0.0002652   0.0004420   0.0000041  -0.0000011  -0.9395102   0.2904983
0.1392387    -0.9997078  -0.0003008  -0.0002251   0.0003679  -0.0000016  -0.0000030  -0.9394896   0.2906542
0.1409504    -0.9997202  -0.0003835  -0.0002268   0.0004058  -0.0000098  -0.0000030  -0.9395416   0.2907525
0.1426831    -0.9996087  -0.0002607  -0.0002005   0.0004385  -0.0000051  -0.0000032  -0.9395182   0.2907696
0.1444371    -0.9996590  -0.0002642  -0.0002328   0.0004198   0.0000040  -0.0000025  -0.9394529   0.2909111
0.1462127    -0.9995464  -0.0003100  -0.0001806   0.0004231   0.0000011  -0.0000080  -0.9395321   0.2910522
0.1480102    -0.9995807  -0.0003754  -0.0001182   0.0004206  -0.0000016  -0.0000117  -0.9394888   0.2911476
0.1498297    -0.9996127  -0.0003331  -0.0002087   0.0004011  -0.0000046   0.0000006  -0.9394295   0.2911965
0.1516716    -0.9995875  -0.0002935  -0.0002270   0.0004166  -0.0000031   0.0000037  -0.9394114   0.2913293
0.1535361    -0.9996760  -0.0002463  -0.0001663   0.0004286  -0.0000056  -0.0000089  -0.9394468   0.2914228
0.1554236    -0.9997216  -0.0003845  -0.0001658   0.0004352   0.0000006   0.0000022  -0.9394299   0.2915906
0.1573342    -0.9995899  -0.0003083  -0.0001971   0.0004598  -0.0000109  -0.0000090  -0.9393141   0.2916879
0.1592684    -0.9996889  -0.0003452  -0.0001918   0.0004829   0.0000048   0.0000032  -0.9394186   0.2917255
0.1612263    -0.9996346  -0.0003281  -0.0002323   0.0004922   0.0000049  -0.0000010  -0.9393069   0.2918717
0.1632083    -0.9996738  -0.0002985  -0.0002126   0.0004628   0.0000052  -0.0000046  -0.9393931   0.2919294
0.1652147    -0.9996408  -0.0003844  -0.0001888   0.0004548  -0.0000054   0.0000015  -0.9392935   0.2920767
0.1672457    -0.9995238  -0.0003583  -0.0001828   0.0004673   0.0000058  -0.0000092  -0.9392819   0.2921465
0.1693017    -0.9996084  -0.0003565  -0.0001531   0.0004959  -0.0000093  -0.0000026  -0.9392562   0.2921591
0.1713829    -0.9995883  -0.0002744  -0.0001712   0.0004601  -0.0000062  -0.0000029  -0.9392212   0.2923577
0.1734898    -0.9996579  -0.0002731  -0.0002011   0.0004385  -0.0000008   0.0000005  -0.9391912   0.2923584
0.1756225    -0.9996480  -0.0004298  -0.0001863   0.0004850   0.0000067  -0.0000024  -0.9391699   0.2925539
0.1777815    -0.9996399  -0.0002897  -0.0001570   0.0004659  -0.0000031  -0.0000086  -0.9390592   0.2925714
0.1799670    -0.9997023  -0.0003467  -0.0001366   0.0004956  -0.0000053  -0.0000102  -0.9390654   0.2927581
0.1821794    -0.9997200  -0.0003432  -0.0002157   0.0004808   0.0000027  -0.0000042  -0.9390483   0.2928551
0.1844190    -0.9994739  -0.0003142  -0.0001446   0.0005239  -0.0000014  -0.0000113  -0.9391059   0.2929285
0.1866861    -0.9995172  -0.0004345  -0.0001538   0.0004764  -0.0000025  -0.0000085  -0.9389236   0.2930493
0.1889811    -0.9995773  -0.0004059  -0.0001775   0.0004966  -0.0000052  -0.0000045  -0.9389341   0.2931909
0.1913043    -0.9995239  -0.0003844  -0.0001682   0.0005383  -0.0000022  -0.0000077  -0.9389398   0.2931881
0.1936560    -0.9996826  -0.0003054  -0.0001705   0.0005252  -0.0000029   0.0000011  -0.9388743   0.2934055
0.1960367    -0.9997591  -0.0004328  -0.0001437   0.0005282  -0.0000034  -0.0000113  -0.9388666   0.2935421
0.1984466    -0.9997237  -0.0004728  -0.0001591   0.0005442  -0.0000069  -0.0000007  -0.9388003   0.2935264
0.2008861    -0.9996431  -0.0004304  -0.0001583   0.0006047  -0.0000035  -0.0000135  -0.9388468   0.2937072
0.2033557    -0.9997313  -0.0004045  -0.0001022   0.0005910  -0.0000017  -0.0000072  -0.9388149   0.2937507
0.2058556    -0.9996011  -0.0003425  -0.0001712   0.0005410   0.0000063  -0.0000012  -0.9386165   0.2938308
0.2083862    -0.9996698  -0.0004027  -0.0001357   0.0005210  -0.0000007  -0.0000098  -0.9386430   0.2939738
0.2109480    -0.9995846  -0.0004247  -0.0000861   0.0005269  -0.0000041   0.0000037  -0.9386125   0.2940661
0.2135412    -0.9996546  -0.0004137  -0.0000854   0.0005304   0.0000026  -0.0000099  -0.9385548   0.2941996
0.2161663    -0.9996624  -0.0004493  -0.0001348   0.0005496   0.0000069  -0.0000061  -0.9385860   0.2942747
0.2188237    -0.9997093  -0.0003856  -0.0001462   0.0005836  -0.0000015  -0.0000051  -0.9385893   0.2944157
0.2215137    -0.9996005  -0.0004184  -0.0001023   0.0006057  -0.0000176  -0.0000081  -0.9384733   0.2944849
0.2242369    -0.9996726  -0.0003936  -0.0001020   0.0006350  -0.0000093  -0.0000156  -0.9383799   0.2946712
0.2269935    -0.9996997  -0.0004261  -0.0001310   0.0006511  -0.0000070  -0.0000102  -0.9383557   0.2947396
0.2297839    -0.9997019  -0.0005212  -0.0001261   0.0006047   0.0000008  -0.0000095  -0.9383288   0.2948782
0.2326087    -0.9997036  -0.0004939  -0.0000796   0.0005512  -0.0000072  -0.0000042  -0.9383012   0.2949777
0.2354682    -0.9996080  -0.0005568  -0.0001114   0.0006436   0.0000062  -0.0000025  -0.9382314   0.2950852
0.2383629    -0.9996570  -0.0005200  -0.0000908   0.0006291   0.0000095  -0.0000077  -0.9382402   0.2951383
0.2412932    -0.9996158  -0.0005060  -0.0000984   0.0005843  -0.0000204  -0.0000146  -0.9381400   0.2952565
0.2442594    -0.9996560  -0.0005421  -0.0001471   0.0005869  -0.0000093   0.0000065  -0.9381314   0.2954319
0.2472622    -0.9996383  -0.0005051  -0.0001141   0.0006358  -0.0000034  -0.0000044  -0.9381191   0.2955686
0.2503018    -0.9996910  -0.0004585  -0.0001167   0.0006420  -0.0000125  -0.0000093  -0.9379876   0.2957517
0.2533788    -0.9996460  -0.0005114  -0.0001302   0.0006806  -0.0000040   0.0000031  -0.9379655   0.2957465
0.2564937    -0.9996431  -0.0003574  -0.0001250   0.0006985  -0.0000017  -0.0000116  -0.9379517   0.2958429
0.2596468    -0.9996626  -0.0006137  -0.0000908   0.0006155  -0.0000103  -0.0000019  -0.9378675   0.2960615
0.2628387    -0.9996636  -0.0005456  -0.0000911   0.0006825   0.0000019   0.0000031  -0.9378421   0.2962113
0.2660699    -0.9996567  -0.0004747  -0.0001010   0.0006751   0.0000030  -0.0000001  -0.9377637   0.2962477
0.2693407    -0.9996071  -0.0005220  -0.0000271   0.0006985   0.0000029   0.0000017  -0.9376920   0.2964796
0.2726518    -0.9996934  -0.0006580  -0.0000926   0.0006753   0.0000098  -0.0000065  -0.9376563   0.2965318
0.2760036    -0.9997665  -0.0005808  -0.0001078   0.0006167  -0.0000009  -0.0000004  -0.9376370   0.2967253
0.2793966    -0.9996434  -0.0005046  -0.0001109   0.0006745   0.0000015  -0.0000069  -0.9375655   0.2967840
0.2828312    -0.9996745  -0.0005470  -0.0000522   0.0006716  -0.0000054  -0.0000065  -0.9375553   0.2969881
0.2863082    -0.9996673  -0.0006726  -0.0000867   0.0007132  -0.0000069  -0.0000156  -0.9374514   0.2970842
0.2898278    -0.9996464  -0.0006551  -0.0000482   0.0006799   0.0000011  -0.0000148  -0.9373987   0.2972562
0.2933907    -0.9996442  -0.0004813  -0.0001101   0.0007040  -0.0000071  -0.0000110  -0.9374491   0.2973166
0.2969975    -0.9996617  -0.0006032  -0.0001411   0.0007150   0.0000025  -0.0000002  -0.9373918   0.2974570
0.3006485    -0.9995671  -0.0006658  -0.0000447   0.0007342  -0.0000037  -0.0000003  -0.9372446   0.2976492
0.3043445    -0.9996822  -0.0006828  -0.0000870   0.0007354   0.0000030  -0.0000090  -0.9372233   0.2977212
0.3080858    -0.9997186  -0.0006494  -0.0001046   0.0006700   0.0000008  -0.0000047  -0.9371217   0.2978439
0.3118732    -0.9997563  -0.0005676  -0.0000388   0.0006888  -0.0000029  -0.0000037  -0.9370846   0.2981255
0.3157071    -0.9996920  -0.0006225  -0.0000694   0.0007561   0.0000001  -0.0000051  -0.9369519   0.2981806
0.3195882    -0.9996495  -0.0006073  -0.0000273   0.0007502  -0.0000056  -0.0000075  -0.9369621   0.2983713
0.3235170    -0.9995921  -0.0006155  -0.0000704   0.0007762   0.0000005  -0.0000101  -0.9368877   0.2985743
0.3274941    -0.9996174  -0.0006153  -0.0000742   0.0007863  -0.0000171  -0.0000030  -0.9368245   0.2986018
0.3315200    -0.9995902  -0.0006723  -0.0000401   0.0007998  -0.0000011  -0.0000002  -0.9366881   0.2987612
0.3355955    -0.9997192  -0.0006606  -0.0000205   0.0007739   0.0000024  -0.0000098  -0.9367534   0.2988743
0.3397210    -0.9997036  -0.0005931  -0.0000132   0.0007541  -0.0000033  -0.0000140  -0.9366286   0.2991156
0.3438973    -0.9996636  -0.0007281  -0.0000363   0.0007812   0.0000025  -0.0000018  -0.9365542   0.2991742
0.3481249    -0.9996444  -0.0007064  -0.0001032   0.0007486  -0.0000090  -0.0000003  -0.9365513   0.2993079
0.3524045    -0.9997103  -0.0006216  -0.0000296   0.0008210   0.0000071  -0.0000049  -0.9364981   0.2994654
0.3567367    -0.9996788  -0.0007966  -0.0000448   0.0007930   0.0000048  -0.0000006  -0.9364733   0.2996630
0.3611221    -0.9996732  -0.0008026  -0.0000362   0.0007379  -0.0000009  -0.0000053  -0.9363157   0.2998125
0.3655615    -0.9996975  -0.0005786  -0.0000708   0.0008298   0.0000008   0.0000035  -0.9362350   0.2999891
0.3700554    -0.9996605  -0.0006959   0.0000018   0.0008193  -0.0000078   0.0000013  -0.9361766   0.3001423
0.3746046    -0.9996743  -0.0007520  -0.0000251   0.0009045  -0.0000074   0.0000052  -0.9360952   0.3002810
0.3792097    -0.9997376  -0.0007990   0.0000652   0.0008619   0.0000027  -0.0000014  -0.9360310   0.3005167
0.3838714    -0.9996465  -0.0007400   0.0000283   0.0008551  -0.0000147   0.0000006  -0.9360487   0.3006684
0.3885905    -0.9997249  -0.0007518   0.0001011   0.0008657   0.0000014  -0.0000025  -0.9359445   0.3008066
0.3933675    -0.9997001  -0.0007712  -0.0000201   0.0008787  -0.0000064  -0.0000079  -0.9358374   0.3010662
0.3982033    -0.9997088  -0.0007988   0.0000771   0.0009019   0.0000045  -0.0000028  -0.9357388   0.3011775
0.4030985    -0.9995492  -0.0007939   0.0000533   0.0008800  -0.0000013  -0.0000019  -0.9356822   0.3013380
0.4080538    -0.9997050  -0.0007780   0.0000549   0.0009186   0.0000088  -0.0000011  -0.9356213   0.3015114
0.4130701    -0.9995907  -0.0008438   0.0000470   0.0009197  -0.0000030  -0.0000011  -0.9354990   0.3017008
0.4181481    -0.9995483  -0.0007634   0.0000439   0.0008575  -0.0000217  -0.0000123  -0.9354835   0.3019167
0.4232885    -0.9997411  -0.0008404   0.0000022   0.0008807   0.0000013  -0.0000042  -0.9353929   0.3020374
0.4284921    -0.9996562  -0.0009518  -0.0000692   0.0008862   0.0000050  -0.0000019  -0.9353126   0.3021829
0.4337597    -0.9997257  -0.0009110   0.0000140   0.0009453  -0.0000025  -0.0000129  -0.9351899   0.3024178
0.4390920    -0.9996940  -0.0009168   0.0000020   0.0009617   0.0000014  -0.0000040  -0.9351455   0.3026475
0.4444898    -0.9996587  -0.0008565  -0.0000138   0.0009052   0.0000003  -0.0000071  -0.9350953   0.3028394
0.4499541    -0.9997366  -0.0008605   0.0000139   0.0009346   0.0000018   0.0000071  -0.9349420   0.3029515
0.4554854    -0.9996209  -0.0009626   0.0000497   0.0010283  -0.0000024   0.0000004  -0.9349191   0.3031716
0.4610848    -0.9996085  -0.0009238   0.0000009   0.0009557   0.0000036  -0.0000010  -0.9347462   0.3034583
0.4667531    -0.9996987  -0.0008603   0.0000149   0.0009650  -0.0000048  -0.0000122  -0.9347264   0.3035858
0.4724910    -0.9996445  -0.0008836   0.0000075   0.0009616   0.0000114  -0.0000039  -0.9345766   0.3037551
0.4782994    -0.9996487  -0.0009795  -0.0000305   0.0010001  -0.0000062  -0.0000052  -0.9345650   0.3040264
0.4841793    -0.9996731  -0.0009584  -0.0000840   0.0009820   0.0000106   0.0000023  -0.9344129   0.3041643
0.4901314    -0.9997902  -0.0009696  -0.0000323   0.0009999   0.0000062  -0.0000086  -0.9344641   0.3044346
0.4961567    -0.9997010  -0.0010170   0.0000527   0.0010179  -0.0000058  -0.0000014  -0.9343045   0.3046205
0.5022561    -0.9997615  -0.0009898   0.0000284   0.0010181  -0.0000017  -0.0000053  -0.9341865   0.3048411
0.5084304    -0.9996066  -0.0010837   0.0000549   0.0010260  -0.0000013  -0.0000019  -0.9340425   0.3051119
0.5146807    -0.9997244  -0.0010572  -0.0000094   0.0010753  -0.0000092  -0.0000063  -0.9339961   0.3052493
0.5210078    -0.9996721  -0.0010833  -0.0000607   0.0010741   0.0000043  -0.0000041  -0.9338725   0.3054744
0.5274126    -0.9996056  -0.0010588  -0.0000339   0.0011229  -0.0000064  -0.0000075  -0.9338402   0.3057256
0.5338963    -0.9996693  -0.0010099   0.0000108   0.0010692   0.0000003   0.0000057  -0.9337405   0.3059158
0.5404596    -0.9996326  -0.0010082  -0.0000468   0.0011098  -0.0000084   0.0000050  -0.9336710   0.3062319
0.5471036    -0.9995552  -0.0010264  -0.0000147   0.0011323  -0.0000094  -0.0000065  -0.9335276   0.3063257
0.5538292    -0.9997138  -0.0011375  -0.0000512   0.0011592   0.0000020  -0.0000054  -0.9334165   0.3066357
0.5606376    -0.9996318  -0.0011250  -0.0000117   0.0011157  -0.0000026  -0.0000073  -0.9332411   0.3068205
0.5675297    -0.9997588  -0.0011706   0.0000089   0.0011326  -0.0000022  -0.0000028  -0.9331879   0.3071370
0.5745064    -0.9995910  -0.0010495  -0.0000260   0.0011325   0.0000018   0.0000011  -0.9330557   0.3073340
0.5815690    -0.9996625  -0.0011447  -0.0000115   0.0011621   0.0000020   0.0000047  -0.9330523   0.3075216
0.5887183    -0.9996810  -0.0012758  -0.0000336   0.0011864  -0.0000109  -0.0000114  -0.9328489   0.3077647
0.5959556    -0.9997650  -0.0012910   0.0000149   0.0011653  -0.0000057  -0.0000093  -0.9327533   0.3080503
0.6032818    -0.9996035  -0.0011972   0.0000062   0.0011966  -0.0000051  -0.0000031  -0.9326622   0.3083318
0.6106981    -0.9997168  -0.0011727  -0.0000156   0.0012581   0.0000033  -0.0000101  -0.9325332   0.3086434
0.6182056    -0.9996467  -0.0012282  -0.0000161   0.0012232   0.0000045  -0.0000047  -0.9324797   0.3087512
0.6258053    -0.9996496  -0.0012678  -0.0000042   0.0012478  -0.0000036   0.0000009  -0.9323100   0.3090988
0.6334985    -0.9996132  -0.0011330   0.0000263   0.0012761   0.0000043  -0.0000057  -0.9322906   0.3093580
0.6412862    -0.9997417  -0.0013392   0.0000051   0.0013502  -0.0000087  -0.0000039  -0.9320162   0.3096498
0.6491697    -0.9997334  -0.0012857   0.0000138   0.0013198  -0.0000025   0.0000017  -0.9320639   0.3099768
0.6571501    -0.9997522  -0.0012693   0.0000319   0.0013126  -0.0000156  -0.0000076  -0.9318527   0.3101546
0.6652286    -0.9997642  -0.0012360  -0.0000319   0.0013445   0.0000013  -0.0000025  -0.9317385   0.3105023
0.6734064    -0.9997490  -0.0013196   0.0000238   0.0013998  -0.0000007  -0.0000128  -0.9316249   0.3107810
0.6816848    -0.9996379  -0.0013059   0.0000428   0.0013533  -0.0000108  -0.0000052  -0.9314518   0.3109770
0.6900649    -0.9997619  -0.0013615   0.0000413   0.0013818  -0.0000001  -0.0000024  -0.9313558   0.3112493
0.6985480    -0.9997144  -0.0014197   0.0000294   0.0014031  -0.0000011  -0.0000022  -0.9312130   0.3116300
0.7071355    -0.9996516  -0.0014173   0.0000225   0.0014174   0.0000024  -0.0000047  -0.9311384   0.3119213
0.7158284    -0.9997871  -0.0014159   0.0000010   0.0014729   0.0000018  -0.0000044  -0.9310515   0.3121998
0.7246283    -0.9997052  -0.0013367   0.0000067   0.0014677  -0.0000065  -0.0000022  -0.9308397   0.3124587
0.7335363    -0.9995664  -0.0014656   0.0000132   0.0014390   0.0000072  -0.0000030  -0.9308036   0.3127722
0.7425539    -0.9997299  -0.0014223  -0.0000070   0.0014679  -0.0000014  -0.0000051  -0.9306783   0.3131388
0.7516822    -0.9997184  -0.0014686  -0.0000038   0.0015142  -0.0000061   0.0000039  -0.9304417   0.3133883
0.7609229    -0.9998364  -0.0014798   0.0000103   0.0015637  -0.0000108  -0.0000073  -0.9302693   0.3136903
0.7702771    -0.9996216  -0.0013891   0.0000221   0.0015420   0.0000060  -0.0000118  -0.9301103   0.3139566
0.7797463    -0.9996780  -0.0015096   0.0000203   0.0015616  -0.0000053  -0.0000039  -0.9299867   0.3143409
0.7893319    -0.9996989  -0.0015394   0.0000403   0.0015790  -0.0000011  -0.0000039  -0.9298566   0.3146606
0.7990353    -0.9996291  -0.0015147   0.0000332   0.0015875   0.0000108   0.0000006  -0.9297423   0.3149845
0.8088580    -0.9997046  -0.0016227   0.0000067   0.0015880  -0.0000011  -0.0000043  -0.9295781   0.3153214
0.8188015    -0.9998170  -0.0016050   0.0000183   0.0016483  -0.0000041  -0.0000032  -0.9294537   0.3156519
0.8288673    -0.9997209  -0.0016665   0.0000051   0.0016600  -0.0000032  -0.0000065  -0.9292674   0.3159989
0.8390567    -0.9997330  -0.0015759   0.0000175   0.0017239   0.0000029  -0.0000167  -0.9291964   0.3163791
0.8493714    -0.9997287  -0.0015781   0.0000366   0.0017513   0.0000081  -0.0000012  -0.9290133   0.3166715
0.8598130    -0.9997190  -0.0016297   0.0000556   0.0017179   0.0000073  -0.0000083  -0.9288463   0.3170546
0.8703829    -0.9996758  -0.0017133   0.0000258   0.0017597   0.0000037  -0.0000044  -0.9286617   0.3173866
0.8810827    -0.9997218  -0.0017055   0.0000027   0.0017389  -0.0000029  -0.0000054  -0.9285109   0.3178376
0.8919140    -0.9997049  -0.0016437   0.0000821   0.0018490   0.0000023  -0.0000108  -0.9283561   0.3181357
0.9028786    -0.9997808  -0.0017617   0.0000282   0.0018632  -0.0000092   0.0000004  -0.9281942   0.3185210
0.9139779    -0.9998999  -0.0016819   0.0000124   0.0018744  -0.0000026  -0.0000067  -0.9280326   0.3189216
0.9252136    -0.9997581  -0.0017872   0.0000481   0.0018249  -0.0000001  -0.0000139  -0.9278553   0.3192816
0.9365875    -0.9997295  -0.0017754   0.0000327   0.0018802  -0.0000034   0.0000006  -0.9276938   0.3196557
0.9481012    -0.9996329  -0.0018705   0.0000432   0.0018893  -0.0000017  -0.0000055  -0.9275186   0.3200543
0.9597564    -0.9997025  -0.0017339   0.0000342   0.0019574  -0.0000017  -0.0000023  -0.9273121   0.3204456
0.9715549    -0.9996637  -0.0018618   0.0000496   0.0019621  -0.0000036  -0.0000012  -0.9271461   0.3208858
0.9834985    -0.9998096  -0.0019554   0.0000526   0.0019653  -0.0000065  -0.0000013  -0.9270109   0.3212321
0.9955889    -0.9997791  -0.0019464   0.0000153   0.0020344  -0.0000032  -0.0000050  -0.9268638   0.3216050
1.0078279    -0.9997726  -0.0018953   0.0000381   0.0019786   0.0000107  -0.0000079  -0.9265545   0.3220619
1.0202173    -0.9998019  -0.0020168   0.0000575   0.0019886   0.0000011  -0.0000053  -0.9264578   0.3224213
1.0327591    -0.9997501  -0.0018601   0.0000939   0.0020314  -0.0000039  -0.0000004  -0.9262505   0.3229331
1.0454551    -0.9997807  -0.0020871   0.0000368   0.0020483   0.0000008  -0.0000101  -0.9260666   0.3233381
1.0583071    -0.9997318  -0.0020003   0.0000856   0.0020698  -0.0000013   0.0000049  -0.9258682   0.3237213
1.0713171    -0.9997048  -0.0020493  -0.0000194   0.0020960  -0.0000064   0.0000018  -0.9255917   0.3241481
1.0844871    -0.9997180  -0.0020354   0.0000315   0.0020932  -0.0000048   0.0000027  -0.9254617   0.3245377
1.0978189    -0.9997601  -0.0021146   0.0000247   0.0021139   0.0000007   0.0000068  -0.9252756   0.3250599
1.1113147    -0.9998972  -0.0021852   0.0000845   0.0021691  -0.0000006  -0.0000055  -0.9250334   0.3254274
1.1249763    -0.9998236  -0.0021443   0.0000351   0.0021929  -0.0000013  -0.0000018  -0.9248774   0.3259905
1.1388059    -0.9996698  -0.0021331   0.0000381   0.0022126  -0.0000019  -0.0000060  -0.9247198   0.3264517
1.1528056    -0.9997964  -0.0022473   0.0000718   0.0022667  -0.0000044  -0.0000036  -0.9244583   0.3268988
1.1669773    -0.9998207  -0.0022637   0.0000904   0.0023162  -0.0000009  -0.0000082  -0.9242727   0.3273953
1.1813232    -0.9997083  -0.0022986   0.0000468   0.0022808  -0.0000031  -0.0000048  -0.9240773   0.3278585
1.1958455    -0.9996912  -0.0023002   0.0000285   0.0023372   0.0000009   0.0000004  -0.9238039   0.3283554
1.2105463    -0.9997053  -0.0023505   0.0000379   0.0023515  -0.0000031  -0.0000085  -0.9236208   0.3288517
1.2254278    -0.9997560  -0.0023870   0.0000523   0.0023795  -0.0000064   0.0000002  -0.9233540   0.3293477
1.2404923    -0.9998035  -0.0023509   0.0000923   0.0024358   0.0000005  -0.0000006  -0.9232183   0.3298264
1.2557420    -0.9997916  -0.0024362   0.0000347   0.0024496   0.0000060  -0.0000034  -0.9229541   0.3303611
1.2711791    -0.9998173  -0.0023886   0.0000628   0.0024469   0.0000058   0.0000032  -0.9226769   0.3308420
1.2868060    -0.9998801  -0.0024486   0.0000603   0.0025047  -0.0000086   0.0000018  -0.9224299   0.3313969
1.3026251    -0.9997840  -0.0024233   0.0000583   0.0025033   0.0000010  -0.0000178  -0.9221532   0.3319239
1.3186385    -0.9998299  -0.0025643   0.0000136   0.0025431  -0.0000032  -0.0000001  -0.9219294   0.3324706
1.3348489    -0.9997237  -0.0024956   0.0000615   0.0025672  -0.0000022  -0.0000067  -0.9217568   0.3330027
1.3512585    -0.9998849  -0.0025669   0.0000752   0.0025850  -0.0000067  -0.0000152  -0.9214508   0.3335168
1.3678698    -0.9997796  -0.0025533  -0.0000066   0.0026328  -0.0000091  -0.0000157  -0.9212825   0.3340755
1.3846854    -0.9999008  -0.0025379   0.0000511   0.0026797   0.0000027  -0.0000135  -0.9210106   0.3347380
1.4017077    -0.9997992  -0.0026663   0.0000449   0.0027272   0.0000041   0.0000045  -0.9207423   0.3352204
1.4189392    -0.9997810  -0.0027779   0.0000654   0.0027214   0.0000006   0.0000001  -0.9205003   0.3357456
1.4363825    -0.9999088  -0.0027406   0.0000602   0.0027528  -0.0000072  -0.0000012  -0.9202484   0.3363581
1.4540403    -0.9997895  -0.0027041   0.0000531   0.0028041  -0.0000064  -0.0000011  -0.9199559   0.3369570
1.4719152    -0.9997926  -0.0027676   0.0000485   0.0028364   0.0000078   0.0000075  -0.9197156   0.3376479
1.4900098    -0.9997656  -0.0026747   0.0001183   0.0028633   0.0000059  -0.0000025  -0.9193985   0.3381595
1.5083269    -0.9996887  -0.0028166   0.0000564   0.0029208  -0.0000053   0.0000013  -0.9191216   0.3387463
1.5268691    -0.9998188  -0.0028510   0.0000387   0.0029398   0.0000075  -0.0000016  -0.9188447   0.3393919
1.5456392    -0.9998261  -0.0028306   0.0000691   0.0029813  -0.0000034  -0.0000016  -0.9186352   0.3399954
1.5646402    -0.9998444  -0.0029344  -0.0000529   0.0029254   0.0000027  -0.0000022  -0.9183255   0.3407034
1.5838747    -0.9998076  -0.0028932   0.0000283   0.0030724  -0.0000058   0.0000018  -0.9180071   0.3413056
1.6033456    -0.9997894  -0.0030140   0.0000865   0.0030814  -0.0000038   0.0000005  -0.9178175   0.3419714
1.6230559    -0.9998012  -0.0030110   0.0000941   0.0030833   0.0000040  -0.0000088  -0.9174998   0.3426997
1.6430085    -0.9997704  -0.0030601   0.0000310   0.0031930  -0.0000092  -0.0000087  -0.9171685   0.3433497
1.6632064    -0.9998189  -0.0031645  -0.0000419   0.0032272  -0.0000108  -0.0000073  -0.9168588   0.3440620
1.6836526    -0.9998359  -0.0032712   0.0000314   0.0032953   0.0000037  -0.0000099  -0.9166106   0.3447857
1.7043502    -0.9997860  -0.0032137   0.0000696   0.0033054   0.0000002  -0.0000113  -0.9161800   0.3455200
1.7253021    -0.9997100  -0.0031428   0.0000525   0.0032882  -0.0000079  -0.0000040  -0.9159925   0.3461715
1.7465117    -0.9998179  -0.0032609   0.0000764   0.0032195   0.0000025  -0.0000055  -0.9157903   0.3469968
1.7679820    -0.9998027  -0.0033058   0.0001056   0.0032664  -0.0000045   0.0000031  -0.9154066   0.3477171
1.7897162    -0.9998910  -0.0034160   0.0000458   0.0035912  -0.0000016  -0.0000074  -0.9151174   0.3484560
1.8117176    -0.9998672  -0.0034085   0.0001535   0.0035056  -0.0000088  -0.0000035  -0.9147761   0.3493066
1.8339895    -0.9997801  -0.0034030   0.0000560   0.0036260  -0.0000118  -0.0000034  -0.9144893   0.3500739
1.8565352    -0.9998736  -0.0034330   0.0000714   0.0035548  -0.0000061  -0.0000007  -0.9141587   0.3508992
1.8793580    -0.9998573  -0.0033840   0.0001662   0.0035646   0.0000050  -0.0000067  -0.9138773   0.3516445
1.9024614    -0.9997560  -0.0035601   0.0001134   0.0036236   0.0000034   0.0000019  -0.9136433   0.3524820
1.9258488    -0.9998038  -0.0035680   0.0001407   0.0036369  -0.0000040  -0.0000066  -0.9132013   0.3533232
1.9495237    -0.9998285  -0.0036382   0.0001455   0.0037202  -0.0000036  -0.0000086  -0.9128573   0.3542622
1.9734897    -0.9998037  -0.0036544   0.0001095   0.0037730  -0.0000027  -0.0000027  -0.9124967   0.3551210
1.9977503    -0.9999757  -0.0037608   0.0001420   0.0037892  -0.0000022  -0.0000100  -0.9121862   0.3560367
2.0223091    -0.9997431  -0.0037783   0.0001290   0.0038505   0.0000036  -0.0000066  -0.9117146   0.3569520
2.0471698    -0.9997198  -0.0037637   0.0001373   0.0037994   0.0000021  -0.0000058  -0.9112576   0.3578717
2.0723362    -0.9998627  -0.0038745   0.0001364   0.0039441  -0.0000052  -0.0000109  -0.9108508   0.3587810
2.0978119    -0.9997957  -0.0038820   0.0001264   0.0040440  -0.0000046  -0.0000081  -0.9103719   0.3597379
2.1236008    -0.9999253  -0.0039998   0.0001812   0.0040072  -0.0000093  -0.0000004  -0.9098752   0.3606545
2.1497067    -0.9998641  -0.0039110   0.0001329   0.0041053  -0.0000046  -0.0000022  -0.9093895   0.3616367
2.1761336    -0.9999080  -0.0040833   0.0001734   0.0041327  -0.0000068  -0.0000094  -0.9089004   0.3624516
2.2028853    -0.9998829  -0.0041007   0.0001480   0.0041547  -0.0000069  -0.0000036  -0.9082573   0.3634525
2.2299659    -0.9999378  -0.0041048   0.0001572   0.0041821  -0.0000041  -0.0000103  -0.9079217   0.3643863
2.2573794    -0.9998853  -0.0042647   0.0001519   0.0042661  -0.0000005   0.0000045  -0.9073349   0.3653268
2.2851299    -0.9998996  -0.0042596   0.0001640   0.0043334  -0.0000203  -0.0000078  -0.9067572   0.3662666
2.3132216    -0.9998780  -0.0042298   0.0001348   0.0043035  -0.0000061  -0.0000051  -0.9062437   0.3671181
2.3416586    -0.9998265  -0.0042538   0.0001523   0.0044232   0.0000013  -0.0000147  -0.9056892   0.3680784
2.3704451    -0.9999259  -0.0043353   0.0001472   0.0044684  -0.0000051  -0.0000091  -0.9051684   0.3691096
2.3995856    -0.9998817  -0.0044149   0.0001598   0.0044970  -0.0000066  -0.0000082  -0.9045189   0.3700807
2.4290843    -0.9999243  -0.0046385   0.0001613   0.0045980  -0.0000003  -0.0000136  -0.9041214   0.3709168
2.4589456    -0.9996974  -0.0045293   0.0001767   0.0046505  -0.0000015  -0.0000055  -0.9035454   0.3719175
2.4891740    -0.9998321  -0.0045055   0.0001758   0.0046623   0.0000065   0.0000046  -0.9030067   0.3729132
2.5197740    -0.9998985  -0.0048315   0.0002264   0.0047159  -0.0000101  -0.0000049  -0.9025121   0.3739415
2.5507502    -0.9998859  -0.0046348   0.0001700   0.0048107  -0.0000041   0.0000006  -0.9019500   0.3748543
2.5821072    -0.9997534  -0.0047430   0.0001901   0.0048444   0.0000005  -0.0000009  -0.9013914   0.3758758
2.6138496    -0.9997349  -0.0047573   0.0001937   0.0049203  -0.0000073  -0.0000027  -0.9007222   0.3768633
2.6459823    -0.9999309  -0.0048555   0.0002283   0.0049868  -0.0000029   0.0000048  -0.9001987   0.3779199
2.6785100    -0.9998659  -0.0049633   0.0002676   0.0050729  -0.0000082  -0.0000121  -0.8996597   0.3790409
2.7114376    -0.9998514  -0.0049335   0.0001363   0.0050852  -0.0000063  -0.0000062  -0.8990225   0.3800620
2.7447699    -0.9998873  -0.0049736   0.0001940   0.0051972   0.0000017  -0.0000063  -0.8984440   0.3810689
2.7785120    -0.9998465  -0.0050368   0.0001817   0.0051936  -0.0000026  -0.0000068  -0.8978285   0.3821643
2.8126689    -0.9999131  -0.0051866   0.0002372   0.0052358  -0.0000122   0.0000035  -0.8973122   0.3833147
2.8472457    -0.9998262  -0.0051955   0.0002382   0.0053275  -0.0000035  -0.0000070  -0.8967607   0.3844286
2.8822476    -0.9999203  -0.0053338   0.0002325   0.0054898   0.0000060   0.0000022  -0.8961782   0.3855124
2.9176798    -0.9998287  -0.0054489   0.0002455   0.0054547  -0.0000007  -0.0000141  -0.8955195   0.3866086
2.9535475    -0.9998893  -0.0055212   0.0002197   0.0055325  -0.0000058  -0.0000054  -0.8949483   0.3878070
2.9898562    -0.9997826  -0.0054466   0.0002497   0.0055771  -0.0000028  -0.0000049  -0.8942470   0.3890268
3.0266112    -0.9998428  -0.0055728   0.0002436   0.0056625  -0.0000014  -0.0000102  -0.8936296   0.3901293
3.0638180    -0.9998828  -0.0054925   0.0002305   0.0056847  -0.0000027  -0.0000106  -0.8929854   0.3913348
3.1014823    -0.9999793  -0.0056594   0.0001953   0.0057382   0.0000122   0.0000001  -0.8923790   0.3926033
3.1396096    -0.9998952  -0.0057074   0.0002457   0.0058742   0.0000007  -0.0000151  -0.8916534   0.3937399
3.1782055    -0.9999011  -0.0057848   0.0002633   0.0059246  -0.0000052  -0.0000060  -0.8910269   0.3950064
3.2172760    -0.9999011  -0.0059832   0.0002938   0.0060268  -0.0000021  -0.0000025  -0.8903442   0.3962763
3.2568267    -0.9998615  -0.0060054   0.0003154   0.0060735   0.0000000   0.0000010  -0.8897056   0.3975141
3.2968637    -0.9999988  -0.0060363   0.0002877   0.0061382   0.0000079  -0.0000071  -0.8889123   0.3988380
3.3373928    -0.9998795  -0.0061500   0.0002890   0.0061660  -0.0000055  -0.0000043  -0.8882090   0.4000991
3.3784202    -0.9998667  -0.0061961   0.0003508   0.0063002   0.0000017  -0.0000115  -0.8874257   0.4014749
3.4199519    -0.9999994  -0.0062823   0.0003330   0.0063501  -0.0000018  -0.0000072  -0.8867184   0.4027799
3.4619942    -0.9999200  -0.0063352   0.0002766   0.0064330   0.0000094  -0.0000015  -0.8859021   0.4040620
3.5045533    -0.9999586  -0.0064242   0.0003605   0.0065151  -0.0000130  -0.0000043  -0.8851955   0.4055343
3.5476356    -0.9998564  -0.0064409   0.0003179   0.0065605  -0.0000032  -0.0000072  -0.8844131   0.4068135
3.5912475    -0.9999670  -0.0065194   0.0003545   0.0066246   0.0000050  -0.0000068  -0.8835820   0.4081858
3.6353956    -0.9999267  -0.0066374   0.0002072   0.0066646  -0.0000033   0.0000033  -0.8828196   0.4096963
3.6800864    -0.9998226  -0.0066287   0.0002785   0.0067871  -0.0000019  -0.0000012  -0.8820544   0.4111741
3.7253266    -0.9999590  -0.0068444   0.0002182   0.0068155  -0.0000012   0.0000029  -0.8812237   0.4125975
3.7711229    -0.9999290  -0.0068653   0.0003457   0.0069624   0.0000036  -0.0000073  -0.8804596   0.4140384
3.8174822    -0.9998592  -0.0070297   0.0003697   0.0070624   0.0000054  -0.0000037  -0.8795996   0.4154965
3.8644115    -0.9999638  -0.0069850   0.0003060   0.0070884  -0.0000027  -0.0000005  -0.8788628   0.4170898
3.9119176    -0.9998791  -0.0071027   0.0003716   0.0072089   0.0000050  -0.0000047  -0.8780034   0.4186069
3.9600077    -0.9999830  -0.0072180   0.0003049   0.0072520  -0.0000003  -0.0000106  -0.8772529   0.4201030
4.0086890    -0.9998671  -0.0071963   0.0003132   0.0073764  -0.0000001  -0.0000011  -0.8762245   0.4216955
4.0579688    -0.9999810  -0.0073404   0.0003434   0.0074864   0.0000105  -0.0000087  -0.8753939   0.4232443
4.1078544    -0.9999534  -0.0074540   0.0003599   0.0075453   0.0000009  -0.0000062  -0.8745147   0.4247613
4.1583532    -1.0000054  -0.0075688   0.0003769   0.0076513  -0.0000076  -0.0000134  -0.8735491   0.4263804
4.2094729    -0.9999297  -0.0076012   0.0004377   0.0077162  -0.0000130  -0.0000085  -0.8727399   0.4279787
4.2612209    -0.9999072  -0.0077012   0.0003763   0.0078530   0.0000049  -0.0000003  -0.8717528   0.4295703
4.3136051    -0.9998676  -0.0077436   0.0004397   0.0079112   0.0000094  -0.0000038  -0.8707551   0.4312195
4.3666333    -0.9998525  -0.0078859   0.0004079   0.0080086  -0.0000042  -0.0000094  -0.8698497   0.4329018
4.4203134    -0.9999453  -0.0079914   0.0004192   0.0081281  -0.0000094  -0.0000055  -0.8687537   0.4345216
4.4746534    -1.0000173  -0.0079766   0.0004765   0.0081883  -0.0000100  -0.0000040  -0.8676684   0.4362446
4.5296613    -0.9999703  -0.0080764   0.0004401   0.0083051  -0.0000140  -0.0000062  -0.8666960   0.4379928
4.5853455    -0.9999168  -0.0083632   0.0004661   0.0084222   0.0000126  -0.0000056  -0.8655878   0.4397037
4.6417143    -1.0000217  -0.0084882   0.0004421   0.0084940   0.0000038  -0.0000010  -0.8644354   0.4412928
4.6987760    -0.9999707  -0.0084358   0.0004387   0.0086229  -0.0000146  -0.0000077  -0.8633619   0.4429503
4.7565392    -0.9999748  -0.0086234   0.0004442   0.0087060  -0.0000048  -0.0000118  -0.8622112   0.4446939
4.8150125    -0.9999333  -0.0086363   0.0004198   0.0088445   0.0000012  -0.0000054  -0.8610678   0.4463435
4.8742045    -0.9998551  -0.0088453   0.0003858   0.0089051   0.0000013  -0.0000100  -0.8598778   0.4479819
4.9341243    -1.0000756  -0.0089831   0.0004171   0.0090671  -0.0000079  -0.0000109  -0.8588102   0.4494953
4.9947807    -1.0000066  -0.0091309   0.0004137   0.0091066  -0.0000006  -0.0000013  -0.8578174   0.4510817
5.0561827    -0.9998973  -0.0090758   0.0004007   0.0092518  -0.0000007  -0.0000055  -0.8568059   0.4527803
5.1183396    -1.0000077  -0.0092255   0.0003525   0.0094232   0.0000014  -0.0000067  -0.8558557   0.4544847
5.1812606    -0.9999702  -0.0092503   0.0004635   0.0094817   0.0000041   0.0000007  -0.8549632   0.4562606
5.2449550    -0.9999798  -0.0095267   0.0004333   0.0096118  -0.0000038  -0.0000165  -0.8540537   0.4582926
5.3094325    -1.0000558  -0.0096166   0.0003984   0.0097546  -0.0000002  -0.0000129  -0.8530595   0.4601084
5.3747026    -1.0000699  -0.0096850   0.0004641   0.0097937  -0.0000032  -0.0000010  -0.8520304   0.4623129
5.4407751    -1.0000046  -0.0097991   0.0004777   0.0099412   0.0000050  -0.0000045  -0.8508710   0.4642557
5.5076599    -1.0000708  -0.0099327   0.0004614   0.0100452  -0.0000117  -0.0000096  -0.8497691   0.4663224
5.5753669    -1.0000139  -0.0100997   0.0005241   0.0101803   0.0000046  -0.0000046  -0.8485973   0.4684798
5.6439062    -0.9999762  -0.0102787   0.0004620   0.0102603   0.0000020  -0.0000020  -0.8474325   0.4705647
5.7132881    -1.0000111  -0.0103720   0.0004859   0.0103888  -0.0000053  -0.0000021  -0.8461542   0.4727491
5.7835229    -0.9999423  -0.0103911   0.0005410   0.0104589   0.0000120  -0.0000015  -0.8448744   0.4749231
5.8546211    -1.0000857  -0.0105691   0.0005184   0.0106830   0.0000019  -0.0000059  -0.8436650   0.4771559
5.9265934    -0.9999908  -0.0106782   0.0005153   0.0107938   0.0000031  -0.0000032  -0.8422969   0.4793258
5.9994504    -1.0000208  -0.0108556   0.0005322   0.0108905  -0.0000047  -0.0000054  -0.8409209   0.4814409
6.0732031    -1.0000715  -0.0109626   0.0005611   0.0110108  -0.0000113  -0.0000100  -0.8395623   0.4836481
6.1478624    -0.9999537  -0.0110574   0.0005652   0.0111806   0.0000063  -0.0000045  -0.8381859   0.4858738
6.2234396    -0.9999959  -0.0112174   0.0004361   0.0112952  -0.0000013  -0.0000036  -0.8366054   0.4881844
6.2999458    -0.9999698  -0.0113235   0.0004946   0.0114363  -0.0000015  -0.0000074  -0.8352632   0.4904485
6.3773925    -1.0000509  -0.0114115   0.0006126   0.0116087  -0.0000065  -0.0000109  -0.8337530   0.4927246
6.4557914    -0.9999829  -0.0115955   0.0005745   0.0116853   0.0000019  -0.0000044  -0.8322471   0.4949631
6.5351539    -1.0001246  -0.0118788   0.0005580   0.0118375  -0.0000016   0.0000001  -0.8307492   0.4973691
6.6154922    -1.0000573  -0.0118436   0.0006198   0.0118590   0.0000017  -0.0000067  -0.8291662   0.4997310
6.6968180    -0.9999920  -0.0119965   0.0005316   0.0120452  -0.0000013  -0.0000054  -0.8275994   0.5021189
6.7791436    -1.0000342  -0.0121417   0.0006120   0.0122555  -0.0000036  -0.0000061  -0.8260330   0.5044637
6.8624812    -1.0001256  -0.0123074   0.0006852   0.0124431  -0.0000017  -0.0000108  -0.8244187   0.5069328
6.9468433    -1.0000576  -0.0124472   0.0006357   0.0125502  -0.0000075   0.0000006  -0.8228260   0.5093485
7.0322425    -1.0000785  -0.0126572   0.0006789   0.0127285  -0.0000001  -0.0000017  -0.8211146   0.5118158
7.1186916    -1.0001164  -0.0127828   0.0006905   0.0128506   0.0000055  -0.0000068  -0.8194095   0.5143454
7.2062034    -1.0000212  -0.0129239   0.0006283   0.0130456  -0.0000054  -0.0000028  -0.8176992   0.5169044
7.2947909    -1.0000452  -0.0130543   0.0007375   0.0131122  -0.0000060  -0.0000003  -0.8159561   0.5194736
7.3844675    -1.0001135  -0.0132444   0.0006602   0.0133198  -0.0000109  -0.0000018  -0.8142863   0.5220747
7.4752466    -1.0001634  -0.0134240   0.0006820   0.0135217   0.0000062  -0.0000064  -0.8124937   0.5246904
7.5671416    -0.9999748  -0.0135387   0.0007191   0.0136870  -0.0000101   0.0000033  -0.8107805   0.5273408
7.6601662    -0.9999903  -0.0138078   0.0007102   0.0138270  -0.0000032  -0.0000058  -0.8089321   0.5300260
7.7543345    -1.0000502  -0.0137911   0.0007351   0.0139444  -0.0000011  -0.0000027  -0.8070409   0.5328550
7.8496604    -1.0000535  -0.0140421   0.0007300   0.0141286  -0.0000081  -0.0000079  -0.8052010   0.5356596
7.9461581    -0.9999704  -0.0142837   0.0007284   0.0142849  -0.0000041  -0.0000001  -0.8031845   0.5385086
8.0438422    -1.0001580  -0.0143270   0.0007549   0.0144746  -0.0000019   0.0000034  -0.8012046   0.5413537
8.1427270    -1.0000683  -0.0145842   0.0007609   0.0146225   0.0000042   0.0000010  -0.7990345   0.5443276
8.2428275    -1.0000723  -0.0147833   0.0007914   0.0148160   0.0000016   0.0000028  -0.7968067   0.5471867
8.3441586    -1.0001002  -0.0148931   0.0008130   0.0149595  -0.0000017   0.0000017  -0.7946318   0.5499687
8.4467353    -1.0000744  -0.0151498   0.0008471   0.0151330   0.0000085  -0.0000037  -0.7923743   0.5529673
8.5505731    -1.0000880  -0.0152136   0.0008291   0.0152511   0.0000036  -0.0000037  -0.7900742   0.5557386
8.6556873    -1.0000005  -0.0155224   0.0008470   0.0153938   0.0000022  -0.0000069  -0.7877981   0.5586649
8.7620937    -1.0000940  -0.0156401   0.0008639   0.0156028  -0.0000146  -0.0000022  -0.7855033   0.5615264
8.8698082    -1.0000209  -0.0159165   0.0008990   0.0157990   0.0000006  -0.0000076  -0.7831491   0.5644380
8.9788469    -0.9999980  -0.0160896   0.0008517   0.0159926   0.0000057  -0.0000060  -0.7808526   0.5673655
9.0892260    -1.0000609  -0.0162919   0.0008995   0.0161703  -0.0000017  -0.0000065  -0.7784899   0.5703176
9.2009621    -1.0001870  -0.0163617   0.0009021   0.0163466  -0.0000012  -0.0000011  -0.7759998   0.5733714
9.3140717    -1.0001312  -0.0167040   0.0008933   0.0165546   0.0000038   0.0000058  -0.7735743   0.5763568
9.4285718    -1.0000942  -0.0168958   0.0009263   0.0167920  -0.0000053  -0.0000121  -0.7711036   0.5794398
9.5444795    -1.0000915  -0.0170149   0.0009482   0.0169865  -0.0000082   0.0000062  -0.7685506   0.5825374
9.6618121    -1.0001640  -0.0171747   0.0009215   0.0172038   0.0000018  -0.0000043  -0.7660223   0.5856292
9.7805870    -1.0000901  -0.0174451   0.0009471   0.0173467   0.0000009   0.0000032  -0.7634060   0.5888029
9.9008221    -1.0000816  -0.0177014   0.0009753   0.0176124   0.0000039  -0.0000012  -0.7607542   0.5920226
10.0225353   -1.0000766  -0.0178837   0.0009716   0.0178308  -0.0000049  -0.0000083  -0.7581033   0.5951324
10.1457447   -1.0000254  -0.0181085   0.0009884   0.0180406  -0.0000039  -0.0000058  -0.7553612   0.5984296
10.2704688   -1.0000051  -0.0182786   0.0010289   0.0182510  -0.0000041  -0.0000085  -0.7526769   0.6017045
10.3967261   -1.0000801  -0.0185444   0.0009461   0.0183563  -0.0000061  -0.0000066  -0.7498397   0.6050384
10.5245356   -1.0001559  -0.0186945   0.0010190   0.0186407  -0.0000079  -0.0000076  -0.7469667   0.6082174
10.6539162   -1.0000817  -0.0189021   0.0010156   0.0188146   0.0000029   0.0000029  -0.7440703   0.6115378
10.7848873   -1.0000711  -0.0192037   0.0011018   0.0191473   0.0000005  -0.0000063  -0.7411368   0.6149778
10.9174685   -1.0000417  -0.0194773   0.0010792   0.0193811  -0.0000070  -0.0000035  -0.7381281   0.6183689
11.0516796   -1.0001158  -0.0196590   0.0010999   0.0195712  -0.0000045   0.0000037  -0.7349763   0.6217995
11.1875405   -1.0001309  -0.0199993   0.0010978   0.0198153   0.0000009  -0.0000076  -0.7319551   0.6253218
11.3250716   -1.0001793  -0.0200906   0.0011776   0.0200781  -0.0000013  -0.0000002  -0.7288001   0.6287838
11.4642934   -1.0000731  -0.0203812   0.0011322   0.0202651  -0.0000070  -0.0000020  -0.7255736   0.6322627
11.6052267   -1.0000746  -0.0206969   0.0011829   0.0205128  -0.0000104  -0.0000051  -0.7223402   0.6358978
11.7478926   -1.0000830  -0.0207522   0.0011474   0.0207302  -0.0000036   0.0000009  -0.7190147   0.6394037
11.8923122   -1.0000960  -0.0211414   0.0012205   0.0210161   0.0000007   0.0000002  -0.7156511   0.6429700
12.0385073   -1.0000157  -0.0214442   0.0012281   0.0212845  -0.0000075  -0.0000003  -0.7121713   0.6466395
12.1864995   -1.0001691  -0.0216532   0.0012210   0.0215171  -0.0000044  -0.0000095  -0.7086981   0.6502674
12.3363111   -1.0001365  -0.0218476   0.0012174   0.0217348  -0.0000098  -0.0000015  -0.7052440   0.6539590
12.4879643   -1.0000718  -0.0220904   0.0012967   0.0220257  -0.0000047  -0.0000026  -0.7015574   0.6576797
12.6414818   -1.0001077  -0.0224260   0.0012574   0.0222862   0.0000050  -0.0000068  -0.6978449   0.6613944
12.7968866   -1.0002105  -0.0226774   0.0012750   0.0225323   0.0000019  -0.0000131  -0.6941116   0.6651428
12.9542018   -1.0000995  -0.0228800   0.0012386   0.0228064   0.0000027   0.0000004  -0.6903715   0.6689079
13.1134509   -1.0000787  -0.0232339   0.0012817   0.0230707  -0.0000100  -0.0000035  -0.6864955   0.6727020
13.2746577   -1.0001420  -0.0235572   0.0012913   0.0233567  -0.0000033  -0.0000037  -0.6825288   0.6765492
13.4378462   -1.0001877  -0.0238153   0.0013283   0.0236313   0.0000116  -0.0000093  -0.6785797   0.6805044
13.6030409   -1.0000273  -0.0240748   0.0013883   0.0239324   0.0000024  -0.0000091  -0.6744924   0.6843455
13.7702663   -1.0000562  -0.0243583   0.0013332   0.0241683  -0.0000078   0.0000053  -0.6703140   0.6882447
13.9395475   -1.0000913  -0.0246209   0.0014017   0.0245144  -0.0000009  -0.0000010  -0.6661352   0.6921232
14.1109097   -1.0000782  -0.0249049   0.0014296   0.0247720  -0.0000038  -0.0000051  -0.6618006   0.6961022
14.2843785   -0.9999914  -0.0252840   0.0013931   0.0250586   0.0000052   0.0000030  -0.6574447   0.7000021
14.4599797   -1.0000772  -0.0254936   0.0014675   0.0254144   0.0000036  -0.0000067  -0.6530176   0.7040575
14.6377397   -1.0000233  -0.0258846   0.0015057   0.0257092  -0.0000093  -0.0000076  -0.6485291   0.7080584
14.8176850   -1.0000517  -0.0261787   0.0015465   0.0260015  -0.0000131   0.0000027  -0.6439510   0.7120446
14.9998423   -1.0000526  -0.0265147   0.0015059   0.0262760  -0.0000022  -0.0000131  -0.6392536   0.7161155
15.1842390   -1.0001275  -0.0268893   0.0015220   0.0266066  -0.0000130   0.0000049  -0.6344815   0.7202062
15.3709024   -1.0001649  -0.0270584   0.0015558   0.0269126  -0.0000048   0.0000017  -0.6297241   0.7242485
15.5598606   -1.0001062  -0.0274590   0.0015302   0.0272359  -0.0000054  -0.0000108  -0.6248621   0.7283607
15.7511417   -0.9999559  -0.0278720   0.0015617   0.0275396   0.0000019  -0.0000063  -0.6198680   0.7325479
15.9447743   -1.0001378  -0.0281061   0.0015695   0.0278891   0.0000020  -0.0000005  -0.6148227   0.7366409
16.1407872   -1.0000727  -0.0285258   0.0016570   0.0282607  -0.0000153  -0.0000110  -0.6095775   0.7408179
16.3392097   -1.0001306  -0.0288368   0.0016763   0.0285682  -0.0000056   0.0000011  -0.6043237   0.7450111
16.5400716   -1.0001009  -0.0291886   0.0016727   0.0289454  -0.0000077   0.0000002  -0.5990279   0.7492048
16.7434026   -0.9999879  -0.0295292   0.0016849   0.0292466  -0.0000112  -0.0000024  -0.5935454   0.7533613
16.9492333   -1.0001131  -0.0298338   0.0016980   0.0296176   0.0000049   0.0000022  -0.5880423   0.7577115
17.1575942   -0.9999372  -0.0302231   0.0017280   0.0299692  -0.0000039   0.0000064  -0.5824226   0.7618352
17.3685166   -1.0000545  -0.0306925   0.0018127   0.0302800  -0.0000002   0.0000013  -0.5767305   0.7661086
17.5820320   -1.0000936  -0.0309279   0.0017417   0.0306715  -0.0000036  -0.0000010  -0.5708657   0.7702965
17.7981721   -1.0000633  -0.0314687   0.0017468   0.0310388  -0.0000008  -0.0000063  -0.5649477   0.7746078
18.0169693   -1.0000264  -0.0317007   0.0018190   0.0313320  -0.0000148   0.0000015  -0.5589829   0.7788677
18.2384562   -1.0000775  -0.0321629   0.0018397   0.0317895  -0.0000088  -0.0000066  -0.5528978   0.7832294
18.4626659   -1.0000618  -0.0325458   0.0017502   0.0321930   0.0000017  -0.0000043  -0.5466180   0.7874117
18.6896319   -0.9999985  -0.0328729   0.0018320   0.0326136  -0.0000066   0.0000047  -0.5403799   0.7916946
18.9193880   -0.9999703  -0.0332724   0.0018886   0.0330131  -0.0000040  -0.0000020  -0.5338648   0.7960754
19.1519686   -1.0000155  -0.0336743   0.0019307   0.0333038   0.0000009  -0.0000067  -0.5272533   0.8003731
19.3874083   -1.0000188  -0.0340802   0.0019856   0.0337737  -0.0000090  -0.0000072  -0.5205907   0.8046701
19.6257423   -0.9999634  -0.0345258   0.0020207   0.0342285  -0.0000034  -0.0000054  -0.5139282   0.8090026
19.8670063   -0.9999753  -0.0349682   0.0020439   0.0346330  -0.0000003  -0.0000053  -0.5070653   0.8132444
20.1112361   -0.9999510  -0.0353648   0.0020558   0.0350700   0.0000014   0.0000039  -0.5000667   0.8175503
20.3584684   -0.9999566  -0.0357083   0.0021106   0.0354847  -0.0000109  -0.0000031  -0.4928451   0.8218131
20.6087399   -0.9998945  -0.0363630   0.0021196   0.0358986   0.0000064  -0.0000074  -0.4856078   0.8260492
20.8620881   -0.9999390  -0.0366884   0.0021859   0.0363021  -0.0000070   0.0000015  -0.4781752   0.8303917
21.1185507   -0.9998650  -0.0371326   0.0023079   0.0366345  -0.0000055   0.0000029  -0.4706816   0.8346281
21.3781661   -0.9998450  -0.0375607   0.0022398   0.0371861  -0.0000035  -0.0000010  -0.4630449   0.8387695
21.6409730   -0.9999691  -0.0379778   0.0022908   0.0376508  -0.0000039  -0.0000078  -0.4552968   0.8429882
21.9070107   -0.9998801  -0.0384774   0.0023562   0.0380013  -0.0000070   0.0000040  -0.4474480   0.8472129
22.1763188   -0.9999644  -0.0389267   0.0023127   0.0385130  -0.0000040   0.0000040  -0.4393970   0.8514093
22.4489376   -0.9998877  -0.0394613   0.0023506   0.0389839  -0.0000043  -0.0000038  -0.4312338   0.8556008
22.7249077   -0.9998494  -0.0398943   0.0023693   0.0394546  -0.0000006  -0.0000028  -0.4229033   0.8597198
23.0042705   -0.9998822  -0.0404095   0.0024488   0.0399279  -0.0000025   0.0000032  -0.4144679   0.8638397
23.2870675   -0.9998513  -0.0408470   0.0024545   0.0404082  -0.0000063   0.0000051  -0.4059703   0.8679089
23.5733409   -0.9997870  -0.0414161   0.0024996   0.0409541  -0.0000101  -0.0000119  -0.3971808   0.8719871
23.8631337   -0.9997620  -0.0418912   0.0025943   0.0413149  -0.0000095   0.0000009  -0.3882574   0.8759217
24.1564889   -0.9997960  -0.0424006   0.0026015   0.0418658  -0.0000145   0.0000020  -0.3793041   0.8799030
24.4534504   -0.9997283  -0.0428683   0.0026407   0.0423920  -0.0000039  -0.0000033  -0.3701540   0.8837846
24.7540625   -0.9997826  -0.0433308   0.0027164   0.0427763  -0.0000011  -0.0000056  -0.3608652   0.8877116
25.0583701   -0.9997536  -0.0439379   0.0027520   0.0433872   0.0000015  -0.0000007  -0.3513553   0.8915770
25.3664186   -0.9997614  -0.0444324   0.0027286   0.0438750  -0.0000058  -0.0000061  -0.3416299   0.8953736
25.6782541   -0.9996964  -0.0448879   0.0027656   0.0444896   0.0000039  -0.0000031  -0.3318719   0.8991532
25.9939230   -0.9996524  -0.0455498   0.0028510   0.0449787  -0.0000041  -0.0000050  -0.3219447   0.9027781
26.3134725   -0.9997118  -0.0460677   0.0028407   0.0455829   0.0000036  -0.0000035  -0.3118192   0.9063520
26.6369503   -0.9996042  -0.0465970   0.0029346   0.0461504  -0.0000030  -0.0000139  -0.3015927   0.9099376
26.9644047   -0.9996986  -0.0473218   0.0029521   0.0466645   0.0000019   0.0000037  -0.2911556   0.9134289
27.2958846   -0.9997071  -0.0476495   0.0030387   0.0471926  -0.0000076   0.0000021  -0.2805167   0.9167797
27.6314394   -0.9996241  -0.0482798   0.0030597   0.0477476  -0.0000017  -0.0000051  -0.2698048   0.9201340
27.9711193   -0.9995688  -0.0489699   0.0030483   0.0483066   0.0000071  -0.0000031  -0.2588429   0.9232956
28.3149750   -0.9995203  -0.0495344   0.0031914   0.0489060   0.0000039  -0.0000051  -0.2477763   0.9264440
28.6630578   -0.9995618  -0.0500304   0.0031271   0.0495119  -0.0000087  -0.0000003  -0.2365017   0.9294491
29.0154196   -0.9996436  -0.0507383   0.0031979   0.0501973  -0.0000064  -0.0000030  -0.2250419   0.9323611
29.3721131   -0.9994835  -0.0512969   0.0032696   0.0506939   0.0000014  -0.0000039  -0.2134533   0.9351741
29.7331915   -0.9994657  -0.0519703   0.0032336   0.0514260  -0.0000054  -0.0000036  -0.2016027   0.9379710
30.0987087   -0.9994701  -0.0526429   0.0034064   0.0520589  -0.0000033   0.0000123  -0.1897006   0.9405994
30.4687194   -0.9994133  -0.0532133   0.0033900   0.0527427  -0.0000021  -0.0000058  -0.1775500   0.9431766
30.8432786   -0.9993864  -0.0538623   0.0035470   0.0534335  -0.0000102   0.0000030  -0.1652043   0.9454509
31.2224424   -0.9994005  -0.0544896   0.0036807   0.0540804   0.0000061   0.0000027  -0.1527992   0.9476807
31.6062674   -0.9993359  -0.0552543   0.0038161   0.0547144  -0.0000091  -0.0000072  -0.1400337   0.9498177
31.9948108   -0.9993276  -0.0558314   0.0039859   0.0552391   0.0000000   0.0000043  -0.1271896   0.9518871
32.3881306   -0.9992952  -0.0565952   0.0039746   0.0559160  -0.0000007  -0.0000042  -0.1141830   0.9537462
32.7862857   -0.9993329  -0.0571619   0.0040869   0.0565304  -0.0000070  -0.0000062  -0.1009629   0.9553778
33.1893353   -0.9991883  -0.0579809   0.0041632   0.0570438  -0.0000018  -0.0000006  -0.0875903   0.9570247
33.5973398   -0.9992586  -0.0586053   0.0041629   0.0577469   0.0000037  -0.0000116  -0.0740442   0.9583378
34.0103599   -0.9992648  -0.0594176   0.0041956   0.0583103  -0.0000011   0.0000036  -0.0602129   0.9594876
34.4284574   -0.9991524  -0.0600273   0.0040084   0.0588137  -0.0000075  -0.0000028  -0.0465159   0.9606917
34.8516946   -0.9990122  -0.0608421   0.0038026   0.0596235  -0.0000053   0.0000028  -0.0322434   0.9616950
35.2801349   -0.9990716  -0.0615986   0.0036949   0.0606801  -0.0000032  -0.0000036  -0.0177784   0.9624635
35.7138420   -0.9990368  -0.0623148   0.0036106   0.0617795  -0.0000069  -0.0000060  -0.0032039   0.9628964
36.1528808   -0.9989706  -0.0631017   0.0039413   0.0626950  -0.0000086  -0.0000063   0.0115347   0.9632563
36.5973168   -0.9988964  -0.0638644   0.0041387   0.0638151   0.0000000  -0.0000055   0.0264333   0.9633738
37.0472164   -0.9988877  -0.0645934   0.0045316   0.0645769  -0.0000010  -0.0000025   0.0415912   0.9631242
37.5026467   -0.9988854  -0.0653103   0.0048920   0.0652566   0.0000005  -0.0000051   0.0569194   0.9628974
37.9636757   -0.9988586  -0.0660905   0.0051783   0.0660274  -0.0000025  -0.0000048   0.0726387   0.9619464
38.4303722   -0.9987403  -0.0669002   0.0053593   0.0666569   0.0000012  -0.0000023   0.0881824   0.9611452
38.9028060   -0.9987730  -0.0678191   0.0055187   0.0673406   0.0000032   0.0000041   0.1040381   0.9599848
39.3810475   -0.9986927  -0.0685938   0.0056864   0.0680986  -0.0000019   0.0000034   0.1201362   0.9586652
39.8651681   -0.9986621  -0.0694016   0.0057574   0.0687736  -0.0000008   0.0000047   0.1362896   0.9569852
40.3552402   -0.9986394  -0.0703079   0.0058627   0.0695887   0.0000052   0.0000025   0.1527017   0.9550329
40.8513368   -0.9985252  -0.0711790   0.0059897   0.0702821  -0.0000009  -0.0000083   0.1693457   0.9526915
41.3535320   -0.9985109  -0.0719794   0.0061424   0.0711266  -0.0000069  -0.0000035   0.1860114   0.9501695
41.8619009   -0.9984117  -0.0727816   0.0062413   0.0718770  -0.0000012   0.0000013   0.2030277   0.9472720
42.3765193   -0.9983691  -0.0736833   0.0063126   0.0726461   0.0000010  -0.0000008   0.2201222   0.9440599
42.8974639   -0.9984041  -0.0745101   0.0064200   0.0734583  -0.0000026   0.0000052   0.2373514   0.9404513
43.4248127   -0.9982312  -0.0754996   0.0064448   0.0741398   0.0000010  -0.0000060   0.2547651   0.9366341
43.9586443   -0.9981981  -0.0764018   0.0064981   0.0749427   0.0000045  -0.0000092   0.2723270   0.9323410
44.4990385   -0.9980378  -0.0773196   0.0066000   0.0758480  -0.0000060   0.0000010   0.2900678   0.9276746
45.0460758   -0.9981095  -0.0782462   0.0065779   0.0766993   0.0000030   0.0000042   0.3079234   0.9226692
45.5998380   -0.9981000  -0.0791622   0.0067540   0.0776057  -0.0000014  -0.0000026   0.3258964   0.9172927
46.1604077   -0.9979110  -0.0800464   0.0067441   0.0783092  -0.0000057  -0.0000096   0.3439905   0.9114112
46.7278686   -0.9978507  -0.0810461   0.0068739   0.0792204  -0.0000078  -0.0000061   0.3622095   0.9051561
47.3023055   -0.9977735  -0.0821227   0.0068804   0.0799747  -0.0000035   0.0000063   0.3805383   0.8984954
47.8838040   -0.9976769  -0.0831090   0.0065736   0.0805608   0.0000035  -0.0000116   0.3990787   0.8913030
48.4724511   -0.9975573  -0.0840763   0.0064215   0.0816544  -0.0000043   0.0000037   0.4175483   0.8837820
49.0683345   -0.9974894  -0.0850944   0.0059629   0.0827051  -0.0000065   0.0000016   0.4362200   0.8757527
49.6715433   -0.9973363  -0.0861977   0.0059221   0.0840591  -0.0000056  -0.0000091   0.4548566   0.8672616
50.2821675   -0.9974921  -0.0872268   0.0060019   0.0851699  -0.0000049  -0.0000026   0.4737366   0.8581977
50.9002982   -0.9972772  -0.0881357   0.0055094   0.0860643  -0.0000001  -0.0000023   0.4925113   0.8486204
51.5260277   -0.9971226  -0.0892970   0.0051002   0.0873134   0.0000016  -0.0000145   0.5114078   0.8386844
52.1594495   -0.9970704  -0.0904121   0.0043032   0.0893068   0.0000007  -0.0000111   0.5302185   0.8281260
52.8006581   -0.9969692  -0.0915220   0.0045477   0.0915908   0.0000019  -0.0000070   0.5491565   0.8169084
53.4497492   -0.9968528  -0.0926489   0.0051798   0.0936064   0.0000038  -0.0000035   0.5682259   0.8053365
54.1068198   -0.9967489  -0.0937788   0.0061968   0.0954415   0.0000014  -0.0000070   0.5870810   0.7931806
54.7719678   -0.9967185  -0.0949642   0.0072707   0.0962709  -0.0000080  -0.0000108   0.6059003   0.7804755
55.4452927   -0.9966128  -0.0961144   0.0072743   0.0969844  -0.0000031   0.0000036   0.6248029   0.7668483
56.1268950   -0.9965610  -0.0972059   0.0073069   0.0983028  -0.0000012  -0.0000006   0.6436129   0.7528409
56.8168763   -0.9963045  -0.0984127   0.0076252   0.1000281  -0.0000113  -0.0000002   0.6623330   0.7382715
57.5153398   -0.9963769  -0.0995908   0.0084829   0.1017314  -0.0000006  -0.0000099   0.6809259   0.7230836
58.2223896   -0.9961407  -0.1008595   0.0093229   0.1025226   0.0000062  -0.0000063   0.6993919   0.7071741
58.9381314   -0.9960300  -0.1019859   0.0097989   0.1032801   0.0000077  -0.0000018   0.7177304   0.6906869
59.6626719   -0.9959083  -0.1032991   0.0099382   0.1040975   0.0000018  -0.0000044   0.7358872   0.6734457
60.3961194   -0.9957981  -0.1045204   0.0097528   0.1053405  -0.0000076  -0.0000076   0.7539451   0.6555725
61.1385834   -0.9957104  -0.1057454   0.0097788   0.1071293   0.0000077  -0.0000151   0.7717916   0.6369847
61.8901746   -0.9955867  -0.1071104   0.0101167   0.1085098  -0.0000007  -0.0000055   0.7892939   0.6177425
62.6510053   -0.9953525  -0.1083777   0.0104120   0.1100500  -0.0000042  -0.0000129   0.8065969   0.5978861
63.4211891   -0.9951961  -0.1096377   0.0104942   0.1113623  -0.0000005   0.0000010   0.8236544   0.5771804
64.2008409   -0.9950396  -0.1110985   0.0105995   0.1133791  -0.0000013  -0.0000071   0.8403290   0.5559154
64.9900772   -0.9949760  -0.1123926   0.0113721   0.1154624   0.0000060  -0.0000039   0.8567017   0.5338548
65.7890158   -0.9948899  -0.1137535   0.0123417   0.1170248   0.0000066  -0.0000067   0.8726612   0.5111127
66.5977759   -0.9947896  -0.1151289   0.0132249   0.1180200  -0.0000110   0.0000004   0.8881822   0.4875516
67.4164783   -0.9945204  -0.1165105   0.0135999   0.1193807   0.0000024  -0.0000098   0.9034119   0.4632958
68.2452452   -0.9944458  -0.1179232   0.0143427   0.1206589  -0.0000016  -0.0000030   0.9180764   0.4384124
69.0842003   -0.9941731  -0.1193497   0.0148463   0.1217627  -0.0000021  -0.0000152   0.9322427   0.4127304
69.9334689   -0.9941674  -0.1207758   0.0153086   0.1230388  -0.0000106  -0.0000085   0.9455765   0.3863505
70.7931778   -0.9938047  -0.1221469   0.0159534   0.1241460   0.0000082  -0.0000021   0.9591080   0.3591561
71.6634552   -0.9936187  -0.1236114   0.0157800   0.1251671  -0.0000035  -0.0000070   0.9716677   0.3310241
72.5444312   -0.9933534  -0.1252297   0.0156223   0.1266043   0.0000123   0.0000005   0.9836817   0.3023485
73.4362373   -0.9932532  -0.1266816   0.0154241   0.1283639  -0.0000012  -0.0000107   0.9948434   0.2729349
74.3390065   -0.9932791  -0.1281937   0.0156666   0.1305389   0.0000080  -0.0000129   1.0046945   0.2431284
75.2528737   -0.9929982  -0.1297965   0.0162969   0.1327746  -0.0000040  -0.0000102   1.0143737   0.2123149
76.1779753   -0.9927325  -0.1313640   0.0171836   0.1347657  -0.0000051  -0.0000124   1.0232854   0.1808396
77.1144493   -0.9924951  -0.1327861   0.0180011   0.1364049  -0.0000026  -0.0000045   1.0313023   0.1486103
78.0624357   -0.9922430  -0.1344830   0.0190035   0.1379483  -0.0000029  -0.0000080   1.0384154   0.1157628
79.0220759   -0.9921153  -0.1361730   0.0198183   0.1393397   0.0000002  -0.0000036   1.0445212   0.0821697
79.9935132   -0.9917494  -0.1377635   0.0202520   0.1403505   0.0000041  -0.0000131   1.0496229   0.0480313
80.9768926   -0.9916582  -0.1395181   0.0201662   0.1418724  -0.0000064  -0.0000116   1.0537186   0.0132410
81.9723609   -0.9912920  -0.1411128   0.0203862   0.1440777   0.0000053  -0.0000071   1.0567157  -0.0222640
82.9800667   -0.9910869  -0.1428570   0.0209508   0.1461214  -0.0000016  -0.0000180   1.0586042  -0.0582525
84.0001605   -0.9908125  -0.1446357   0.0214755   0.1485558   0.0000053  -0.0000160   1.0593000  -0.0947391
85.0327946   -0.9907016  -0.1464065   0.0227765   0.1506028   0.0000022  -0.0000081   1.0586965  -0.1319093
86.0781231   -0.9904005  -0.1481177   0.0240087   0.1525815   0.0000029  -0.0000101   1.0568105  -0.1694968
87.1363020   -0.9901368  -0.1499051   0.0252962   0.1541531   0.0000048  -0.0000041   1.0536046  -0.2074041
88.2074894   -0.9898663  -0.1516926   0.0263107   0.1550891  -0.0000051  -0.0000155   1.0489040  -0.2458368
89.2918452   -0.9894999  -0.1535348   0.0269864   0.1570291  -0.0000005  -0.0000021   1.0430306  -0.2849234
90.3895312   -0.9892328  -0.1554069   0.0278027   0.1583159  -0.0000024  -0.0000180   1.0355088  -0.3237174
91.5007114   -0.9890195  -0.1571401   0.0282580   0.1596240  -0.0000084  -0.0000163   1.0264270  -0.3630294
92.6255515   -0.9886363  -0.1590553   0.0289476   0.1608947  -0.0000034  -0.0000041   1.0155656  -0.4024850
93.7642195   -0.9882823  -0.1609415   0.0289348   0.1627770  -0.0000052  -0.0000188   1.0031624  -0.4420937
94.9168855   -0.9880467  -0.1629845   0.0295869   0.1650874  -0.0000125  -0.0000104   0.9892346  -0.4818269
96.0837215   -0.9877242  -0.1648580   0.0304863   0.1667975  -0.0000039  -0.0000178   0.9734644  -0.5215695
97.2649017   -0.9873350  -0.1669796   0.0310698   0.1686565  -0.0000004  -0.0000104   0.9559370  -0.5609835
98.4606024   -0.9869797  -0.1689794   0.0315926   0.1701667  -0.0000038  -0.0000064   0.9365502  -0.6005025
99.6710021   -0.9866099  -0.1708681   0.0316684   0.1717763  -0.0000145  -0.0000062   0.9153443  -0.6396754
100.8962816  -0.9861842  -0.1728188   0.0315940   0.1739535  -0.0000102  -0.0000124   0.8922365  -0.6784421
102.1366237  -0.9857189  -0.1749887   0.0315681   0.1771054   0.0000052  -0.0000179   0.8671283  -0.7166929
103.3922136  -0.9853833  -0.1771810   0.0324149   0.1807252  -0.0000096  -0.0000112   0.8401955  -0.7544722
104.6632389  -0.9849309  -0.1792928   0.0345878   0.1838127  -0.0000105  -0.0000055   0.8113415  -0.7912682
105.9498891  -0.9841394  -0.1812773   0.0367687   0.1848595  -0.0000069  -0.0000089   0.7803574  -0.8250929
107.2523564  -0.9843784  -0.1836805   0.0386562   0.1877441  -0.0000016  -0.0000085   0.7458400  -0.8653272
108.5708353  -0.9840480  -0.1858854   0.0400835   0.1892578  -0.0000106  -0.0000041   0.7121824  -0.8993932
109.9055225  -0.9829023  -0.1878516   0.0408114   0.1891296   0.0000076  -0.0000064   0.6774515  -0.9319120
111.2566174  -0.9827693  -0.1902058   0.0414576   0.1917238  -0.0000017  -0.0000120   0.6366632  -0.9623526
112.6243216  -0.9823903  -0.1924478   0.0420036   0.1935945   0.0000017  -0.0000150   0.5956314  -0.9930429
114.0088393  -0.9819483  -0.1947902   0.0429499   0.1955545  -0.0000127  -0.0000032   0.5528684  -1.0220177
115.4103773  -0.9814761  -0.1970480   0.0433970   0.1975148  -0.0000076  -0.0000214   0.5080600  -1.0493846
116.8291446  -0.9808680  -0.1993510   0.0435119   0.1994955   0.0000125  -0.0000049   0.4616156  -1.0748125
118.2653533  -0.9805028  -0.2017173   0.0441305   0.2013587  -0.0000004  -0.0000118   0.4131618  -1.0983546
119.7192175  -0.9799726  -0.2041406   0.0437853   0.2038173  -0.0000147  -0.0000006   0.3630310  -1.1198741
121.1909545  -0.9793444  -0.2065967   0.0439331   0.2063913  -0.0000096  -0.0000137   0.3112472  -1.1389094
122.6807839  -0.9787394  -0.2090286   0.0435155   0.2091947  -0.0000186  -0.0000183   0.2578829  -1.1556283
124.1889281  -0.9780180  -0.2114282   0.0432922   0.2130008   0.0000025  -0.0000021   0.2030196  -1.1697805
125.7156123  -0.9775365  -0.2141039   0.0429360   0.2164096  -0.0000108  -0.0000053   0.1468018  -1.1813263
127.2610644  -0.9768860  -0.2166778   0.0437389   0.2215441  -0.0000061  -0.0000096   0.0899457  -1.1898236
128.8255151  -0.9760790  -0.2192066   0.0442515   0.2261455  -0.0000125  -0.0000101   0.0310541  -1.1954536
130.4091980  -0.9755032  -0.2219066   0.0460774   0.2318512  -0.0000132  -0.0000125  -0.0282397  -1.1979713
132.0123495  -0.9749316  -0.2245150   0.0490073   0.2363714  -0.0000062  -0.0000027  -0.0885005  -1.1971293
133.6352088  -0.9741780  -0.2274881   0.0513593   0.2415211  -0.0000239  -0.0000059  -0.1491135  -1.1931309
135.2780184  -0.9736371  -0.2301987   0.0559332   0.2458835  -0.0000031  -0.0000057  -0.2103454  -1.1854267
136.9410235  -0.9729418  -0.2328657   0.0595695   0.2494774  -0.0000093  -0.0000137  -0.2717939  -1.1740384
138.6244722  -0.9722312  -0.2356477   0.0640283   0.2521233  -0.0000096  -0.0000023  -0.3330388  -1.1591738
140.3286160  -0.9716529  -0.2384727   0.0675260   0.2538206  -0.0000127  -0.0000127  -0.3943408  -1.1406394
142.0537093  -0.9709661  -0.2411730   0.0707242   0.2560810  -0.0000183  -0.0000196  -0.4577303  -1.1193078
143.8000095  -0.9698534  -0.2442381   0.0735227   0.2575111  -0.0000058   0.0000000  -0.5114804  -1.0920313
145.5677774  -0.9695109  -0.2469977   0.0766507   0.2603026   0.0000058  -0.0000122  -0.5686752  -1.0596310
147.3572769  -0.9687873  -0.2499447   0.0793113   0.2620331  -0.0000021  -0.0000169  -0.6296031  -1.0274029
149.1687752  -0.9678390  -0.2528669   0.0816726   0.2639283   0.0000015  -0.0000091  -0.6842854  -0.9897038
151.0025426  -0.9670362  -0.2559650   0.0842343   0.2658276  -0.0000053  -0.0000193  -0.7376444  -0.9478988
152.8588530  -0.9662535  -0.2589466   0.0861891   0.2680600  -0.0000013  -0.0000092  -0.7884430  -0.9023780
154.7379834  -0.9652848  -0.2619872   0.0885746   0.2704089  -0.0000086  -0.0000110  -0.8368112  -0.8532143
156.6402144  -0.9645543  -0.2651587   0.0908123   0.2724892  -0.0000084  -0.0000061  -0.8822036  -0.8005717
158.5658301  -0.9637109  -0.2682022   0.0930917   0.2751926  -0.0000037   0.0000147  -0.9241073  -0.7445390
160.5151177  -0.9627637  -0.2710817   0.0956105   0.2771884   0.0000014  -0.0000065  -0.9630209  -0.6849737
162.4883685  -0.9614538  -0.2753543   0.0976379   0.2806939   0.0000013  -0.0000028  -0.9967976  -0.6237559
164.4858769  -0.9607392  -0.2773258   0.1000060   0.2819300   0.0000046  -0.0000033  -1.0278789  -0.5582318
166.5079411  -0.9596728  -0.2809345   0.1021724   0.2840963  -0.0000070  -0.0000102  -1.0539276  -0.4910024
168.5548630  -0.9586413  -0.2843041   0.1041013   0.2865815  -0.0000107   0.0000016  -1.0755896  -0.4214285
170.6269483  -0.9573588  -0.2874002   0.1057503   0.2888731  -0.0000006  -0.0000172  -1.0920161  -0.3500769
172.7245062  -0.9564443  -0.2908980   0.1078043   0.2921521   0.0000046  -0.0000030  -1.1035268  -0.2774294
174.8478498  -0.9552104  -0.2943206   0.1098302   0.2952085   0.0000061  -0.0000036  -1.1094082  -0.2032648
176.9972963  -0.9541107  -0.2976223   0.1116081   0.2984078   0.0000235  -0.0000062  -1.1102204  -0.1277967
179.1731664  -0.9523177  -0.3033988   0.1140289   0.3043360  -0.0000187  -0.0000088  -1.1019377  -0.0580540
181.3757850  -0.9524274  -0.3049703   0.1164622   0.3056920  -0.0000020  -0.0000058  -1.0923748   0.0172629
183.6054809  -0.9504200  -0.3084854   0.1183403   0.3099806  -0.0000115  -0.0000014  -1.0773858   0.0954521
185.8625870  -0.9493059  -0.3120419   0.1212559   0.3139024  -0.0000271  -0.0000083  -1.0548059   0.1676861
188.1474402  -0.9477625  -0.3158341   0.1248313   0.3193065  -0.0000045  -0.0000041  -1.0266452   0.2388777
190.4603817  -0.9465764  -0.3196507   0.1289349   0.3240901  -0.0000241  -0.0000166  -0.9928692   0.3077410
192.8017567  -0.9455326  -0.3233563   0.1341139   0.3286745   0.0000113  -0.0000080  -0.9528826   0.3737659
195.1719148  -0.9440453  -0.3272773   0.1393290   0.3321810  -0.0000411   0.0000164  -0.9079903   0.4365081
197.5712099  -0.9433911  -0.3309261   0.1445292   0.3344582   0.0000064  -0.0000064  -0.8584258   0.4960860
200.0000000  -0.9417734  -0.3350553   0.1492893   0.3374508  -0.0000129  -0.0000066  -0.8026131   0.5505821
