! ListType=Log
# MHZ S RI R 50
0.0010000    -0.9946687  -0.0004914   0.0000293   0.0000098  -0.0000115  -0.0000299  -0.9088780   0.2599563
0.0010123    -0.9950685  -0.0010572   0.0000457  -0.0000610   0.0000121  -0.0000287  -0.9094622   0.2603417
0.0010247    -0.9939967  -0.0002774   0.0000171   0.0000741  -0.0000157   0.0000266  -0.9095897   0.2591301
0.0010373    -0.9943526  -0.0005460   0.0000107  -0.0000175  -0.0000085  -0.0000056  -0.9097936   0.2598523
0.0010501    -0.9948319   0.0000013  -0.0000779  -0.0000200  -0.0000136  -0.0000118  -0.9091506   0.2596915
0.0010630    -0.9945428  -0.0007995  -0.0000193   0.0000010   0.0000229   0.0000125  -0.9105505   0.2595735
0.0010761    -0.9941389  -0.0005363   0.0000619   0.0000404  -0.0000149   0.0000095  -0.9107037   0.2587981
0.0010893    -0.9947456  -0.0010086   0.0000137  -0.0001146   0.0000198  -0.0000037  -0.9110865   0.2599258
0.0011027    -0.9944581  -0.0006086   0.0000336  -0.0000169   0.0000030  -0.0000187  -0.9110775   0.2587990
0.0011162    -0.9939512  -0.0009242   0.0000615   0.0000315  -0.0000056   0.0000030  -0.9120701   0.2584382
0.0011300    -0.9942368  -0.0002509  -0.0000314   0.0000208  -0.0000259  -0.0000173  -0.9112969   0.2587179
0.0011439    -0.9948615  -0.0009295   0.0000464  -0.0000230   0.0000190  -0.0000020  -0.9120502   0.2590832
0.0011579    -0.9943244   0.0000207   0.0000325   0.0000420  -0.0000080   0.0000011  -0.9120575   0.2578675
0.0011721    -0.9945694  -0.0004798   0.0000317  -0.0000085   0.0000114  -0.0000118  -0.9124015   0.2585311
0.0011866    -0.9944938   0.0001322  -0.0000817  -0.0000113  -0.0000454  -0.0000152  -0.9122040   0.2582435
0.0012011    -0.9944071  -0.0001665  -0.0000195  -0.0000069  -0.0000151   0.0000003  -0.9128818   0.2582597
0.0012159    -0.9947090  -0.0007743   0.0000444  -0.0000068   0.0000208   0.0000031  -0.9136437   0.2584854
0.0012309    -0.9944428  -0.0004252   0.0000460   0.0000189   0.0000094   0.0000109  -0.9137401   0.2577885
0.0012460    -0.9947979   0.0000755  -0.0000380  -0.0000290  -0.0000062  -0.0000060  -0.9134154   0.2581256
0.0012613    -0.9944725  -0.0014362   0.0000585   0.0000123   0.0000269  -0.0000021  -0.9147353   0.2579363
0.0012768    -0.9946069  -0.0002170  -0.0000114   0.0000301  -0.0000207   0.0000053  -0.9141770   0.2576231
0.0012925    -0.9945822  -0.0006992   0.0000307  -0.0000103   0.0000140   0.0000076  -0.9151106   0.2580592
0.0013084    -0.9944597  -0.0004184  -0.0000217   0.0000069  -0.0000049   0.0000097  -0.9149123   0.2575421
0.0013245    -0.9946306  -0.0006713   0.0000350  -0.0000368   0.0000181  -0.0000016  -0.9155488   0.2580240
0.0013408    -0.9940125  -0.0004170   0.0000215  -0.0000144   0.0000024  -0.0000096  -0.9153819   0.2572752
0.0013572    -0.9946257  -0.0008403   0.0000374  -0.0000531   0.0000187   0.0000077  -0.9163567   0.2576933
0.0013739    -0.9945763  -0.0002019   0.0000046  -0.0000013   0.0000133   0.0000164  -0.9162218   0.2575399
0.0013908    -0.9942499  -0.0005422   0.0000706  -0.0000324   0.0000136   0.0000045  -0.9169530   0.2576089
0.0014079    -0.9944965  -0.0004561   0.0000247   0.0000337  -0.0000214  -0.0000005  -0.9167295   0.2573538
0.0014252    -0.9945907  -0.0009160   0.0000585  -0.0000015   0.0000186   0.0000247  -0.9176592   0.2572531
0.0014427    -0.9944327  -0.0004140  -0.0000087  -0.0000014  -0.0000097  -0.0000156  -0.9173659   0.2571991
0.0014605    -0.9948706  -0.0006234   0.0000557  -0.0000521   0.0000009  -0.0000180  -0.9180822   0.2573986
0.0014784    -0.9945007  -0.0002844   0.0000003   0.0000244  -0.0000049   0.0000082  -0.9178605   0.2569127
0.0014966    -0.9947391  -0.0006677   0.0000018   0.0000031   0.0000002  -0.0000287  -0.9186111   0.2574162
0.0015150    -0.9943786  -0.0007691   0.0000326   0.0000067   0.0000270   0.0000241  -0.9189818   0.2573396
0.0015336    -0.9946902  -0.0004038   0.0000149   0.0000000  -0.0000074  -0.0000028  -0.9190102   0.2570696
0.0015525    -0.9947541  -0.0002457  -0.0000240   0.0000099  -0.0000076  -0.0000167  -0.9190290   0.2573496
0.0015716    -0.9945928  -0.0005520   0.0000075   0.0000083   0.0000126  -0.0000211  -0.9196280   0.2571869
0.0015909    -0.9948422  -0.0005684   0.0000131  -0.0000434   0.0000100  -0.0000345  -0.9199847   0.2575694
0.0016104    -0.9942068  -0.0004624   0.0000145   0.0000259  -0.0000243   0.0000094  -0.9203199   0.2569523
0.0016302    -0.9946457  -0.0004937  -0.0000099  -0.0000076   0.0000135  -0.0000063  -0.9203642   0.2573044
0.0016503    -0.9944400  -0.0007218   0.0000351  -0.0000230   0.0000088  -0.0000100  -0.9213751   0.2574882
0.0016706    -0.9945211  -0.0008299   0.0000052   0.0000285   0.0000033  -0.0000045  -0.9211996   0.2574022
0.0016911    -0.9942757  -0.0005182   0.0000144   0.0000403  -0.0000210  -0.0000159  -0.9218180   0.2570958
0.0017119    -0.9951410  -0.0004442  -0.0000050  -0.0000137  -0.0000161  -0.0000298  -0.9218589   0.2574357
0.0017329    -0.9947634  -0.0005872   0.0000348  -0.0000063  -0.0000031   0.0000134  -0.9220861   0.2573962
0.0017542    -0.9943538  -0.0006120   0.0000193   0.0000383   0.0000071   0.0000175  -0.9225671   0.2571541
0.0017758    -0.9946634  -0.0005694  -0.0000236  -0.0000238  -0.0000018  -0.0000029  -0.9227763   0.2574617
0.0017976    -0.9943997  -0.0006836   0.0000391  -0.0000008   0.0000059  -0.0000063  -0.9233452   0.2574793
0.0018197    -0.9943913  -0.0003192  -0.0000157   0.0000394  -0.0000150  -0.0000040  -0.9231438   0.2573279
0.0018421    -0.9945243  -0.0006974  -0.0000176   0.0000036   0.0000151  -0.0000070  -0.9238326   0.2577191
0.0018648    -0.9947418  -0.0004076  -0.0000114  -0.0000007  -0.0000028   0.0000040  -0.9239003   0.2574820
0.0018877    -0.9948119  -0.0004327  -0.0000173  -0.0000125  -0.0000105  -0.0000158  -0.9239804   0.2577066
0.0019109    -0.9943589  -0.0006167   0.0000095   0.0000036  -0.0000036   0.0000066  -0.9248491   0.2579357
0.0019344    -0.9948593  -0.0005052   0.0000092   0.0000154  -0.0000050  -0.0000064  -0.9247153   0.2577397
0.0019582    -0.9949119  -0.0005090  -0.0000093   0.0000264   0.0000018  -0.0000051  -0.9248236   0.2579512
0.0019822    -0.9945361  -0.0007913   0.0000209  -0.0000404   0.0000061   0.0000007  -0.9256894   0.2580907
0.0020066    -0.9946193  -0.0005199  -0.0000087   0.0000012   0.0000030   0.0000010  -0.9257598   0.2582423
0.0020313    -0.9945211  -0.0004762   0.0000475  -0.0000065   0.0000072   0.0000076  -0.9261621   0.2581689
0.0020562    -0.9943644  -0.0006808   0.0000280   0.0000025  -0.0000161  -0.0000018  -0.9265384   0.2580705
0.0020815    -0.9950790  -0.0007477   0.0000012   0.0000020   0.0000003  -0.0000015  -0.9265952   0.2584793
0.0021071    -0.9946718  -0.0005354   0.0000138   0.0000091  -0.0000104  -0.0000033  -0.9270215   0.2585237
0.0021330    -0.9945920  -0.0006270  -0.0000022  -0.0000166  -0.0000010  -0.0000229  -0.9272019   0.2587586
0.0021592    -0.9950177  -0.0008083   0.0000270   0.0000074  -0.0000025  -0.0000190  -0.9277383   0.2588852
0.0021858    -0.9944962  -0.0005308   0.0000213   0.0000056  -0.0000026  -0.0000044  -0.9279115   0.2586740
0.0022126    -0.9949780  -0.0004860  -0.0000116  -0.0000016  -0.0000054  -0.0000144  -0.9280733   0.2590422
0.0022398    -0.9944857  -0.0005959  -0.0000020   0.0000005  -0.0000122   0.0000062  -0.9283379   0.2590142
0.0022674    -0.9949027  -0.0005802   0.0000005  -0.0000040   0.0000047  -0.0000181  -0.9287816   0.2593020
0.0022953    -0.9950425  -0.0008073   0.0000242  -0.0000165   0.0000060  -0.0000025  -0.9290308   0.2594769
0.0023235    -0.9947104  -0.0006916   0.0000198   0.0000073  -0.0000061  -0.0000002  -0.9294341   0.2594680
0.0023520    -0.9947586  -0.0001929   0.0000194  -0.0000068  -0.0000078  -0.0000054  -0.9292532   0.2594361
0.0023809    -0.9949543  -0.0004959   0.0000374   0.0000233  -0.0000079   0.0000077  -0.9299422   0.2596373
0.0024102    -0.9945232  -0.0004069  -0.0000173  -0.0000042   0.0000131   0.0000064  -0.9298942   0.2598229
0.0024398    -0.9947193  -0.0004711  -0.0000037   0.0000041   0.0000033   0.0000032  -0.9303333   0.2599209
0.0024698    -0.9948180  -0.0005879   0.0000100  -0.0000156   0.0000079  -0.0000170  -0.9305707   0.2602177
0.0025002    -0.9949597  -0.0006113  -0.0000137  -0.0000251  -0.0000013  -0.0000042  -0.9307198   0.2603729
0.0025309    -0.9949517  -0.0003517   0.0000105  -0.0000019  -0.0000087  -0.0000112  -0.9309336   0.2606611
0.0025621    -0.9947628  -0.0007074   0.0000167  -0.0000292   0.0000070  -0.0000087  -0.9313972   0.2606534
0.0025935    -0.9947005  -0.0008359   0.0000273  -0.0000177  -0.0000057  -0.0000035  -0.9316742   0.2605261
0.0026254    -0.9948600  -0.0004949   0.0000133  -0.0000030  -0.0000042  -0.0000026  -0.9317934   0.2605545
0.0026577    -0.9947661  -0.0004326  -0.0000047  -0.0000148  -0.0000107  -0.0000105  -0.9319015   0.2609742
0.0026904    -0.9947380  -0.0006375   0.0000151  -0.0000393  -0.0000128  -0.0000062  -0.9320964   0.2613407
0.0027235    -0.9948295  -0.0007667   0.0000251  -0.0000049  -0.0000013  -0.0000137  -0.9327563   0.2611832
0.0027569    -0.9947906  -0.0003451   0.0000323   0.0000263  -0.0000088  -0.0000033  -0.9327095   0.2612955
0.0027908    -0.9949457  -0.0004370   0.0000069   0.0000014   0.0000059  -0.0000083  -0.9327881   0.2617246
0.0028251    -0.9948148  -0.0007930   0.0000168  -0.0000194   0.0000069   0.0000018  -0.9332618   0.2618815
0.0028599    -0.9947074  -0.0007028   0.0000194   0.0000165  -0.0000022   0.0000010  -0.9334185   0.2618729
0.0028950    -0.9947452  -0.0004322   0.0000174   0.0000158   0.0000031   0.0000025  -0.9336124   0.2618484
0.0029306    -0.9946628  -0.0006018   0.0000137   0.0000162  -0.0000042  -0.0000190  -0.9337557   0.2620064
0.0029666    -0.9948365  -0.0007541   0.0000173   0.0000224   0.0000131  -0.0000065  -0.9339990   0.2622600
0.0030031    -0.9947847  -0.0005438  -0.0000040  -0.0000116  -0.0000049   0.0000133  -0.9341076   0.2625548
0.0030400    -0.9948549  -0.0004543   0.0000066   0.0000098  -0.0000027  -0.0000165  -0.9343379   0.2628196
0.0030774    -0.9948844  -0.0003963   0.0000038   0.0000051  -0.0000097  -0.0000045  -0.9345217   0.2629743
0.0031152    -0.9947487  -0.0006980   0.0000214  -0.0000053   0.0000102   0.0000018  -0.9348862   0.2629809
0.0031535    -0.9949201  -0.0003076   0.0000029  -0.0000057  -0.0000035  -0.0000120  -0.9349260   0.2633534
0.0031923    -0.9948718  -0.0008355   0.0000149  -0.0000002   0.0000126  -0.0000124  -0.9353236   0.2634966
0.0032315    -0.9947340  -0.0010034   0.0000235  -0.0000082  -0.0000004  -0.0000064  -0.9355121   0.2636469
0.0032713    -0.9947279  -0.0007486   0.0000392   0.0000101   0.0000023  -0.0000089  -0.9356770   0.2636865
0.0033115    -0.9948690  -0.0005663  -0.0000013  -0.0000191   0.0000084  -0.0000006  -0.9357024   0.2639999
0.0033522    -0.9950100  -0.0009005   0.0000212  -0.0000114  -0.0000109  -0.0000057  -0.9360229   0.2644064
0.0033934    -0.9948234  -0.0005016   0.0000236   0.0000092   0.0000014   0.0000021  -0.9362628   0.2642656
0.0034351    -0.9948958  -0.0004855   0.0000254   0.0000061  -0.0000013   0.0000084  -0.9364516   0.2645556
0.0034773    -0.9950491  -0.0005234  -0.0000066  -0.0000165   0.0000084  -0.0000086  -0.9364323   0.2647053
0.0035201    -0.9949072  -0.0007517   0.0000196  -0.0000143   0.0000056  -0.0000029  -0.9367876   0.2648143
0.0035634    -0.9947760  -0.0003655   0.0000213   0.0000349   0.0000070  -0.0000048  -0.9368663   0.2649771
0.0036072    -0.9951121  -0.0004545  -0.0000161  -0.0000002  -0.0000008  -0.0000046  -0.9369396   0.2652301
0.0036515    -0.9950197  -0.0005498   0.0000280   0.0000063  -0.0000051   0.0000044  -0.9372120   0.2655556
0.0036964    -0.9951369  -0.0005832  -0.0000042  -0.0000141  -0.0000114   0.0000007  -0.9371598   0.2658447
0.0037418    -0.9950530  -0.0006258   0.0000197  -0.0000053   0.0000014  -0.0000077  -0.9373776   0.2659021
0.0037878    -0.9950435  -0.0003087  -0.0000265   0.0000031   0.0000009  -0.0000191  -0.9374859   0.2660117
0.0038344    -0.9950694  -0.0004459  -0.0000036  -0.0000116   0.0000059  -0.0000063  -0.9376847   0.2663411
0.0038815    -0.9949990  -0.0005269   0.0000006  -0.0000094  -0.0000009   0.0000041  -0.9378065   0.2664228
0.0039293    -0.9950363  -0.0005264  -0.0000003  -0.0000105   0.0000049  -0.0000071  -0.9379777   0.2663981
0.0039776    -0.9949684  -0.0004064  -0.0000089   0.0000160  -0.0000018  -0.0000120  -0.9381920   0.2668196
0.0040265    -0.9949228  -0.0006195  -0.0000135   0.0000263   0.0000000   0.0000014  -0.9383100   0.2667670
0.0040759    -0.9949566  -0.0004232   0.0000117   0.0000118  -0.0000007   0.0000008  -0.9384242   0.2671272
0.0041261    -0.9949149  -0.0005956   0.0000007   0.0000100   0.0000015  -0.0000048  -0.9385339   0.2672093
0.0041768    -0.9949671  -0.0003029   0.0000173  -0.0000117  -0.0000009   0.0000009  -0.9387328   0.2675105
0.0042281    -0.9950960  -0.0004773  -0.0000088   0.0000016   0.0000064  -0.0000054  -0.9388509   0.2677209
0.0042801    -0.9950264  -0.0005304  -0.0000073  -0.0000191   0.0000041  -0.0000002  -0.9389324   0.2679158
0.0043327    -0.9952046  -0.0005509   0.0000099  -0.0000066  -0.0000035  -0.0000042  -0.9390299   0.2683019
0.0043860    -0.9950181  -0.0006134   0.0000222   0.0000001  -0.0000025   0.0000091  -0.9392749   0.2683077
0.0044399    -0.9948870  -0.0003141   0.0000093  -0.0000010   0.0000007  -0.0000043  -0.9393379   0.2684832
0.0044945    -0.9950066  -0.0005884   0.0000144  -0.0000074  -0.0000065  -0.0000034  -0.9394909   0.2686169
0.0045497    -0.9950560  -0.0005603   0.0000208   0.0000062  -0.0000109  -0.0000034  -0.9394766   0.2688047
0.0046057    -0.9949241  -0.0003627   0.0000037   0.0000093  -0.0000053   0.0000049  -0.9395575   0.2689400
0.0046623    -0.9951694  -0.0005424   0.0000051  -0.0000104   0.0000035  -0.0000071  -0.9395089   0.2692334
0.0047196    -0.9948761  -0.0002934   0.0000038   0.0000032  -0.0000083  -0.0000009  -0.9398293   0.2694102
0.0047776    -0.9951458  -0.0004392   0.0000017   0.0000094   0.0000065  -0.0000104  -0.9398891   0.2695281
0.0048363    -0.9951669  -0.0004486   0.0000065  -0.0000119   0.0000003  -0.0000094  -0.9399332   0.2697804
0.0048958    -0.9953890  -0.0004458   0.0000072   0.0000059  -0.0000047  -0.0000137  -0.9400721   0.2700554
0.0049560    -0.9950595  -0.0004721  -0.0000109   0.0000019  -0.0000099  -0.0000067  -0.9402632   0.2701632
0.0050169    -0.9950754  -0.0002294   0.0000004   0.0000143  -0.0000178   0.0000051  -0.9403351   0.2701639
0.0050786    -0.9952333  -0.0004994   0.0000060   0.0000105   0.0000062   0.0000011  -0.9403187   0.2703988
0.0051410    -0.9948575  -0.0004933  -0.0000070   0.0000244  -0.0000039  -0.0000105  -0.9404152   0.2706001
0.0052042    -0.9950914  -0.0005560  -0.0000027   0.0000032   0.0000035  -0.0000032  -0.9405021   0.2708001
0.0052682    -0.9951684  -0.0005997   0.0000046  -0.0000196   0.0000060  -0.0000054  -0.9406327   0.2710467
0.0053330    -0.9951900  -0.0004626   0.0000020  -0.0000010  -0.0000089  -0.0000088  -0.9406896   0.2711812
0.0053985    -0.9953501  -0.0004320   0.0000111  -0.0000085  -0.0000131  -0.0000073  -0.9407775   0.2713440
0.0054649    -0.9952792  -0.0004017   0.0000052  -0.0000067   0.0000164  -0.0000018  -0.9409076   0.2714998
0.0055321    -0.9951267  -0.0004322   0.0000040  -0.0000063  -0.0000015  -0.0000112  -0.9409565   0.2716945
0.0056001    -0.9952062  -0.0003186   0.0000034   0.0000001   0.0000146   0.0000031  -0.9411138   0.2719386
0.0056689    -0.9951651  -0.0004131   0.0000194   0.0000046  -0.0000082  -0.0000200  -0.9411273   0.2720064
0.0057386    -0.9953568  -0.0005207  -0.0000021   0.0000027   0.0000036  -0.0000155  -0.9411893   0.2721200
0.0058091    -0.9949836  -0.0004448  -0.0000017  -0.0000193   0.0000022   0.0000047  -0.9411386   0.2723728
0.0058806    -0.9951476  -0.0004186  -0.0000092   0.0000173  -0.0000013  -0.0000061  -0.9411190   0.2724188
0.0059529    -0.9951137  -0.0003880   0.0000142   0.0000141  -0.0000054  -0.0000104  -0.9412062   0.2727041
0.0060260    -0.9952305  -0.0004723  -0.0000050  -0.0000046  -0.0000053  -0.0000183  -0.9412507   0.2727098
0.0061001    -0.9952927  -0.0004771   0.0000107  -0.0000072  -0.0000142  -0.0000055  -0.9413455   0.2729546
0.0061751    -0.9951855  -0.0002412  -0.0000064  -0.0000101   0.0000003   0.0000049  -0.9413314   0.2731470
0.0062510    -0.9951574  -0.0003778  -0.0000001   0.0000011  -0.0000030  -0.0000002  -0.9415101   0.2732916
0.0063279    -0.9950329  -0.0003849  -0.0000016  -0.0000099  -0.0000043  -0.0000012  -0.9416430   0.2734560
0.0064056    -0.9952247  -0.0003469  -0.0000010   0.0000027   0.0000044  -0.0000061  -0.9416371   0.2736081
0.0064844    -0.9951410  -0.0004330   0.0000007  -0.0000115   0.0000000  -0.0000076  -0.9416977   0.2736701
0.0065641    -0.9951402  -0.0003923  -0.0000003   0.0000131  -0.0000063  -0.0000193  -0.9415242   0.2737903
0.0066448    -0.9951565  -0.0001774  -0.0000041  -0.0000138   0.0000005  -0.0000093  -0.9416728   0.2739591
0.0067265    -0.9952054  -0.0003413   0.0000028  -0.0000054  -0.0000082   0.0000041  -0.9417777   0.2741424
0.0068092    -0.9951237  -0.0003218   0.0000099   0.0000014   0.0000036   0.0000010  -0.9418365   0.2743665
0.0068929    -0.9952237  -0.0003510   0.0000085   0.0000256   0.0000128  -0.0000086  -0.9418909   0.2744498
0.0069776    -0.9950969  -0.0002298  -0.0000213   0.0000235   0.0000024  -0.0000116  -0.9420478   0.2746782
0.0070634    -0.9952754  -0.0003294   0.0000077   0.0000159   0.0000023  -0.0000052  -0.9419420   0.2748400
0.0071502    -0.9951960  -0.0002996  -0.0000108   0.0000255   0.0000031  -0.0000154  -0.9419125   0.2748555
0.0072381    -0.9950991  -0.0001759  -0.0000076   0.0000035  -0.0000033  -0.0000122  -0.9418756   0.2750367
0.0073271    -0.9951982  -0.0002298   0.0000006  -0.0000025  -0.0000089  -0.0000030  -0.9420109   0.2752536
0.0074172    -0.9950502  -0.0002265  -0.0000171  -0.0000004   0.0000121  -0.0000083  -0.9421284   0.2753567
0.0075084    -0.9952368  -0.0003434  -0.0000012  -0.0000074   0.0000064  -0.0000108  -0.9421577   0.2755385
0.0076007    -0.9951454  -0.0003954   0.0000043   0.0000001   0.0000004  -0.0000116  -0.9421461   0.2756577
0.0076941    -0.9952808  -0.0003275  -0.0000095   0.0000095  -0.0000021   0.0000084  -0.9421786   0.2759126
0.0077887    -0.9952386  -0.0002965  -0.0000175  -0.0000196   0.0000107  -0.0000020  -0.9421820   0.2759312
0.0078844    -0.9953179  -0.0001886   0.0000074   0.0000237  -0.0000035  -0.0000018  -0.9422685   0.2760016
0.0079814    -0.9952136  -0.0003195   0.0000105   0.0000038   0.0000006  -0.0000059  -0.9422404   0.2762762
0.0080795    -0.9951974  -0.0003774  -0.0000059   0.0000022   0.0000058  -0.0000034  -0.9423989   0.2763341
0.0081788    -0.9951647  -0.0004679  -0.0000140  -0.0000047  -0.0000045   0.0000043  -0.9422137   0.2765218
0.0082793    -0.9953190  -0.0001215  -0.0000108   0.0000063  -0.0000005  -0.0000093  -0.9423942   0.2765888
0.0083811    -0.9951272  -0.0003204  -0.0000074   0.0000239  -0.0000037   0.0000070  -0.9423573   0.2767983
0.0084842    -0.9952205  -0.0002409  -0.0000132   0.0000145  -0.0000016   0.0000005  -0.9423313   0.2768930
0.0085885    -0.9953202  -0.0003602   0.0000083  -0.0000096   0.0000015  -0.0000070  -0.9424398   0.2769427
0.0086940    -0.9950636  -0.0003479   0.0000284  -0.0000072   0.0000127  -0.0000141  -0.9423699   0.2771411
0.0088009    -0.9952593  -0.0003759   0.0000141   0.0000151   0.0000002   0.0000062  -0.9423860   0.2772914
0.0089091    -0.9951810  -0.0004322   0.0000291  -0.0000130   0.0000024  -0.0000112  -0.9423989   0.2774866
0.0090186    -0.9952789  -0.0001605   0.0000157  -0.0000009  -0.0000090  -0.0000046  -0.9424998   0.2774735
0.0091295    -0.9950586  -0.0002604  -0.0000008   0.0000156   0.0000055  -0.0000005  -0.9425199   0.2777457
0.0092417    -0.9951597  -0.0002796   0.0000056   0.0000083   0.0000093  -0.0000054  -0.9424069   0.2777833
0.0093553    -0.9951968  -0.0002512   0.0000019  -0.0000039   0.0000041  -0.0000095  -0.9424297   0.2779104
0.0094703    -0.9953122  -0.0004128  -0.0000025   0.0000043   0.0000006   0.0000108  -0.9425230   0.2779699
0.0095868    -0.9953104  -0.0002698  -0.0000017   0.0000058  -0.0000033  -0.0000074  -0.9424579   0.2781670
0.0097046    -0.9953371  -0.0002339   0.0000012  -0.0000198  -0.0000017   0.0000127  -0.9425030   0.2781965
0.0098239    -0.9951646  -0.0003036   0.0000155  -0.0000005  -0.0000008   0.0000001  -0.9425577   0.2783250
0.0099447    -0.9953247  -0.0001320   0.0000173   0.0000139  -0.0000004  -0.0000051  -0.9425478   0.2783615
0.0100669    -0.9953998  -0.0000746  -0.0000144   0.0000222  -0.0000093  -0.0000186  -0.9425242   0.2785836
0.0101907    -0.9952822  -0.0002883   0.0000019  -0.0000150  -0.0000033  -0.0000092  -0.9425358   0.2786114
0.0103160    -0.9953740  -0.0001626   0.0000000   0.0000095   0.0000116  -0.0000083  -0.9425019   0.2787091
0.0104428    -0.9950556  -0.0002392   0.0000003  -0.0000077  -0.0000035   0.0000003  -0.9425838   0.2789201
0.0105712    -0.9952073  -0.0002143  -0.0000100  -0.0000125   0.0000088   0.0000015  -0.9425830   0.2789347
0.0107011    -0.9951982  -0.0002004  -0.0000094   0.0000225   0.0000044  -0.0000051  -0.9426090   0.2791118
0.0108327    -0.9952442  -0.0001679  -0.0000020   0.0000016   0.0000012  -0.0000062  -0.9425325   0.2791449
0.0109658    -0.9953251  -0.0001775   0.0000058   0.0000019  -0.0000070  -0.0000045  -0.9426464   0.2792784
0.0111006    -0.9950743  -0.0002750   0.0000091   0.0000069  -0.0000041  -0.0000068  -0.9426136   0.2795289
0.0112371    -0.9952167  -0.0003276  -0.0000180   0.0000138  -0.0000054   0.0000003  -0.9426557   0.2794251
0.0113752    -0.9952209  -0.0002913   0.0000040  -0.0000147  -0.0000107   0.0000007  -0.9425597   0.2795968
0.0115151    -0.9952773  -0.0001131   0.0000047  -0.0000128   0.0000003  -0.0000004  -0.9427017   0.2798539
0.0116566    -0.9954119  -0.0002213   0.0000061   0.0000085  -0.0000025  -0.0000093  -0.9425976   0.2797545
0.0117999    -0.9953154  -0.0001106  -0.0000047   0.0000131  -0.0000078  -0.0000039  -0.9426702   0.2800117
0.0119450    -0.9955901  -0.0019042   0.0000164   0.0000065  -0.0000012   0.0000006  -0.9434624   0.2782170
0.0120918    -0.9952918  -0.0001505   0.0000041  -0.0000013   0.0000006  -0.0000104  -0.9426943   0.2801527
0.0122405    -0.9953735  -0.0004414   0.0000058  -0.0000113  -0.0000107   0.0000039  -0.9427471   0.2801706
0.0123910    -0.9952348  -0.0000135   0.0000095   0.0000084  -0.0000042  -0.0000100  -0.9426088   0.2804391
0.0125433    -0.9951823  -0.0002697  -0.0000121   0.0000186  -0.0000016   0.0000043  -0.9427097   0.2803775
0.0126975    -0.9952293  -0.0002100  -0.0000110   0.0000044  -0.0000036  -0.0000023  -0.9425424   0.2804387
0.0128536    -0.9953643  -0.0000190   0.0000081  -0.0000074   0.0000036  -0.0000033  -0.9426407   0.2806492
0.0130116    -0.9951929  -0.0002622  -0.0000087   0.0000415   0.0000031   0.0000037  -0.9426215   0.2806846
0.0131716    -0.9953327  -0.0001776   0.0000045  -0.0000093  -0.0000045   0.0000010  -0.9426642   0.2806807
0.0133335    -0.9951880  -0.0001718  -0.0000023   0.0000102  -0.0000017  -0.0000095  -0.9425145   0.2809397
0.0134974    -0.9952554  -0.0001538   0.0000066   0.0000113   0.0000014  -0.0000020  -0.9425677   0.2809175
0.0136633    -0.9952952  -0.0000991   0.0000108   0.0000003   0.0000013  -0.0000062  -0.9426221   0.2811150
0.0138313    -0.9952327  -0.0000412   0.0000048   0.0000028  -0.0000014  -0.0000050  -0.9425397   0.2811490
0.0140013    -0.9951961  -0.0001657   0.0000025   0.0000034  -0.0000043  -0.0000027  -0.9426175   0.2812854
0.0141734    -0.9952954  -0.0001394   0.0000074   0.0000006  -0.0000133  -0.0000052  -0.9426482   0.2814176
0.0143477    -0.9952182  -0.0001278   0.0000206   0.0000027   0.0000019  -0.0000050  -0.9426134   0.2813920
0.0145240    -0.9953302  -0.0000935   0.0000082   0.0000134   0.0000018   0.0000028  -0.9426510   0.2814696
0.0147026    -0.9952128   0.0000006  -0.0000054  -0.0000004   0.0000098  -0.0000082  -0.9425887   0.2815431
0.0148833    -0.9952165  -0.0001054  -0.0000045   0.0000074  -0.0000038  -0.0000085  -0.9425701   0.2817147
0.0150663    -0.9953273  -0.0001878   0.0000013   0.0000067   0.0000025  -0.0000094  -0.9425500   0.2817628
0.0152515    -0.9952820  -0.0001163   0.0000069   0.0000191  -0.0000064  -0.0000097  -0.9425577   0.2819218
0.0154390    -0.9953361  -0.0000870   0.0000007   0.0000138  -0.0000151   0.0000062  -0.9425825   0.2819117
0.0156288    -0.9952323  -0.0001142   0.0000098   0.0000053  -0.0000092  -0.0000074  -0.9426634   0.2819290
0.0158209    -0.9951374  -0.0000582   0.0000025   0.0000212  -0.0000031  -0.0000088  -0.9425187   0.2819562
0.0160154    -0.9952893  -0.0001441   0.0000034   0.0000086   0.0000012  -0.0000067  -0.9425096   0.2821765
0.0162123    -0.9952126  -0.0001932   0.0000005  -0.0000053  -0.0000041  -0.0000005  -0.9424733   0.2823458
0.0164116    -0.9952879  -0.0001502  -0.0000016  -0.0000080   0.0000020  -0.0000133  -0.9425390   0.2823374
0.0166134    -0.9952616  -0.0000933  -0.0000098   0.0000049   0.0000025   0.0000024  -0.9424725   0.2825105
0.0168176    -0.9952800  -0.0001110  -0.0000076  -0.0000001   0.0000023  -0.0000011  -0.9425681   0.2824212
0.0170243    -0.9952885  -0.0002084   0.0000001  -0.0000045  -0.0000044  -0.0000021  -0.9425075   0.2825839
0.0172336    -0.9952208  -0.0000988  -0.0000084   0.0000111   0.0000039  -0.0000065  -0.9424701   0.2825693
0.0174455    -0.9952111  -0.0002255   0.0000145   0.0000081  -0.0000069   0.0000054  -0.9424511   0.2826684
0.0176599    -0.9951874  -0.0000566   0.0000051   0.0000059  -0.0000030  -0.0000096  -0.9424459   0.2827776
0.0178770    -0.9952668  -0.0000014  -0.0000005  -0.0000065  -0.0000056   0.0000042  -0.9424224   0.2829245
0.0180968    -0.9952166   0.0000185  -0.0000046   0.0000092  -0.0000086  -0.0000035  -0.9424302   0.2828374
0.0183193    -0.9952745   0.0000056   0.0000123   0.0000056   0.0000087  -0.0000044  -0.9424509   0.2830002
0.0185445    -0.9952540  -0.0001885   0.0000013   0.0000106   0.0000103  -0.0000060  -0.9424455   0.2830423
0.0187724    -0.9951934  -0.0000444  -0.0000100   0.0000093   0.0000036   0.0000011  -0.9423371   0.2830841
0.0190032    -0.9952454  -0.0001657  -0.0000003   0.0000240  -0.0000030  -0.0000051  -0.9424280   0.2831313
0.0192368    -0.9951844  -0.0001193  -0.0000168  -0.0000196   0.0000020   0.0000008  -0.9425254   0.2832695
0.0194733    -0.9953287  -0.0000952   0.0000010   0.0000087   0.0000098  -0.0000044  -0.9424154   0.2833488
0.0197127    -0.9952740  -0.0001287   0.0000081   0.0000100  -0.0000072  -0.0000149  -0.9423865   0.2834325
0.0199550    -0.9952576   0.0000444   0.0000066   0.0000219  -0.0000085  -0.0000115  -0.9424142   0.2834576
0.0202003    -0.9953029  -0.0001936  -0.0000215   0.0000193  -0.0000027  -0.0000121  -0.9424186   0.2834956
0.0204487    -0.9952700  -0.0000161  -0.0000028   0.0000115  -0.0000126  -0.0000027  -0.9423482   0.2836018
0.0207001    -0.9953030  -0.0000962  -0.0000053   0.0000316  -0.0000050  -0.0000153  -0.9422820   0.2836091
0.0209545    -0.9953285  -0.0001543  -0.0000045   0.0000045  -0.0000042  -0.0000062  -0.9422991   0.2836966
0.0212121    -0.9953207  -0.0000023  -0.0000072   0.0000257   0.0000013   0.0000014  -0.9422630   0.2838958
0.0214729    -0.9953035  -0.0002208   0.0000189   0.0000036  -0.0000082  -0.0000137  -0.9423046   0.2839225
0.0217369    -0.9952867  -0.0000025  -0.0000063   0.0000218   0.0000177  -0.0000012  -0.9422967   0.2839207
0.0220041    -0.9953121  -0.0000957   0.0000014   0.0000000  -0.0000034  -0.0000052  -0.9423316   0.2839710
0.0222746    -0.9951892  -0.0002084   0.0000012   0.0000035   0.0000044  -0.0000094  -0.9421834   0.2840686
0.0225484    -0.9953679  -0.0000484   0.0000160  -0.0000060  -0.0000069   0.0000029  -0.9421589   0.2840821
0.0228256    -0.9952183  -0.0000423  -0.0000064   0.0000135  -0.0000015   0.0000000  -0.9422130   0.2841121
0.0231062    -0.9952145  -0.0001442  -0.0000071   0.0000033  -0.0000071  -0.0000067  -0.9422103   0.2841453
0.0233902    -0.9950883  -0.0001379   0.0000003  -0.0000034  -0.0000062   0.0000041  -0.9421501   0.2842650
0.0236778    -0.9953430  -0.0000283   0.0000078   0.0000329   0.0000026  -0.0000065  -0.9421274   0.2843437
0.0239689    -0.9944592   0.0012470   0.0000050   0.0000079  -0.0000034  -0.0000028  -0.9431943   0.2849166
0.0242635    -0.9952918  -0.0000651   0.0000123   0.0000195   0.0000020  -0.0000015  -0.9421554   0.2844378
0.0245618    -0.9952620  -0.0001246  -0.0000032   0.0000014  -0.0000175  -0.0000006  -0.9420997   0.2845678
0.0248637    -0.9952827   0.0000150  -0.0000062  -0.0000014  -0.0000010  -0.0000011  -0.9421057   0.2846436
0.0251694    -0.9950579  -0.0000505  -0.0000028   0.0000089  -0.0000045  -0.0000092  -0.9421237   0.2846718
0.0254788    -0.9952315  -0.0001214   0.0000000   0.0000018  -0.0000051  -0.0000060  -0.9420106   0.2847303
0.0257920    -0.9953265  -0.0000240  -0.0000005   0.0000312   0.0000011  -0.0000116  -0.9420984   0.2848583
0.0261091    -0.9951078  -0.0000851  -0.0000121   0.0000000   0.0000032  -0.0000093  -0.9419308   0.2848252
0.0264301    -0.9952704   0.0000232   0.0000100   0.0000148   0.0000051  -0.0000114  -0.9420806   0.2849199
0.0267550    -0.9953389  -0.0000354   0.0000278   0.0000048  -0.0000017   0.0000036  -0.9419236   0.2849455
0.0270839    -0.9954015  -0.0001181  -0.0000171   0.0000094  -0.0000150  -0.0000070  -0.9420152   0.2849370
0.0274168    -0.9953281  -0.0001528   0.0000019  -0.0000070  -0.0000071  -0.0000091  -0.9419723   0.2849874
0.0277539    -0.9953071  -0.0000597  -0.0000076   0.0000176  -0.0000055  -0.0000124  -0.9418585   0.2850718
0.0280951    -0.9952603  -0.0001370   0.0000124   0.0000164  -0.0000084  -0.0000131  -0.9418695   0.2851680
0.0284404    -0.9952413  -0.0000152  -0.0000126   0.0000060  -0.0000050  -0.0000027  -0.9418926   0.2852433
0.0287901    -0.9952417  -0.0001213   0.0000065   0.0000158  -0.0000104  -0.0000071  -0.9419360   0.2851845
0.0291440    -0.9953522  -0.0001716  -0.0000028   0.0000036   0.0000046  -0.0000088  -0.9418947   0.2853351
0.0295023    -0.9952002  -0.0000287   0.0000111   0.0000002   0.0000158   0.0000033  -0.9418181   0.2853636
0.0298649    -0.9953352  -0.0000820   0.0000069   0.0000227   0.0000090  -0.0000008  -0.9418149   0.2853996
0.0302321    -0.9952517  -0.0000702  -0.0000022  -0.0000072   0.0000043  -0.0000058  -0.9417208   0.2854923
0.0306037    -0.9953819   0.0000518  -0.0000052  -0.0000022  -0.0000045  -0.0000008  -0.9417143   0.2855678
0.0309799    -0.9952501  -0.0000740   0.0000182   0.0000281  -0.0000045   0.0000013  -0.9418265   0.2855831
0.0313608    -0.9953412  -0.0000619   0.0000101   0.0000141   0.0000041  -0.0000197  -0.9417779   0.2856653
0.0317463    -0.9951647  -0.0000877   0.0000237   0.0000091  -0.0000047   0.0000050  -0.9416988   0.2857371
0.0321366    -0.9953910  -0.0001002   0.0000221   0.0000136   0.0000041  -0.0000031  -0.9417880   0.2857474
0.0325316    -0.9953874  -0.0000301  -0.0000073   0.0000139   0.0000030  -0.0000159  -0.9416747   0.2858300
0.0329316    -0.9952947  -0.0000018  -0.0000150   0.0000004   0.0000071  -0.0000175  -0.9416642   0.2859160
0.0333364    -0.9952447  -0.0000711  -0.0000016   0.0000317   0.0000033  -0.0000037  -0.9416956   0.2859965
0.0337462    -0.9951693  -0.0001231   0.0000079   0.0000088   0.0000003   0.0000066  -0.9415459   0.2858363
0.0341610    -0.9952109  -0.0000580   0.0000129   0.0000020   0.0000031  -0.0000018  -0.9415890   0.2860550
0.0345810    -0.9952641   0.0000077   0.0000029   0.0000102   0.0000025  -0.0000054  -0.9415994   0.2860402
0.0350061    -0.9952515  -0.0000845  -0.0000095   0.0000109   0.0000041   0.0000028  -0.9416480   0.2861025
0.0354365    -0.9953636  -0.0000481  -0.0000055   0.0000224   0.0000008  -0.0000113  -0.9415532   0.2862356
0.0358721    -0.9952570  -0.0000849   0.0000044  -0.0000066   0.0000027   0.0000040  -0.9415274   0.2861881
0.0363131    -0.9952439   0.0000110   0.0000111   0.0000195  -0.0000035  -0.0000022  -0.9415787   0.2862180
0.0367595    -0.9953580  -0.0001681   0.0000153  -0.0000102  -0.0000029  -0.0000134  -0.9414277   0.2863980
0.0372114    -0.9953440  -0.0000143   0.0000024  -0.0000131   0.0000021  -0.0000147  -0.9414660   0.2864445
0.0376688    -0.9952750  -0.0001626   0.0000017   0.0000124  -0.0000015  -0.0000004  -0.9414265   0.2864517
0.0381319    -0.9952673  -0.0000932   0.0000160  -0.0000036  -0.0000009  -0.0000148  -0.9414994   0.2864761
0.0386006    -0.9952828  -0.0000800   0.0000124   0.0000111  -0.0000001  -0.0000062  -0.9414738   0.2866139
0.0390752    -0.9953323  -0.0001339   0.0000030   0.0000190   0.0000058  -0.0000044  -0.9413666   0.2865701
0.0395555    -0.9952788  -0.0001092  -0.0000036   0.0000183  -0.0000018  -0.0000008  -0.9413887   0.2866159
0.0400418    -0.9953289   0.0000269  -0.0000070  -0.0000025  -0.0000059  -0.0000090  -0.9414225   0.2867169
0.0405340    -0.9953614  -0.0001004  -0.0000029   0.0000159   0.0000032  -0.0000083  -0.9413678   0.2866962
0.0410323    -0.9953091  -0.0001203   0.0000154   0.0000079   0.0000113  -0.0000063  -0.9412536   0.2867964
0.0415368    -0.9952179  -0.0000496  -0.0000012   0.0000110  -0.0000101   0.0000046  -0.9413906   0.2868516
0.0420474    -0.9952443   0.0000041   0.0000107   0.0000315  -0.0000032  -0.0000059  -0.9413047   0.2867908
0.0425643    -0.9953319  -0.0000312   0.0000041   0.0000112   0.0000041  -0.0000041  -0.9412317   0.2868349
0.0430875    -0.9953660  -0.0000471   0.0000167   0.0000096   0.0000041  -0.0000004  -0.9413051   0.2869693
0.0436172    -0.9951442  -0.0000649  -0.0000048   0.0000049  -0.0000077  -0.0000074  -0.9412355   0.2870156
0.0441534    -0.9952456  -0.0001511   0.0000118   0.0000120   0.0000004  -0.0000073  -0.9411886   0.2871031
0.0446962    -0.9953693  -0.0000713   0.0000132   0.0000155  -0.0000045  -0.0000057  -0.9411981   0.2871376
0.0452457    -0.9952296  -0.0001032  -0.0000007   0.0000056   0.0000028  -0.0000074  -0.9411458   0.2871384
0.0458019    -0.9952923  -0.0000462  -0.0000002   0.0000019   0.0000017  -0.0000085  -0.9411226   0.2871739
0.0463649    -0.9953030  -0.0000534  -0.0000069   0.0000191   0.0000098   0.0000013  -0.9410879   0.2872438
0.0469349    -0.9952853  -0.0001581   0.0000082  -0.0000113  -0.0000076  -0.0000056  -0.9410962   0.2873527
0.0475119    -0.9952564  -0.0001069   0.0000059   0.0000084   0.0000017  -0.0000071  -0.9410704   0.2873649
0.0480960    -0.9952079  -0.0000139  -0.0000076  -0.0000094  -0.0000044  -0.0000019  -0.9409973   0.2874680
0.0486872    -0.9953268  -0.0001225  -0.0000097   0.0000226  -0.0000129  -0.0000110  -0.9409651   0.2874875
0.0492857    -0.9953560   0.0000384   0.0000149   0.0000103  -0.0000002  -0.0000042  -0.9409461   0.2875644
0.0498916    -0.9952654  -0.0000338   0.0000112   0.0000160  -0.0000045  -0.0000018  -0.9408737   0.2876173
0.0505050    -0.9952785  -0.0000308   0.0000121   0.0000174  -0.0000103  -0.0000166  -0.9409469   0.2876108
0.0511258    -0.9952114  -0.0001067  -0.0000099   0.0000077  -0.0000017  -0.0000074  -0.9409396   0.2877756
0.0517543    -0.9952793   0.0000274   0.0000073   0.0000040  -0.0000078  -0.0000062  -0.9409543   0.2877150
0.0523906    -0.9953406  -0.0000215  -0.0000004   0.0000101   0.0000057  -0.0000072  -0.9408638   0.2877875
0.0530346    -0.9951865  -0.0000164  -0.0000058   0.0000205   0.0000032  -0.0000115  -0.9408033   0.2878187
0.0536866    -0.9952219  -0.0000528  -0.0000038   0.0000126  -0.0000095  -0.0000167  -0.9408350   0.2878571
0.0543466    -0.9953315  -0.0000241   0.0000067   0.0000239  -0.0000052  -0.0000006  -0.9407425   0.2878680
0.0550146    -0.9953432  -0.0000472  -0.0000025   0.0000068  -0.0000055  -0.0000045  -0.9407686   0.2879192
0.0556910    -0.9953749  -0.0000626   0.0000028   0.0000201  -0.0000121  -0.0000102  -0.9406990   0.2879734
0.0563756    -0.9952074  -0.0000856   0.0000099  -0.0000102   0.0000018  -0.0000108  -0.9407175   0.2881117
0.0570686    -0.9952209  -0.0000977  -0.0000010   0.0000099   0.0000006  -0.0000166  -0.9406780   0.2881488
0.0577702    -0.9952678  -0.0000700  -0.0000078   0.0000175  -0.0000013  -0.0000054  -0.9406106   0.2882546
0.0584804    -0.9952273  -0.0000733  -0.0000086   0.0000186   0.0000011  -0.0000075  -0.9405687   0.2881916
0.0591993    -0.9953167  -0.0000570  -0.0000039   0.0000267   0.0000087   0.0000003  -0.9405477   0.2882490
0.0599270    -0.9953014  -0.0001275  -0.0000088   0.0000116   0.0000084  -0.0000020  -0.9406534   0.2883762
0.0606637    -0.9952823  -0.0000718   0.0000124  -0.0000006  -0.0000008  -0.0000084  -0.9404613   0.2883609
0.0614095    -0.9952656  -0.0000037   0.0000038   0.0000170  -0.0000130   0.0000009  -0.9405219   0.2883972
0.0621644    -0.9953386  -0.0001757   0.0000040   0.0000071  -0.0000010  -0.0000074  -0.9405535   0.2885076
0.0629286    -0.9952386  -0.0000672   0.0000005   0.0000125  -0.0000052  -0.0000012  -0.9404398   0.2884878
0.0637022    -0.9951722  -0.0000549   0.0000167   0.0000102   0.0000020  -0.0000046  -0.9403573   0.2886245
0.0644853    -0.9952536  -0.0001236   0.0000082   0.0000064  -0.0000014  -0.0000039  -0.9404157   0.2886764
0.0652780    -0.9951902  -0.0000033  -0.0000022   0.0000127   0.0000039  -0.0000084  -0.9403190   0.2886986
0.0660805    -0.9952977  -0.0001683   0.0000005   0.0000182  -0.0000050  -0.0000067  -0.9402917   0.2888275
0.0668928    -0.9952902  -0.0000633   0.0000079   0.0000215  -0.0000128  -0.0000122  -0.9402203   0.2888212
0.0677152    -0.9952660  -0.0000719   0.0000037   0.0000220   0.0000000  -0.0000112  -0.9402024   0.2888230
0.0685476    -0.9952590  -0.0000795   0.0000114   0.0000152  -0.0000072  -0.0000117  -0.9401862   0.2888922
0.0693903    -0.9952348   0.0000312   0.0000146   0.0000102  -0.0000004  -0.0000041  -0.9401122   0.2890172
0.0702433    -0.9951744  -0.0001503   0.0000207   0.0000157  -0.0000029   0.0000041  -0.9401311   0.2890242
0.0711068    -0.9952015  -0.0001153  -0.0000042   0.0000114   0.0000037  -0.0000059  -0.9400895   0.2890692
0.0719810    -0.9953133  -0.0000555   0.0000031   0.0000029  -0.0000091   0.0000050  -0.9400307   0.2890734
0.0728659    -0.9952727  -0.0000579   0.0000044   0.0000148   0.0000052  -0.0000014  -0.9399982   0.2891921
0.0737616    -0.9953575  -0.0000295   0.0000033   0.0000086  -0.0000012   0.0000004  -0.9399166   0.2892475
0.0746684    -0.9950852  -0.0000929  -0.0000058   0.0000179   0.0000073  -0.0000086  -0.9399425   0.2892933
0.0755863    -0.9951546  -0.0000387   0.0000096   0.0000257  -0.0000051  -0.0000018  -0.9398644   0.2893296
0.0765155    -0.9953067   0.0000310   0.0000008   0.0000178  -0.0000040  -0.0000102  -0.9398543   0.2893451
0.0774561    -0.9950772  -0.0001447  -0.0000022   0.0000102   0.0000021  -0.0000132  -0.9397228   0.2894283
0.0784083    -0.9952136   0.0000013   0.0000201   0.0000054   0.0000033   0.0000006  -0.9396576   0.2894038
0.0793722    -0.9952161  -0.0000300   0.0000021   0.0000223  -0.0000042  -0.0000104  -0.9396161   0.2895158
0.0803479    -0.9951820  -0.0000095   0.0000121   0.0000197   0.0000014  -0.0000099  -0.9396115   0.2895176
0.0813357    -0.9951904  -0.0001303   0.0000093  -0.0000064  -0.0000006  -0.0000007  -0.9394970   0.2895606
0.0823356    -0.9952144   0.0000004   0.0000125   0.0000111  -0.0000053  -0.0000076  -0.9394075   0.2896695
0.0833477    -0.9952676  -0.0001401  -0.0000103   0.0000139   0.0000061  -0.0000029  -0.9393761   0.2896456
0.0843723    -0.9952403   0.0000172  -0.0000019  -0.0000021   0.0000086  -0.0000037  -0.9393115   0.2897923
0.0854095    -0.9952038  -0.0000224  -0.0000010   0.0000223  -0.0000026  -0.0000074  -0.9392051   0.2896720
0.0864595    -0.9951830  -0.0000592   0.0000133   0.0000193  -0.0000029   0.0000073  -0.9391912   0.2898053
0.0875224    -0.9951044   0.0000096   0.0000055   0.0000213   0.0000034  -0.0000104  -0.9391330   0.2897833
0.0885983    -0.9952531  -0.0001186   0.0000036   0.0000174  -0.0000022  -0.0000038  -0.9390844   0.2898074
0.0896875    -0.9951413  -0.0000840  -0.0000047   0.0000057   0.0000089  -0.0000091  -0.9389901   0.2898603
0.0907900    -0.9951375  -0.0001732  -0.0000034   0.0000111  -0.0000058  -0.0000009  -0.9389029   0.2897670
0.0919061    -0.9951255  -0.0001643  -0.0000059   0.0000059   0.0000026   0.0000009  -0.9387465   0.2898359
0.0930359    -0.9951549  -0.0001359  -0.0000061  -0.0000002   0.0000012   0.0000016  -0.9387368   0.2897206
0.0941797    -0.9951021  -0.0002174   0.0000012   0.0000207   0.0000025   0.0000095  -0.9386642   0.2897788
0.0953374    -0.9952218  -0.0002237   0.0000077   0.0000113  -0.0000047   0.0000036  -0.9386589   0.2896874
0.0965094    -0.9951397  -0.0002162  -0.0000065   0.0000109   0.0000008  -0.0000022  -0.9385277   0.2897067
0.0976959    -0.9952049  -0.0002783   0.0000121   0.0000195   0.0000064  -0.0000051  -0.9385353   0.2896980
0.0988969    -0.9950909  -0.0003156   0.0000066   0.0000144  -0.0000068  -0.0000015  -0.9384663   0.2896201
0.1001126    -0.9952910  -0.0003538  -0.0000049   0.0000173  -0.0000042  -0.0000113  -0.9384273   0.2896009
0.1013433    -0.9952852  -0.0003368  -0.0000054  -0.0000059  -0.0000066  -0.0000005  -0.9384162   0.2895283
0.1025892    -0.9951910  -0.0003107   0.0000029   0.0000240  -0.0000089  -0.0000156  -0.9383242   0.2894642
0.1038503    -0.9952126  -0.0004040   0.0000114   0.0000279  -0.0000061   0.0000026  -0.9383898   0.2893628
0.1051270    -0.9952841  -0.0003681  -0.0000077   0.0000091  -0.0000042   0.0000032  -0.9384645   0.2893710
0.1064193    -0.9953070  -0.0003125   0.0000065   0.0000120  -0.0000009  -0.0000043  -0.9385210   0.2892712
0.1077276    -0.9952335  -0.0001973   0.0000005   0.0000107  -0.0000010   0.0000042  -0.9385561   0.2893075
0.1090519    -0.9952469  -0.0002834  -0.0000027   0.0000031   0.0000081   0.0000023  -0.9386699   0.2891948
0.1103925    -0.9953167  -0.0003832  -0.0000114   0.0000228  -0.0000053  -0.0000082  -0.9386504   0.2892372
0.1117496    -0.9953443  -0.0002642   0.0000079   0.0000108   0.0000070  -0.0000009  -0.9387449   0.2892651
0.1131233    -0.9953098  -0.0002212  -0.0000124   0.0000007  -0.0000109  -0.0000063  -0.9388706   0.2892237
0.1145140    -0.9953145  -0.0003183   0.0000026   0.0000169  -0.0000020  -0.0000139  -0.9389367   0.2893050
0.1159217    -0.9952824  -0.0003098  -0.0000037   0.0000292  -0.0000058  -0.0000006  -0.9389502   0.2893045
0.1173468    -0.9953057  -0.0002611  -0.0000054   0.0000043   0.0000043  -0.0000100  -0.9390159   0.2893834
0.1187893    -0.9954309  -0.0002756   0.0000189   0.0000162  -0.0000015  -0.0000112  -0.9391408   0.2894386
0.1202497    -0.9954172  -0.0001796  -0.0000012   0.0000254  -0.0000076  -0.0000202  -0.9391425   0.2894774
0.1217279    -0.9953757  -0.0001974   0.0000174   0.0000214   0.0000047   0.0000067  -0.9391774   0.2895602
0.1232243    -0.9954308  -0.0001598   0.0000034   0.0000321  -0.0000059  -0.0000097  -0.9393238   0.2897100
0.1247392    -0.9953215  -0.0002203   0.0000003   0.0000312  -0.0000005  -0.0000021  -0.9393441   0.2897610
0.1262726    -0.9954652  -0.0001388   0.0000027   0.0000256  -0.0000082  -0.0000107  -0.9393835   0.2898578
0.1278249    -0.9954118  -0.0000889   0.0000018   0.0000262  -0.0000011  -0.0000062  -0.9393711   0.2899272
0.1293963    -0.9953196  -0.0002586   0.0000069   0.0000162  -0.0000038  -0.0000042  -0.9394349   0.2900448
0.1309870    -0.9953793  -0.0001836  -0.0000058   0.0000185   0.0000004  -0.0000140  -0.9394403   0.2901690
0.1325973    -0.9954049  -0.0002208   0.0000103   0.0000229  -0.0000006   0.0000020  -0.9394429   0.2901727
0.1342273    -0.9952837  -0.0002874   0.0000208   0.0000243  -0.0000030  -0.0000066  -0.9395119   0.2902830
0.1358774    -0.9953286  -0.0002352  -0.0000033   0.0000076  -0.0000045   0.0000028  -0.9394840   0.2904587
0.1375478    -0.9954408  -0.0001791   0.0000068   0.0000229   0.0000041  -0.0000011  -0.9395102   0.2904983
0.1392387    -0.9954159  -0.0002503   0.0000038   0.0000087  -0.0000016  -0.0000030  -0.9394896   0.2906542
0.1409504    -0.9954549  -0.0002120   0.0000049   0.0000232  -0.0000098  -0.0000030  -0.9395416   0.2907525
0.1426831    -0.9953954  -0.0001736  -0.0000137   0.0000277  -0.0000051  -0.0000032  -0.9395182   0.2907696
0.1444371    -0.9953604  -0.0001238  -0.0000018   0.0000262   0.0000040  -0.0000025  -0.9394529   0.2909111
0.1462127    -0.9952822  -0.0001228   0.0000055   0.0000187   0.0000011  -0.0000080  -0.9395321   0.2910522
0.1480102    -0.9952429  -0.0001441  -0.0000018   0.0000345  -0.0000016  -0.0000117  -0.9394888   0.2911476
0.1498297    -0.9952355  -0.0002302   0.0000130   0.0000112  -0.0000046   0.0000006  -0.9394295   0.2911965
0.1516716    -0.9954051  -0.0002170  -0.0000192   0.0000121  -0.0000031   0.0000037  -0.9394114   0.2913293
0.1535361    -0.9953488  -0.0002188  -0.0000077   0.0000220  -0.0000056  -0.0000089  -0.9394468   0.2914228
0.1554236    -0.9952834  -0.0002098  -0.0000138   0.0000179   0.0000006   0.0000022  -0.9394299   0.2915906
0.1573342    -0.9953264  -0.0002550   0.0000097   0.0000232  -0.0000109  -0.0000090  -0.9393141   0.2916879
0.1592684    -0.9954642  -0.0002283   0.0000123   0.0000106   0.0000048   0.0000032  -0.9394186   0.2917255
0.1612263    -0.9953517  -0.0002218   0.0000155   0.0000149   0.0000049  -0.0000010  -0.9393069   0.2918717
0.1632083    -0.9953467  -0.0002179  -0.0000002   0.0000309   0.0000052  -0.0000046  -0.9393931   0.2919294
0.1652147    -0.9953659  -0.0002523   0.0000083   0.0000371  -0.0000054   0.0000015  -0.9392935   0.2920767
0.1672457    -0.9953784  -0.0002719  -0.0000095   0.0000166   0.0000058  -0.0000092  -0.9392819   0.2921465
0.1693017    -0.9952301  -0.0002187  -0.0000046   0.0000197  -0.0000093  -0.0000026  -0.9392562   0.2921591
0.1713829    -0.9952279  -0.0002190   0.0000079   0.0000150  -0.0000062  -0.0000029  -0.9392212   0.2923577
0.1734898    -0.9953600  -0.0002772   0.0000193   0.0000128  -0.0000008   0.0000005  -0.9391912   0.2923584
0.1756225    -0.9953351  -0.0002138  -0.0000069   0.0000107   0.0000067  -0.0000024  -0.9391699   0.2925539
0.1777815    -0.9953448  -0.0002710   0.0000042   0.0000274  -0.0000031  -0.0000086  -0.9390592   0.2925714
0.1799670    -0.9953115  -0.0002919  -0.0000019   0.0000186  -0.0000053  -0.0000102  -0.9390654   0.2927581
0.1821794    -0.9953416  -0.0002805   0.0000136   0.0000261   0.0000027  -0.0000042  -0.9390483   0.2928551
0.1844190    -0.9952977  -0.0002200   0.0000087   0.0000259  -0.0000014  -0.0000113  -0.9391059   0.2929285
0.1866861    -0.9953376  -0.0004054   0.0000082   0.0000235  -0.0000025  -0.0000085  -0.9389236   0.2930493
0.1889811    -0.9952747  -0.0003553  -0.0000015   0.0000096  -0.0000052  -0.0000045  -0.9389341   0.2931909
0.1913043    -0.9952656  -0.0002836  -0.0000041   0.0000319  -0.0000022  -0.0000077  -0.9389398   0.2931881
0.1936560    -0.9953359  -0.0002846   0.0000157   0.0000113  -0.0000029   0.0000011  -0.9388743   0.2934055
0.1960367    -0.9952495  -0.0002291   0.0000085   0.0000264  -0.0000034  -0.0000113  -0.9388666   0.2935421
0.1984466    -0.9953286  -0.0003676  -0.0000081   0.0000176  -0.0000069  -0.0000007  -0.9388003   0.2935264
0.2008861    -0.9952455  -0.0002884  -0.0000085   0.0000061  -0.0000035  -0.0000135  -0.9388468   0.2937072
0.2033557    -0.9953270  -0.0003534   0.0000053   0.0000203  -0.0000017  -0.0000072  -0.9388149   0.2937507
0.2058556    -0.9952605  -0.0003895   0.0000220   0.0000256   0.0000063  -0.0000012  -0.9386165   0.2938308
0.2083862    -0.9952882  -0.0002848   0.0000172   0.0000295  -0.0000007  -0.0000098  -0.9386430   0.2939738
0.2109480    -0.9953232  -0.0003474  -0.0000059   0.0000208  -0.0000041   0.0000037  -0.9386125   0.2940661
0.2135412    -0.9953588  -0.0002216   0.0000066   0.0000308   0.0000026  -0.0000099  -0.9385548   0.2941996
0.2161663    -0.9953587  -0.0002445  -0.0000086   0.0000143   0.0000069  -0.0000061  -0.9385860   0.2942747
0.2188237    -0.9954131  -0.0003841   0.0000039   0.0000276  -0.0000015  -0.0000051  -0.9385893   0.2944157
0.2215137    -0.9952621  -0.0003999   0.0000103   0.0000289  -0.0000176  -0.0000081  -0.9384733   0.2944849
0.2242369    -0.9952933  -0.0002515   0.0000049   0.0000212  -0.0000093  -0.0000156  -0.9383799   0.2946712
0.2269935    -0.9952867  -0.0003515  -0.0000014   0.0000259  -0.0000070  -0.0000102  -0.9383557   0.2947396
0.2297839    -0.9953291  -0.0002727   0.0000135   0.0000113   0.0000008  -0.0000095  -0.9383288   0.2948782
0.2326087    -0.9952345  -0.0003936   0.0000051   0.0000363  -0.0000072  -0.0000042  -0.9383012   0.2949777
0.2354682    -0.9952478  -0.0003489   0.0000000   0.0000332   0.0000062  -0.0000025  -0.9382314   0.2950852
0.2383629    -0.9952635  -0.0002400   0.0000003   0.0000325   0.0000095  -0.0000077  -0.9382402   0.2951383
0.2412932    -0.9953322  -0.0003365   0.0000059   0.0000331  -0.0000204  -0.0000146  -0.9381400   0.2952565
0.2442594    -0.9952575  -0.0003906   0.0000021   0.0000362  -0.0000093   0.0000065  -0.9381314   0.2954319
0.2472622    -0.9952773  -0.0003836  -0.0000082   0.0000310  -0.0000034  -0.0000044  -0.9381191   0.2955686
0.2503018    -0.9952689  -0.0004021   0.0000107   0.0000244  -0.0000125  -0.0000093  -0.9379876   0.2957517
0.2533788    -0.9953210  -0.0004059   0.0000133   0.0000328  -0.0000040   0.0000031  -0.9379655   0.2957465
0.2564937    -0.9953794  -0.0004533   0.0000060   0.0000300  -0.0000017  -0.0000116  -0.9379517   0.2958429
0.2596468    -0.9952712  -0.0003906  -0.0000015   0.0000330  -0.0000103  -0.0000019  -0.9378675   0.2960615
0.2628387    -0.9952969  -0.0003780  -0.0000014   0.0000269   0.0000019   0.0000031  -0.9378421   0.2962113
0.2660699    -0.9952644  -0.0003762  -0.0000059   0.0000375   0.0000030  -0.0000001  -0.9377637   0.2962477
0.2693407    -0.9953319  -0.0004264   0.0000185   0.0000273   0.0000029   0.0000017  -0.9376920   0.2964796
0.2726518    -0.9952844  -0.0003847  -0.0000129   0.0000190   0.0000098  -0.0000065  -0.9376563   0.2965318
0.2760036    -0.9952753  -0.0004883   0.0000026   0.0000327  -0.0000009  -0.0000004  -0.9376370   0.2967253
0.2793966    -0.9953592  -0.0004604  -0.0000081   0.0000194   0.0000015  -0.0000069  -0.9375655   0.2967840
0.2828312    -0.9953498  -0.0004136  -0.0000034   0.0000315  -0.0000054  -0.0000065  -0.9375553   0.2969881
0.2863082    -0.9953433  -0.0004122   0.0000164   0.0000347  -0.0000069  -0.0000156  -0.9374514   0.2970842
0.2898278    -0.9953760  -0.0005127  -0.0000023   0.0000259   0.0000011  -0.0000148  -0.9373987   0.2972562
0.2933907    -0.9952518  -0.0004963   0.0000021   0.0000340  -0.0000071  -0.0000110  -0.9374491   0.2973166
0.2969975    -0.9952896  -0.0004012  -0.0000022   0.0000147   0.0000025  -0.0000002  -0.9373918   0.2974570
0.3006485    -0.9954041  -0.0004650   0.0000019   0.0000379  -0.0000037  -0.0000003  -0.9372446   0.2976492
0.3043445    -0.9952603  -0.0005145   0.0000137   0.0000330   0.0000030  -0.0000090  -0.9372233   0.2977212
0.3080858    -0.9953627  -0.0004755  -0.0000179   0.0000143   0.0000008  -0.0000047  -0.9371217   0.2978439
0.3118732    -0.9952774  -0.0003957   0.0000118   0.0000311  -0.0000029  -0.0000037  -0.9370846   0.2981255
0.3157071    -0.9953926  -0.0004556   0.0000177   0.0000292   0.0000001  -0.0000051  -0.9369519   0.2981806
0.3195882    -0.9953461  -0.0005149   0.0000082   0.0000173  -0.0000056  -0.0000075  -0.9369621   0.2983713
0.3235170    -0.9952814  -0.0005453   0.0000156   0.0000453   0.0000005  -0.0000101  -0.9368877   0.2985743
0.3274941    -0.9953305  -0.0004756   0.0000097   0.0000386  -0.0000171  -0.0000030  -0.9368245   0.2986018
0.3315200    -0.9952972  -0.0005445   0.0000058   0.0000320  -0.0000011  -0.0000002  -0.9366881   0.2987612
0.3355955    -0.9953340  -0.0004823   0.0000091   0.0000330   0.0000024  -0.0000098  -0.9367534   0.2988743
0.3397210    -0.9951778  -0.0005038   0.0000120   0.0000377  -0.0000033  -0.0000140  -0.9366286   0.2991156
0.3438973    -0.9953861  -0.0005359   0.0000122   0.0000111   0.0000025  -0.0000018  -0.9365542   0.2991742
0.3481249    -0.9953054  -0.0004779   0.0000152   0.0000285  -0.0000090  -0.0000003  -0.9365513   0.2993079
0.3524045    -0.9953039  -0.0004607  -0.0000020   0.0000363   0.0000071  -0.0000049  -0.9364981   0.2994654
0.3567367    -0.9953701  -0.0005037  -0.0000070   0.0000283   0.0000048  -0.0000006  -0.9364733   0.2996630
0.3611221    -0.9953699  -0.0006000   0.0000002   0.0000359  -0.0000009  -0.0000053  -0.9363157   0.2998125
0.3655615    -0.9952930  -0.0005610   0.0000005   0.0000341   0.0000008   0.0000035  -0.9362350   0.2999891
0.3700554    -0.9953921  -0.0006324   0.0000168   0.0000399  -0.0000078   0.0000013  -0.9361766   0.3001423
0.3746046    -0.9953851  -0.0006397   0.0000122   0.0000373  -0.0000074   0.0000052  -0.9360952   0.3002810
0.3792097    -0.9953316  -0.0006281   0.0000016   0.0000337   0.0000027  -0.0000014  -0.9360310   0.3005167
0.3838714    -0.9953000  -0.0005929   0.0000147   0.0000413  -0.0000147   0.0000006  -0.9360487   0.3006684
0.3885905    -0.9952640  -0.0006594   0.0000126   0.0000280   0.0000014  -0.0000025  -0.9359445   0.3008066
0.3933675    -0.9952296  -0.0006753   0.0000181   0.0000367  -0.0000064  -0.0000079  -0.9358374   0.3010662
0.3982033    -0.9953920  -0.0006714   0.0000041   0.0000306   0.0000045  -0.0000028  -0.9357388   0.3011775
0.4030985    -0.9952650  -0.0007166   0.0000054   0.0000365  -0.0000013  -0.0000019  -0.9356822   0.3013380
0.4080538    -0.9952945  -0.0006024   0.0000035   0.0000457   0.0000088  -0.0000011  -0.9356213   0.3015114
0.4130701    -0.9954221  -0.0006946  -0.0000032   0.0000397  -0.0000030  -0.0000011  -0.9354990   0.3017008
0.4181481    -0.9953004  -0.0006793   0.0000097   0.0000474  -0.0000217  -0.0000123  -0.9354835   0.3019167
0.4232885    -0.9954081  -0.0006585   0.0000154   0.0000439   0.0000013  -0.0000042  -0.9353929   0.3020374
0.4284921    -0.9953429  -0.0007480   0.0000340   0.0000435   0.0000050  -0.0000019  -0.9353126   0.3021829
0.4337597    -0.9952956  -0.0007172   0.0000116   0.0000388  -0.0000025  -0.0000129  -0.9351899   0.3024178
0.4390920    -0.9951340  -0.0006892   0.0000041   0.0000485   0.0000014  -0.0000040  -0.9351455   0.3026475
0.4444898    -0.9953672  -0.0007284   0.0000135   0.0000285   0.0000003  -0.0000071  -0.9350953   0.3028394
0.4499541    -0.9954449  -0.0007741   0.0000037   0.0000358   0.0000018   0.0000071  -0.9349420   0.3029515
0.4554854    -0.9953099  -0.0006998  -0.0000061   0.0000413  -0.0000024   0.0000004  -0.9349191   0.3031716
0.4610848    -0.9953792  -0.0006993  -0.0000086   0.0000403   0.0000036  -0.0000010  -0.9347462   0.3034583
0.4667531    -0.9954108  -0.0006953  -0.0000012   0.0000319  -0.0000048  -0.0000122  -0.9347264   0.3035858
0.4724910    -0.9953656  -0.0007404   0.0000103   0.0000423   0.0000114  -0.0000039  -0.9345766   0.3037551
0.4782994    -0.9952583  -0.0007530   0.0000160   0.0000299  -0.0000062  -0.0000052  -0.9345650   0.3040264
0.4841793    -0.9953768  -0.0008236   0.0000054   0.0000484   0.0000106   0.0000023  -0.9344129   0.3041643
0.4901314    -0.9953001  -0.0008228   0.0000115   0.0000577   0.0000062  -0.0000086  -0.9344641   0.3044346
0.4961567    -0.9953925  -0.0007652   0.0000179   0.0000534  -0.0000058  -0.0000014  -0.9343045   0.3046205
0.5022561    -0.9952965  -0.0008426   0.0000109   0.0000485  -0.0000017  -0.0000053  -0.9341865   0.3048411
0.5084304    -0.9953151  -0.0008414   0.0000079   0.0000381  -0.0000013  -0.0000019  -0.9340425   0.3051119
0.5146807    -0.9952455  -0.0007676   0.0000118   0.0000466  -0.0000092  -0.0000063  -0.9339961   0.3052493
0.5210078    -0.9952757  -0.0007916   0.0000075   0.0000495   0.0000043  -0.0000041  -0.9338725   0.3054744
0.5274126    -0.9952812  -0.0008081   0.0000243   0.0000484  -0.0000064  -0.0000075  -0.9338402   0.3057256
0.5338963    -0.9952437  -0.0008611   0.0000192   0.0000478   0.0000003   0.0000057  -0.9337405   0.3059158
0.5404596    -0.9954369  -0.0009152   0.0000164   0.0000490  -0.0000084   0.0000050  -0.9336710   0.3062319
0.5471036    -0.9953320  -0.0010004  -0.0000092   0.0000421  -0.0000094  -0.0000065  -0.9335276   0.3063257
0.5538292    -0.9953381  -0.0008758   0.0000168   0.0000609   0.0000020  -0.0000054  -0.9334165   0.3066357
0.5606376    -0.9953736  -0.0009667   0.0000147   0.0000444  -0.0000026  -0.0000073  -0.9332411   0.3068205
0.5675297    -0.9953102  -0.0009077   0.0000135   0.0000562  -0.0000022  -0.0000028  -0.9331879   0.3071370
0.5745064    -0.9953339  -0.0010203  -0.0000066   0.0000480   0.0000018   0.0000011  -0.9330557   0.3073340
0.5815690    -0.9953978  -0.0009470   0.0000073   0.0000339   0.0000020   0.0000047  -0.9330523   0.3075216
0.5887183    -0.9952458  -0.0010707   0.0000051   0.0000663  -0.0000109  -0.0000114  -0.9328489   0.3077647
0.5959556    -0.9952669  -0.0009268   0.0000035   0.0000562  -0.0000057  -0.0000093  -0.9327533   0.3080503
0.6032818    -0.9953458  -0.0008651  -0.0000008   0.0000444  -0.0000051  -0.0000031  -0.9326622   0.3083318
0.6106981    -0.9953533  -0.0010149   0.0000124   0.0000556   0.0000033  -0.0000101  -0.9325332   0.3086434
0.6182056    -0.9953360  -0.0009973   0.0000269   0.0000551   0.0000045  -0.0000047  -0.9324797   0.3087512
0.6258053    -0.9953094  -0.0010047   0.0000253   0.0000522  -0.0000036   0.0000009  -0.9323100   0.3090988
0.6334985    -0.9953591  -0.0010259   0.0000058   0.0000589   0.0000043  -0.0000057  -0.9322906   0.3093580
0.6412862    -0.9953437  -0.0011766   0.0000031   0.0000526  -0.0000087  -0.0000039  -0.9320162   0.3096498
0.6491697    -0.9953784  -0.0012319  -0.0000024   0.0000477  -0.0000025   0.0000017  -0.9320639   0.3099768
0.6571501    -0.9952969  -0.0011576   0.0000090   0.0000591  -0.0000156  -0.0000076  -0.9318527   0.3101546
0.6652286    -0.9953169  -0.0012154   0.0000069   0.0000428   0.0000013  -0.0000025  -0.9317385   0.3105023
0.6734064    -0.9954211  -0.0010567   0.0000016   0.0000498  -0.0000007  -0.0000128  -0.9316249   0.3107810
0.6816848    -0.9953018  -0.0010555   0.0000149   0.0000720  -0.0000108  -0.0000052  -0.9314518   0.3109770
0.6900649    -0.9953419  -0.0011257   0.0000162   0.0000697  -0.0000001  -0.0000024  -0.9313558   0.3112493
0.6985480    -0.9953468  -0.0010884   0.0000006   0.0000665  -0.0000011  -0.0000022  -0.9312130   0.3116300
0.7071355    -0.9953142  -0.0012074   0.0000117   0.0000528   0.0000024  -0.0000047  -0.9311384   0.3119213
0.7158284    -0.9954709  -0.0010913  -0.0000072   0.0000624   0.0000018  -0.0000044  -0.9310515   0.3121998
0.7246283    -0.9952547  -0.0011414   0.0000172   0.0000687  -0.0000065  -0.0000022  -0.9308397   0.3124587
0.7335363    -0.9952755  -0.0011680   0.0000000   0.0000473   0.0000072  -0.0000030  -0.9308036   0.3127722
0.7425539    -0.9952883  -0.0012340   0.0000079   0.0000462  -0.0000014  -0.0000051  -0.9306783   0.3131388
0.7516822    -0.9953338  -0.0011881   0.0000105   0.0000643  -0.0000061   0.0000039  -0.9304417   0.3133883
0.7609229    -0.9953730  -0.0012034   0.0000259   0.0000596  -0.0000108  -0.0000073  -0.9302693   0.3136903
0.7702771    -0.9952360  -0.0012161  -0.0000027   0.0000703   0.0000060  -0.0000118  -0.9301103   0.3139566
0.7797463    -0.9953472  -0.0011844   0.0000124   0.0000658  -0.0000053  -0.0000039  -0.9299867   0.3143409
0.7893319    -0.9952982  -0.0012979   0.0000115   0.0000526  -0.0000011  -0.0000039  -0.9298566   0.3146606
0.7990353    -0.9953320  -0.0013979   0.0000035   0.0000496   0.0000108   0.0000006  -0.9297423   0.3149845
0.8088580    -0.9954013  -0.0013445   0.0000161   0.0000655  -0.0000011  -0.0000043  -0.9295781   0.3153214
0.8188015    -0.9953161  -0.0013169   0.0000251   0.0000666  -0.0000041  -0.0000032  -0.9294537   0.3156519
0.8288673    -0.9953236  -0.0013375   0.0000258   0.0000616  -0.0000032  -0.0000065  -0.9292674   0.3159989
0.8390567    -0.9953770  -0.0013369   0.0000098   0.0000725   0.0000029  -0.0000167  -0.9291964   0.3163791
0.8493714    -0.9953289  -0.0014638   0.0000300   0.0000801   0.0000081  -0.0000012  -0.9290133   0.3166715
0.8598130    -0.9952847  -0.0013032   0.0000079   0.0000726   0.0000073  -0.0000083  -0.9288463   0.3170546
0.8703829    -0.9952451  -0.0013741   0.0000028   0.0000614   0.0000037  -0.0000044  -0.9286617   0.3173866
0.8810827    -0.9952869  -0.0015250   0.0000152   0.0000622  -0.0000029  -0.0000054  -0.9285109   0.3178376
0.8919140    -0.9954707  -0.0014574   0.0000150   0.0000795   0.0000023  -0.0000108  -0.9283561   0.3181357
0.9028786    -0.9954229  -0.0014303   0.0000005   0.0000612  -0.0000092   0.0000004  -0.9281942   0.3185210
0.9139779    -0.9954619  -0.0014712   0.0000059   0.0000697  -0.0000026  -0.0000067  -0.9280326   0.3189216
0.9252136    -0.9954203  -0.0015494   0.0000163   0.0000741  -0.0000001  -0.0000139  -0.9278553   0.3192816
0.9365875    -0.9953474  -0.0015639   0.0000244   0.0000723  -0.0000034   0.0000006  -0.9276938   0.3196557
0.9481012    -0.9952476  -0.0014583   0.0000248   0.0000786  -0.0000017  -0.0000055  -0.9275186   0.3200543
0.9597564    -0.9954191  -0.0015924   0.0000177   0.0000665  -0.0000017  -0.0000023  -0.9273121   0.3204456
0.9715549    -0.9953330  -0.0015495  -0.0000004   0.0000872  -0.0000036  -0.0000012  -0.9271461   0.3208858
0.9834985    -0.9953650  -0.0016040   0.0000141   0.0000641  -0.0000065  -0.0000013  -0.9270109   0.3212321
0.9955889    -0.9952506  -0.0016479  -0.0000018   0.0000797  -0.0000032  -0.0000050  -0.9268638   0.3216050
1.0078279    -0.9954119  -0.0016383  -0.0000041   0.0000852   0.0000107  -0.0000079  -0.9265545   0.3220619
1.0202173    -0.9952685  -0.0016054   0.0000129   0.0000690   0.0000011  -0.0000053  -0.9264578   0.3224213
1.0327591    -0.9953648  -0.0016663   0.0000168   0.0000743  -0.0000039  -0.0000004  -0.9262505   0.3229331
1.0454551    -0.9953157  -0.0017541   0.0000098   0.0000958   0.0000008  -0.0000101  -0.9260666   0.3233381
1.0583071    -0.9952229  -0.0017951   0.0000206   0.0000852  -0.0000013   0.0000049  -0.9258682   0.3237213
1.0713171    -0.9954003  -0.0017999   0.0000040   0.0000932  -0.0000064   0.0000018  -0.9255917   0.3241481
1.0844871    -0.9953708  -0.0017548   0.0000017   0.0000805  -0.0000048   0.0000027  -0.9254617   0.3245377
1.0978189    -0.9952733  -0.0018586   0.0000023   0.0000899   0.0000007   0.0000068  -0.9252756   0.3250599
1.1113147    -0.9953773  -0.0017684   0.0000146   0.0001000  -0.0000006  -0.0000055  -0.9250334   0.3254274
1.1249763    -0.9953025  -0.0017809  -0.0000009   0.0000810  -0.0000013  -0.0000018  -0.9248774   0.3259905
1.1388059    -0.9953603  -0.0018951   0.0000067   0.0000805  -0.0000019  -0.0000060  -0.9247198   0.3264517
1.1528056    -0.9954343  -0.0018198   0.0000059   0.0001109  -0.0000044  -0.0000036  -0.9244583   0.3268988
1.1669773    -0.9954167  -0.0018937   0.0000115   0.0000956  -0.0000009  -0.0000082  -0.9242727   0.3273953
1.1813232    -0.9953900  -0.0019515   0.0000187   0.0000792  -0.0000031  -0.0000048  -0.9240773   0.3278585
1.1958455    -0.9953569  -0.0019386   0.0000099   0.0000944   0.0000009   0.0000004  -0.9238039   0.3283554
1.2105463    -0.9953758  -0.0019961   0.0000102   0.0000877  -0.0000031  -0.0000085  -0.9236208   0.3288517
1.2254278    -0.9953125  -0.0019333   0.0000005   0.0000697  -0.0000064   0.0000002  -0.9233540   0.3293477
1.2404923    -0.9953252  -0.0019927   0.0000229   0.0000864   0.0000005  -0.0000006  -0.9232183   0.3298264
1.2557420    -0.9953546  -0.0019396   0.0000146   0.0000911   0.0000060  -0.0000034  -0.9229541   0.3303611
1.2711791    -0.9953962  -0.0020443   0.0000142   0.0000807   0.0000058   0.0000032  -0.9226769   0.3308420
1.2868060    -0.9953841  -0.0020365   0.0000061   0.0000933  -0.0000086   0.0000018  -0.9224299   0.3313969
1.3026251    -0.9953280  -0.0021129   0.0000055   0.0001009   0.0000010  -0.0000178  -0.9221532   0.3319239
1.3186385    -0.9953730  -0.0021078   0.0000227   0.0000995  -0.0000032  -0.0000001  -0.9219294   0.3324706
1.3348489    -0.9954640  -0.0021318   0.0000107   0.0000983  -0.0000022  -0.0000067  -0.9217568   0.3330027
1.3512585    -0.9954093  -0.0021858   0.0000136   0.0001197  -0.0000067  -0.0000152  -0.9214508   0.3335168
1.3678698    -0.9953408  -0.0022615   0.0000208   0.0000960  -0.0000091  -0.0000157  -0.9212825   0.3340755
1.3846854    -0.9953322  -0.0021734   0.0000115   0.0000892   0.0000027  -0.0000135  -0.9210106   0.3347380
1.4017077    -0.9953997  -0.0023080   0.0000218   0.0001116   0.0000041   0.0000045  -0.9207423   0.3352204
1.4189392    -0.9953785  -0.0022966   0.0000183   0.0001027   0.0000006   0.0000001  -0.9205003   0.3357456
1.4363825    -0.9953740  -0.0022804   0.0000037   0.0001049  -0.0000072  -0.0000012  -0.9202484   0.3363581
1.4540403    -0.9953320  -0.0023411   0.0000101   0.0001159  -0.0000064  -0.0000011  -0.9199559   0.3369570
1.4719152    -0.9954647  -0.0022603   0.0000146   0.0001020   0.0000078   0.0000075  -0.9197156   0.3376479
1.4900098    -0.9953992  -0.0023530   0.0000146   0.0001181   0.0000059  -0.0000025  -0.9193985   0.3381595
1.5083269    -0.9953850  -0.0024642   0.0000207   0.0001081  -0.0000053   0.0000013  -0.9191216   0.3387463
1.5268691    -0.9953628  -0.0023862   0.0000145   0.0001165   0.0000075  -0.0000016  -0.9188447   0.3393919
1.5456392    -0.9952671  -0.0024105   0.0000191   0.0001236  -0.0000034  -0.0000016  -0.9186352   0.3399954
1.5646402    -0.9953743  -0.0025751   0.0000259   0.0001039   0.0000027  -0.0000022  -0.9183255   0.3407034
1.5838747    -0.9953719  -0.0025260   0.0000062   0.0001240  -0.0000058   0.0000018  -0.9180071   0.3413056
1.6033456    -0.9954613  -0.0025861   0.0000332   0.0001144  -0.0000038   0.0000005  -0.9178175   0.3419714
1.6230559    -0.9953703  -0.0026122   0.0000122   0.0001104   0.0000040  -0.0000088  -0.9174998   0.3426997
1.6430085    -0.9954512  -0.0026417   0.0000146   0.0001126  -0.0000092  -0.0000087  -0.9171685   0.3433497
1.6632064    -0.9954924  -0.0026143   0.0000262   0.0001214  -0.0000108  -0.0000073  -0.9168588   0.3440620
1.6836526    -0.9953335  -0.0027093   0.0000113   0.0001206   0.0000037  -0.0000099  -0.9166106   0.3447857
1.7043502    -0.9954108  -0.0027472   0.0000244   0.0001157   0.0000002  -0.0000113  -0.9161800   0.3455200
1.7253021    -0.9954060  -0.0027700   0.0000329   0.0001199  -0.0000079  -0.0000040  -0.9159925   0.3461715
1.7465117    -0.9953127  -0.0028960   0.0000187   0.0001161   0.0000025  -0.0000055  -0.9157903   0.3469968
1.7679820    -0.9954673  -0.0028830   0.0000120   0.0001279  -0.0000045   0.0000031  -0.9154066   0.3477171
1.7897162    -0.9954778  -0.0028516   0.0000378   0.0001186  -0.0000016  -0.0000074  -0.9151174   0.3484560
1.8117176    -0.9953825  -0.0030117   0.0000178   0.0001304  -0.0000088  -0.0000035  -0.9147761   0.3493066
1.8339895    -0.9953679  -0.0029943   0.0000101   0.0001363  -0.0000118  -0.0000034  -0.9144893   0.3500739
1.8565352    -0.9952835  -0.0029537   0.0000135   0.0001467  -0.0000061  -0.0000007  -0.9141587   0.3508992
1.8793580    -0.9954976  -0.0030979   0.0000119   0.0001287   0.0000050  -0.0000067  -0.9138773   0.3516445
1.9024614    -0.9954352  -0.0030098   0.0000226   0.0001291   0.0000034   0.0000019  -0.9136433   0.3524820
1.9258488    -0.9954073  -0.0031988   0.0000238   0.0001518  -0.0000040  -0.0000066  -0.9132013   0.3533232
1.9495237    -0.9954802  -0.0031472   0.0000153   0.0001365  -0.0000036  -0.0000086  -0.9128573   0.3542622
1.9734897    -0.9953893  -0.0031820   0.0000161   0.0001451  -0.0000027  -0.0000027  -0.9124967   0.3551210
1.9977503    -0.9953537  -0.0032276   0.0000157   0.0001366  -0.0000022  -0.0000100  -0.9121862   0.3560367
2.0223091    -0.9953482  -0.0032862   0.0000288   0.0001340   0.0000036  -0.0000066  -0.9117146   0.3569520
2.0471698    -0.9953742  -0.0032882   0.0000162   0.0001380   0.0000021  -0.0000058  -0.9112576   0.3578717
2.0723362    -0.9953426  -0.0034222   0.0000303   0.0001470  -0.0000052  -0.0000109  -0.9108508   0.3587810
2.0978119    -0.9954935  -0.0034069   0.0000207   0.0001448  -0.0000046  -0.0000081  -0.9103719   0.3597379
2.1236008    -0.9954380  -0.0034741   0.0000184   0.0001380  -0.0000093  -0.0000004  -0.9098752   0.3606545
2.1497067    -0.9954211  -0.0034976   0.0000325   0.0001483  -0.0000046  -0.0000022  -0.9093895   0.3616367
2.1761336    -0.9954466  -0.0035610   0.0000190   0.0001431  -0.0000068  -0.0000094  -0.9089004   0.3624516
2.2028853    -0.9953731  -0.0034812   0.0000082   0.0001536  -0.0000069  -0.0000036  -0.9082573   0.3634525
2.2299659    -0.9954677  -0.0036312   0.0000270   0.0001497  -0.0000041  -0.0000103  -0.9079217   0.3643863
2.2573794    -0.9953853  -0.0036184   0.0000156   0.0001707  -0.0000005   0.0000045  -0.9073349   0.3653268
2.2851299    -0.9954187  -0.0036789   0.0000116   0.0001723  -0.0000203  -0.0000078  -0.9067572   0.3662666
2.3132216    -0.9954361  -0.0037575   0.0000087   0.0001678  -0.0000061  -0.0000051  -0.9062437   0.3671181
2.3416586    -0.9954387  -0.0038175   0.0000276   0.0001583   0.0000013  -0.0000147  -0.9056892   0.3680784
2.3704451    -0.9955228  -0.0038603   0.0000170   0.0001505  -0.0000051  -0.0000091  -0.9051684   0.3691096
2.3995856    -0.9955039  -0.0039512   0.0000277   0.0001608  -0.0000066  -0.0000082  -0.9045189   0.3700807
2.4290843    -0.9954430  -0.0038212   0.0000218   0.0001687  -0.0000003  -0.0000136  -0.9041214   0.3709168
2.4589456    -0.9954799  -0.0040057   0.0000250   0.0001681  -0.0000015  -0.0000055  -0.9035454   0.3719175
2.4891740    -0.9954251  -0.0040198   0.0000291   0.0001557   0.0000065   0.0000046  -0.9030067   0.3729132
2.5197740    -0.9954305  -0.0041043   0.0000231   0.0001647  -0.0000101  -0.0000049  -0.9025121   0.3739415
2.5507502    -0.9954372  -0.0041083   0.0000245   0.0001622  -0.0000041   0.0000006  -0.9019500   0.3748543
2.5821072    -0.9955814  -0.0042186   0.0000212   0.0001697   0.0000005  -0.0000009  -0.9013914   0.3758758
2.6138496    -0.9955404  -0.0042110   0.0000251   0.0001781  -0.0000073  -0.0000027  -0.9007222   0.3768633
2.6459823    -0.9955454  -0.0043079   0.0000138   0.0001648  -0.0000029   0.0000048  -0.9001987   0.3779199
2.6785100    -0.9954752  -0.0043134   0.0000211   0.0001724  -0.0000082  -0.0000121  -0.8996597   0.3790409
2.7114376    -0.9954941  -0.0043906   0.0000155   0.0001835  -0.0000063  -0.0000062  -0.8990225   0.3800620
2.7447699    -0.9954362  -0.0044336   0.0000256   0.0001825   0.0000017  -0.0000063  -0.8984440   0.3810689
2.7785120    -0.9955346  -0.0044675   0.0000292   0.0001825  -0.0000026  -0.0000068  -0.8978285   0.3821643
2.8126689    -0.9954023  -0.0046543   0.0000236   0.0001965  -0.0000122   0.0000035  -0.8973122   0.3833147
2.8472457    -0.9955564  -0.0046336   0.0000295   0.0001955  -0.0000035  -0.0000070  -0.8967607   0.3844286
2.8822476    -0.9954967  -0.0047347   0.0000223   0.0001760   0.0000060   0.0000022  -0.8961782   0.3855124
2.9176798    -0.9954481  -0.0047218   0.0000232   0.0002091  -0.0000007  -0.0000141  -0.8955195   0.3866086
2.9535475    -0.9955291  -0.0048115   0.0000085   0.0001991  -0.0000058  -0.0000054  -0.8949483   0.3878070
2.9898562    -0.9955229  -0.0047396   0.0000216   0.0002084  -0.0000028  -0.0000049  -0.8942470   0.3890268
3.0266112    -0.9954403  -0.0049152   0.0000323   0.0001979  -0.0000014  -0.0000102  -0.8936296   0.3901293
3.0638180    -0.9954799  -0.0050117   0.0000127   0.0002109  -0.0000027  -0.0000106  -0.8929854   0.3913348
3.1014823    -0.9956328  -0.0049722   0.0000197   0.0002151   0.0000122   0.0000001  -0.8923790   0.3926033
3.1396096    -0.9955634  -0.0051165   0.0000235   0.0002035   0.0000007  -0.0000151  -0.8916534   0.3937399
3.1782055    -0.9955484  -0.0052807   0.0000216   0.0002214  -0.0000052  -0.0000060  -0.8910269   0.3950064
3.2172760    -0.9954449  -0.0053141   0.0000120   0.0002179  -0.0000021  -0.0000025  -0.8903442   0.3962763
3.2568267    -0.9955143  -0.0052782   0.0000246   0.0002219   0.0000000   0.0000010  -0.8897056   0.3975141
3.2968637    -0.9956087  -0.0053332   0.0000080   0.0002135   0.0000079  -0.0000071  -0.8889123   0.3988380
3.3373928    -0.9955790  -0.0055306   0.0000412   0.0002230  -0.0000055  -0.0000043  -0.8882090   0.4000991
3.3784202    -0.9955504  -0.0055021   0.0000344   0.0002264   0.0000017  -0.0000115  -0.8874257   0.4014749
3.4199519    -0.9955901  -0.0055836   0.0000280   0.0002283  -0.0000018  -0.0000072  -0.8867184   0.4027799
3.4619942    -0.9955327  -0.0056349   0.0000273   0.0002189   0.0000094  -0.0000015  -0.8859021   0.4040620
3.5045533    -0.9955335  -0.0056399   0.0000374   0.0002270  -0.0000130  -0.0000043  -0.8851955   0.4055343
3.5476356    -0.9955902  -0.0057628   0.0000230   0.0002352  -0.0000032  -0.0000072  -0.8844131   0.4068135
3.5912475    -0.9955719  -0.0058108   0.0000206   0.0002418   0.0000050  -0.0000068  -0.8835820   0.4081858
3.6353956    -0.9955540  -0.0059490   0.0000189   0.0002533  -0.0000033   0.0000033  -0.8828196   0.4096963
3.6800864    -0.9956019  -0.0059508   0.0000152   0.0002516  -0.0000019  -0.0000012  -0.8820544   0.4111741
3.7253266    -0.9955636  -0.0060742   0.0000326   0.0002477  -0.0000012   0.0000029  -0.8812237   0.4125975
3.7711229    -0.9955681  -0.0060752   0.0000154   0.0002395   0.0000036  -0.0000073  -0.8804596   0.4140384
3.8174822    -0.9955181  -0.0062486   0.0000173   0.0002462   0.0000054  -0.0000037  -0.8795996   0.4154965
3.8644115    -0.9956478  -0.0062945   0.0000218   0.0002439  -0.0000027  -0.0000005  -0.8788628   0.4170898
3.9119176    -0.9955362  -0.0063744   0.0000228   0.0002521   0.0000050  -0.0000047  -0.8780034   0.4186069
3.9600077    -0.9955564  -0.0064936   0.0000245   0.0002512  -0.0000003  -0.0000106  -0.8772529   0.4201030
4.0086890    -0.9956188  -0.0064582   0.0000297   0.0002538  -0.0000001  -0.0000011  -0.8762245   0.4216955
4.0579688    -0.9954708  -0.0066576   0.0000295   0.0002558   0.0000105  -0.0000087  -0.8753939   0.4232443
4.1078544    -0.9955973  -0.0066774   0.0000312   0.0002677   0.0000009  -0.0000062  -0.8745147   0.4247613
4.1583532    -0.9955784  -0.0068344   0.0000358   0.0002703  -0.0000076  -0.0000134  -0.8735491   0.4263804
4.2094729    -0.9956564  -0.0069174   0.0000162   0.0002835  -0.0000130  -0.0000085  -0.8727399   0.4279787
4.2612209    -0.9955906  -0.0070326   0.0000308   0.0002923   0.0000049  -0.0000003  -0.8717528   0.4295703
4.3136051    -0.9955561  -0.0070055   0.0000245   0.0002750   0.0000094  -0.0000038  -0.8707551   0.4312195
4.3666333    -0.9956315  -0.0071315   0.0000301   0.0002941  -0.0000042  -0.0000094  -0.8698497   0.4329018
4.4203134    -0.9956525  -0.0071990   0.0000176   0.0002924  -0.0000094  -0.0000055  -0.8687537   0.4345216
4.4746534    -0.9955139  -0.0073094   0.0000282   0.0002842  -0.0000100  -0.0000040  -0.8676684   0.4362446
4.5296613    -0.9956197  -0.0074358   0.0000309   0.0003208  -0.0000140  -0.0000062  -0.8666960   0.4379928
4.5853455    -0.9956610  -0.0074499   0.0000378   0.0002969   0.0000126  -0.0000056  -0.8655878   0.4397037
4.6417143    -0.9956452  -0.0076322   0.0000291   0.0003130   0.0000038  -0.0000010  -0.8644354   0.4412928
4.6987760    -0.9956135  -0.0076118   0.0000381   0.0003038  -0.0000146  -0.0000077  -0.8633619   0.4429503
4.7565392    -0.9956377  -0.0077470   0.0000363   0.0003196  -0.0000048  -0.0000118  -0.8622112   0.4446939
4.8150125    -0.9956132  -0.0078112   0.0000289   0.0003161   0.0000012  -0.0000054  -0.8610678   0.4463435
4.8742045    -0.9956557  -0.0079965   0.0000423   0.0003222   0.0000013  -0.0000100  -0.8598778   0.4479819
4.9341243    -0.9956020  -0.0079511   0.0000366   0.0003321  -0.0000079  -0.0000109  -0.8588102   0.4494953
4.9947807    -0.9955980  -0.0081362   0.0000397   0.0003315  -0.0000006  -0.0000013  -0.8578174   0.4510817
5.0561827    -0.9956620  -0.0081471   0.0000388   0.0003478  -0.0000007  -0.0000055  -0.8568059   0.4527803
5.1183396    -0.9956041  -0.0083762   0.0000335   0.0003259   0.0000014  -0.0000067  -0.8558557   0.4544847
5.1812606    -0.9954808  -0.0085073   0.0000285   0.0003281   0.0000041   0.0000007  -0.8549632   0.4562606
5.2449550    -0.9956677  -0.0086293   0.0000341   0.0003443  -0.0000038  -0.0000165  -0.8540537   0.4582926
5.3094325    -0.9956936  -0.0087372   0.0000268   0.0003474  -0.0000002  -0.0000129  -0.8530595   0.4601084
5.3747026    -0.9955673  -0.0086878   0.0000371   0.0003554  -0.0000032  -0.0000010  -0.8520304   0.4623129
5.4407751    -0.9955490  -0.0087437   0.0000378   0.0003437   0.0000050  -0.0000045  -0.8508710   0.4642557
5.5076599    -0.9956570  -0.0089782   0.0000221   0.0003496  -0.0000117  -0.0000096  -0.8497691   0.4663224
5.5753669    -0.9956323  -0.0091179   0.0000291   0.0003524   0.0000046  -0.0000046  -0.8485973   0.4684798
5.6439062    -0.9956767  -0.0092429   0.0000450   0.0003621   0.0000020  -0.0000020  -0.8474325   0.4705647
5.7132881    -0.9955938  -0.0092963   0.0000455   0.0003727  -0.0000053  -0.0000021  -0.8461542   0.4727491
5.7835229    -0.9956401  -0.0094338   0.0000409   0.0003707   0.0000120  -0.0000015  -0.8448744   0.4749231
5.8546211    -0.9957051  -0.0095371   0.0000333   0.0003881   0.0000019  -0.0000059  -0.8436650   0.4771559
5.9265934    -0.9956714  -0.0096498   0.0000408   0.0003834   0.0000031  -0.0000032  -0.8422969   0.4793258
5.9994504    -0.9957243  -0.0097371   0.0000464   0.0003825  -0.0000047  -0.0000054  -0.8409209   0.4814409
6.0732031    -0.9956671  -0.0099551   0.0000280   0.0003876  -0.0000113  -0.0000100  -0.8395623   0.4836481
6.1478624    -0.9957257  -0.0098694   0.0000391   0.0003931   0.0000063  -0.0000045  -0.8381859   0.4858738
6.2234396    -0.9956315  -0.0101559   0.0000325   0.0003925  -0.0000013  -0.0000036  -0.8366054   0.4881844
6.2999458    -0.9957215  -0.0103402   0.0000492   0.0003913  -0.0000015  -0.0000074  -0.8352632   0.4904485
6.3773925    -0.9957015  -0.0103536   0.0000319   0.0004106  -0.0000065  -0.0000109  -0.8337530   0.4927246
6.4557914    -0.9956104  -0.0104888   0.0000257   0.0004077   0.0000019  -0.0000044  -0.8322471   0.4949631
6.5351539    -0.9957084  -0.0106768   0.0000435   0.0004115  -0.0000016   0.0000001  -0.8307492   0.4973691
6.6154922    -0.9956003  -0.0108059   0.0000365   0.0004174   0.0000017  -0.0000067  -0.8291662   0.4997310
6.6968180    -0.9956616  -0.0108441   0.0000404   0.0004232  -0.0000013  -0.0000054  -0.8275994   0.5021189
6.7791436    -0.9956218  -0.0110659   0.0000435   0.0004283  -0.0000036  -0.0000061  -0.8260330   0.5044637
6.8624812    -0.9956985  -0.0112975   0.0000307   0.0004331  -0.0000017  -0.0000108  -0.8244187   0.5069328
6.9468433    -0.9957422  -0.0113473   0.0000328   0.0004396  -0.0000075   0.0000006  -0.8228260   0.5093485
7.0322425    -0.9957619  -0.0114861   0.0000416   0.0004301  -0.0000001  -0.0000017  -0.8211146   0.5118158
7.1186916    -0.9956668  -0.0116026   0.0000684   0.0004678   0.0000055  -0.0000068  -0.8194095   0.5143454
7.2062034    -0.9957052  -0.0117678   0.0000299   0.0004580  -0.0000054  -0.0000028  -0.8176992   0.5169044
7.2947909    -0.9956931  -0.0118135   0.0000251   0.0004452  -0.0000060  -0.0000003  -0.8159561   0.5194736
7.3844675    -0.9956996  -0.0120652   0.0000535   0.0004863  -0.0000109  -0.0000018  -0.8142863   0.5220747
7.4752466    -0.9957226  -0.0122224   0.0000387   0.0004785   0.0000062  -0.0000064  -0.8124937   0.5246904
7.5671416    -0.9957255  -0.0123735   0.0000340   0.0004772  -0.0000101   0.0000033  -0.8107805   0.5273408
7.6601662    -0.9956728  -0.0124896   0.0000600   0.0004915  -0.0000032  -0.0000058  -0.8089321   0.5300260
7.7543345    -0.9957494  -0.0125801   0.0000442   0.0004832  -0.0000011  -0.0000027  -0.8070409   0.5328550
7.8496604    -0.9956831  -0.0128419   0.0000442   0.0004866  -0.0000081  -0.0000079  -0.8052010   0.5356596
7.9461581    -0.9958307  -0.0128967   0.0000506   0.0004907  -0.0000041  -0.0000001  -0.8031845   0.5385086
8.0438422    -0.9956986  -0.0132001   0.0000488   0.0005177  -0.0000019   0.0000034  -0.8012046   0.5413537
8.1427270    -0.9957487  -0.0132623   0.0000483   0.0005092   0.0000042   0.0000010  -0.7990345   0.5443276
8.2428275    -0.9957161  -0.0133462   0.0000498   0.0005187   0.0000016   0.0000028  -0.7968067   0.5471867
8.3441586    -0.9956951  -0.0134779   0.0000520   0.0005357  -0.0000017   0.0000017  -0.7946318   0.5499687
8.4467353    -0.9956846  -0.0137702   0.0000562   0.0005354   0.0000085  -0.0000037  -0.7923743   0.5529673
8.5505731    -0.9957000  -0.0139002   0.0000579   0.0005284   0.0000036  -0.0000037  -0.7900742   0.5557386
8.6556873    -0.9956234  -0.0141395   0.0000471   0.0005478   0.0000022  -0.0000069  -0.7877981   0.5586649
8.7620937    -0.9957061  -0.0142668   0.0000482   0.0005487  -0.0000146  -0.0000022  -0.7855033   0.5615264
8.8698082    -0.9957463  -0.0145503   0.0000383   0.0005586   0.0000006  -0.0000076  -0.7831491   0.5644380
8.9788469    -0.9956696  -0.0146430   0.0000514   0.0005607   0.0000057  -0.0000060  -0.7808526   0.5673655
9.0892260    -0.9958128  -0.0148136   0.0000467   0.0005620  -0.0000017  -0.0000065  -0.7784899   0.5703176
9.2009621    -0.9957583  -0.0150537   0.0000610   0.0005748  -0.0000012  -0.0000011  -0.7759998   0.5733714
9.3140717    -0.9956650  -0.0151282   0.0000454   0.0005829   0.0000038   0.0000058  -0.7735743   0.5763568
9.4285718    -0.9957146  -0.0152980   0.0000427   0.0005850  -0.0000053  -0.0000121  -0.7711036   0.5794398
9.5444795    -0.9958227  -0.0155626   0.0000516   0.0005928  -0.0000082   0.0000062  -0.7685506   0.5825374
9.6618121    -0.9957087  -0.0157603   0.0000553   0.0006111   0.0000018  -0.0000043  -0.7660223   0.5856292
9.7805870    -0.9957435  -0.0159702   0.0000511   0.0005978   0.0000009   0.0000032  -0.7634060   0.5888029
9.9008221    -0.9957925  -0.0161832   0.0000497   0.0006159   0.0000039  -0.0000012  -0.7607542   0.5920226
10.0225353   -0.9956638  -0.0162627   0.0000733   0.0006244  -0.0000049  -0.0000083  -0.7581033   0.5951324
10.1457447   -0.9957319  -0.0165008   0.0000630   0.0006241  -0.0000039  -0.0000058  -0.7553612   0.5984296
10.2704688   -0.9957000  -0.0166630   0.0000647   0.0006491  -0.0000041  -0.0000085  -0.7526769   0.6017045
10.3967261   -0.9958209  -0.0170016   0.0000664   0.0006234  -0.0000061  -0.0000066  -0.7498397   0.6050384
10.5245356   -0.9956879  -0.0171937   0.0000581   0.0006605  -0.0000079  -0.0000076  -0.7469667   0.6082174
10.6539162   -0.9958424  -0.0172745   0.0000780   0.0006636   0.0000029   0.0000029  -0.7440703   0.6115378
10.7848873   -0.9957354  -0.0175399   0.0000613   0.0006700   0.0000005  -0.0000063  -0.7411368   0.6149778
10.9174685   -0.9957615  -0.0177846   0.0000594   0.0006871  -0.0000070  -0.0000035  -0.7381281   0.6183689
11.0516796   -0.9957196  -0.0180153   0.0000878   0.0006795  -0.0000045   0.0000037  -0.7349763   0.6217995
11.1875405   -0.9957299  -0.0180962   0.0000758   0.0006911   0.0000009  -0.0000076  -0.7319551   0.6253218
11.3250716   -0.9957821  -0.0184639   0.0000683   0.0007056  -0.0000013  -0.0000002  -0.7288001   0.6287838
11.4642934   -0.9957300  -0.0187004   0.0000862   0.0007054  -0.0000070  -0.0000020  -0.7255736   0.6322627
11.6052267   -0.9957272  -0.0188504   0.0000776   0.0007236  -0.0000104  -0.0000051  -0.7223402   0.6358978
11.7478926   -0.9957106  -0.0190314   0.0000633   0.0007243  -0.0000036   0.0000009  -0.7190147   0.6394037
11.8923122   -0.9958157  -0.0192819   0.0000855   0.0007282   0.0000007   0.0000002  -0.7156511   0.6429700
12.0385073   -0.9956390  -0.0195289   0.0000821   0.0007415  -0.0000075  -0.0000003  -0.7121713   0.6466395
12.1864995   -0.9958473  -0.0198676   0.0000751   0.0007448  -0.0000044  -0.0000095  -0.7086981   0.6502674
12.3363111   -0.9957291  -0.0200675   0.0000795   0.0007684  -0.0000098  -0.0000015  -0.7052440   0.6539590
12.4879643   -0.9956746  -0.0203744   0.0000698   0.0007703  -0.0000047  -0.0000026  -0.7015574   0.6576797
12.6414818   -0.9957338  -0.0205759   0.0000654   0.0007703   0.0000050  -0.0000068  -0.6978449   0.6613944
12.7968866   -0.9956823  -0.0208671   0.0000834   0.0007735   0.0000019  -0.0000131  -0.6941116   0.6651428
12.9542018   -0.9956817  -0.0210100   0.0000828   0.0008147   0.0000027   0.0000004  -0.6903715   0.6689079
13.1134509   -0.9956845  -0.0213455   0.0000810   0.0007985  -0.0000100  -0.0000035  -0.6864955   0.6727020
13.2746577   -0.9957522  -0.0216360   0.0000785   0.0008124  -0.0000033  -0.0000037  -0.6825288   0.6765492
13.4378462   -0.9957967  -0.0217467   0.0000764   0.0008237   0.0000116  -0.0000093  -0.6785797   0.6805044
13.6030409   -0.9957516  -0.0221158   0.0000720   0.0008341   0.0000024  -0.0000091  -0.6744924   0.6843455
13.7702663   -0.9958157  -0.0223147   0.0000796   0.0008356  -0.0000078   0.0000053  -0.6703140   0.6882447
13.9395475   -0.9957276  -0.0225739   0.0000916   0.0008628  -0.0000009  -0.0000010  -0.6661352   0.6921232
14.1109097   -0.9957231  -0.0229444   0.0000896   0.0008584  -0.0000038  -0.0000051  -0.6618006   0.6961022
14.2843785   -0.9957276  -0.0231665   0.0000774   0.0008743   0.0000052   0.0000030  -0.6574447   0.7000021
14.4599797   -0.9957325  -0.0235575   0.0000845   0.0008868   0.0000036  -0.0000067  -0.6530176   0.7040575
14.6377397   -0.9957119  -0.0236516   0.0000814   0.0008972  -0.0000093  -0.0000076  -0.6485291   0.7080584
14.8176850   -0.9957468  -0.0240187   0.0000753   0.0008930  -0.0000131   0.0000027  -0.6439510   0.7120446
14.9998423   -0.9957108  -0.0242122   0.0000875   0.0009112  -0.0000022  -0.0000131  -0.6392536   0.7161155
15.1842390   -0.9956934  -0.0245429   0.0000867   0.0009323  -0.0000130   0.0000049  -0.6344815   0.7202062
15.3709024   -0.9957239  -0.0248920   0.0000816   0.0009303  -0.0000048   0.0000017  -0.6297241   0.7242485
15.5598606   -0.9957218  -0.0251516   0.0001118   0.0009472  -0.0000054  -0.0000108  -0.6248621   0.7283607
15.7511417   -0.9956393  -0.0256177   0.0001026   0.0009488   0.0000019  -0.0000063  -0.6198680   0.7325479
15.9447743   -0.9956551  -0.0258903   0.0000980   0.0009737   0.0000020  -0.0000005  -0.6148227   0.7366409
16.1407872   -0.9957000  -0.0261585   0.0000976   0.0009799  -0.0000153  -0.0000110  -0.6095775   0.7408179
16.3392097   -0.9957127  -0.0264672   0.0001174   0.0009932  -0.0000056   0.0000011  -0.6043237   0.7450111
16.5400716   -0.9956871  -0.0267774   0.0001051   0.0010029  -0.0000077   0.0000002  -0.5990279   0.7492048
16.7434026   -0.9957059  -0.0270660   0.0001037   0.0010193  -0.0000112  -0.0000024  -0.5935454   0.7533613
16.9492333   -0.9957062  -0.0274766   0.0001169   0.0010230   0.0000049   0.0000022  -0.5880423   0.7577115
17.1575942   -0.9957332  -0.0278350   0.0000998   0.0010446  -0.0000039   0.0000064  -0.5824226   0.7618352
17.3685166   -0.9957607  -0.0280765   0.0001085   0.0010485  -0.0000002   0.0000013  -0.5767305   0.7661086
17.5820320   -0.9956754  -0.0284521   0.0001119   0.0010562  -0.0000036  -0.0000010  -0.5708657   0.7702965
17.7981721   -0.9956628  -0.0288356   0.0000952   0.0010748  -0.0000008  -0.0000063  -0.5649477   0.7746078
18.0169693   -0.9956881  -0.0291330   0.0001117   0.0010995  -0.0000148   0.0000015  -0.5589829   0.7788677
18.2384562   -0.9955963  -0.0294822   0.0001100   0.0011101  -0.0000088  -0.0000066  -0.5528978   0.7832294
18.4626659   -0.9957052  -0.0299780   0.0001166   0.0011240   0.0000017  -0.0000043  -0.5466180   0.7874117
18.6896319   -0.9956501  -0.0302384   0.0001229   0.0011389  -0.0000066   0.0000047  -0.5403799   0.7916946
18.9193880   -0.9956872  -0.0307201   0.0000990   0.0011434  -0.0000040  -0.0000020  -0.5338648   0.7960754
19.1519686   -0.9957058  -0.0310064   0.0001359   0.0011562   0.0000009  -0.0000067  -0.5272533   0.8003731
19.3874083   -0.9957110  -0.0313636   0.0001248   0.0011728  -0.0000090  -0.0000072  -0.5205907   0.8046701
19.6257423   -0.9957366  -0.0317364   0.0001309   0.0011956  -0.0000034  -0.0000054  -0.5139282   0.8090026
19.8670063   -0.9956641  -0.0321259   0.0001302   0.0012027  -0.0000003  -0.0000053  -0.5070653   0.8132444
20.1112361   -0.9956794  -0.0324684   0.0001386   0.0012112   0.0000014   0.0000039  -0.5000667   0.8175503
20.3584684   -0.9956610  -0.0329890   0.0001191   0.0012342  -0.0000109  -0.0000031  -0.4928451   0.8218131
20.6087399   -0.9956292  -0.0333347   0.0001445   0.0012425   0.0000064  -0.0000074  -0.4856078   0.8260492
20.8620881   -0.9956527  -0.0336906   0.0001452   0.0012532  -0.0000070   0.0000015  -0.4781752   0.8303917
21.1185507   -0.9956305  -0.0341618   0.0001372   0.0012684  -0.0000055   0.0000029  -0.4706816   0.8346281
21.3781661   -0.9956235  -0.0345093   0.0001363   0.0012888  -0.0000035  -0.0000010  -0.4630449   0.8387695
21.6409730   -0.9956835  -0.0350126   0.0001366   0.0012977  -0.0000039  -0.0000078  -0.4552968   0.8429882
21.9070107   -0.9956106  -0.0354958   0.0001618   0.0013209  -0.0000070   0.0000040  -0.4474480   0.8472129
22.1763188   -0.9956012  -0.0359002   0.0001486   0.0013376  -0.0000040   0.0000040  -0.4393970   0.8514093
22.4489376   -0.9956017  -0.0362740   0.0001570   0.0013594  -0.0000043  -0.0000038  -0.4312338   0.8556008
22.7249077   -0.9956425  -0.0366255   0.0001623   0.0013654  -0.0000006  -0.0000028  -0.4229033   0.8597198
23.0042705   -0.9955532  -0.0371871   0.0001645   0.0013907  -0.0000025   0.0000032  -0.4144679   0.8638397
23.2870675   -0.9955855  -0.0376472   0.0001593   0.0014009  -0.0000063   0.0000051  -0.4059703   0.8679089
23.5733409   -0.9956091  -0.0380073   0.0001577   0.0014096  -0.0000101  -0.0000119  -0.3971808   0.8719871
23.8631337   -0.9955785  -0.0385745   0.0001579   0.0014253  -0.0000095   0.0000009  -0.3882574   0.8759217
24.1564889   -0.9955703  -0.0389988   0.0001603   0.0014471  -0.0000145   0.0000020  -0.3793041   0.8799030
24.4534504   -0.9954920  -0.0394249   0.0001855   0.0014665  -0.0000039  -0.0000033  -0.3701540   0.8837846
24.7540625   -0.9955434  -0.0399099   0.0001761   0.0014862  -0.0000011  -0.0000056  -0.3608652   0.8877116
25.0583701   -0.9954356  -0.0404418   0.0001752   0.0014858   0.0000015  -0.0000007  -0.3513553   0.8915770
25.3664186   -0.9955190  -0.0409712   0.0001759   0.0015226  -0.0000058  -0.0000061  -0.3416299   0.8953736
25.6782541   -0.9954909  -0.0414066   0.0001797   0.0015434   0.0000039  -0.0000031  -0.3318719   0.8991532
25.9939230   -0.9953849  -0.0420254   0.0001887   0.0015518  -0.0000041  -0.0000050  -0.3219447   0.9027781
26.3134725   -0.9953658  -0.0424624   0.0001900   0.0015799   0.0000036  -0.0000035  -0.3118192   0.9063520
26.6369503   -0.9953877  -0.0429621   0.0001732   0.0015900  -0.0000030  -0.0000139  -0.3015927   0.9099376
26.9644047   -0.9953679  -0.0434733   0.0001868   0.0015958   0.0000019   0.0000037  -0.2911556   0.9134289
27.2958846   -0.9954360  -0.0440018   0.0001925   0.0016160  -0.0000076   0.0000021  -0.2805167   0.9167797
27.6314394   -0.9954647  -0.0445372   0.0002009   0.0016452  -0.0000017  -0.0000051  -0.2698048   0.9201340
27.9711193   -0.9954298  -0.0451432   0.0001974   0.0016590   0.0000071  -0.0000031  -0.2588429   0.9232956
28.3149750   -0.9954144  -0.0455728   0.0002032   0.0016793   0.0000039  -0.0000051  -0.2477763   0.9264440
28.6630578   -0.9954318  -0.0462042   0.0002077   0.0017092  -0.0000087  -0.0000003  -0.2365017   0.9294491
29.0154196   -0.9953188  -0.0467767   0.0002052   0.0017217  -0.0000064  -0.0000030  -0.2250419   0.9323611
29.3721131   -0.9953758  -0.0472918   0.0002090   0.0017426   0.0000014  -0.0000039  -0.2134533   0.9351741
29.7331915   -0.9952395  -0.0479493   0.0002294   0.0017687  -0.0000054  -0.0000036  -0.2016027   0.9379710
30.0987087   -0.9952334  -0.0485009   0.0002286   0.0017890  -0.0000033   0.0000123  -0.1897006   0.9405994
30.4687194   -0.9952602  -0.0491006   0.0002213   0.0018159  -0.0000021  -0.0000058  -0.1775500   0.9431766
30.8432786   -0.9952837  -0.0496892   0.0002344   0.0018356  -0.0000102   0.0000030  -0.1652043   0.9454509
31.2224424   -0.9952099  -0.0502612   0.0002444   0.0018499   0.0000061   0.0000027  -0.1527992   0.9476807
31.6062674   -0.9952185  -0.0509477   0.0002474   0.0018852  -0.0000091  -0.0000072  -0.1400337   0.9498177
31.9948108   -0.9952487  -0.0514300   0.0002530   0.0018929   0.0000000   0.0000043  -0.1271896   0.9518871
32.3881306   -0.9951584  -0.0520888   0.0002615   0.0019189  -0.0000007  -0.0000042  -0.1141830   0.9537462
32.7862857   -0.9950702  -0.0527594   0.0002694   0.0019447  -0.0000070  -0.0000062  -0.1009629   0.9553778
33.1893353   -0.9952074  -0.0534186   0.0002874   0.0019495  -0.0000018  -0.0000006  -0.0875903   0.9570247
33.5973398   -0.9951479  -0.0540159   0.0002749   0.0019841   0.0000037  -0.0000116  -0.0740442   0.9583378
34.0103599   -0.9950692  -0.0546774   0.0002764   0.0019934  -0.0000011   0.0000036  -0.0602129   0.9594876
34.4284574   -0.9951884  -0.0553455   0.0002799   0.0020199  -0.0000075  -0.0000028  -0.0465159   0.9606917
34.8516946   -0.9950525  -0.0559421   0.0002630   0.0020489  -0.0000053   0.0000028  -0.0322434   0.9616950
35.2801349   -0.9950484  -0.0567378   0.0002762   0.0020891  -0.0000032  -0.0000036  -0.0177784   0.9624635
35.7138420   -0.9949029  -0.0573855   0.0002853   0.0021055  -0.0000069  -0.0000060  -0.0032039   0.9628964
36.1528808   -0.9948647  -0.0580063   0.0002781   0.0021532  -0.0000086  -0.0000063   0.0115347   0.9632563
36.5973168   -0.9949197  -0.0587699   0.0003056   0.0021730   0.0000000  -0.0000055   0.0264333   0.9633738
37.0472164   -0.9949240  -0.0594512   0.0002997   0.0022132  -0.0000010  -0.0000025   0.0415912   0.9631242
37.5026467   -0.9948582  -0.0602214   0.0003058   0.0022280   0.0000005  -0.0000051   0.0569194   0.9628974
37.9636757   -0.9948351  -0.0609712   0.0003381   0.0022437  -0.0000025  -0.0000048   0.0726387   0.9619464
38.4303722   -0.9947313  -0.0617184   0.0003382   0.0022780   0.0000012  -0.0000023   0.0881824   0.9611452
38.9028060   -0.9948348  -0.0624633   0.0003631   0.0022913   0.0000032   0.0000041   0.1040381   0.9599848
39.3810475   -0.9947361  -0.0631648   0.0003696   0.0023225  -0.0000019   0.0000034   0.1201362   0.9586652
39.8651681   -0.9948029  -0.0639445   0.0003657   0.0023434  -0.0000008   0.0000047   0.1362896   0.9569852
40.3552402   -0.9947530  -0.0647080   0.0003849   0.0023792   0.0000052   0.0000025   0.1527017   0.9550329
40.8513368   -0.9947086  -0.0655889   0.0003922   0.0024026  -0.0000009  -0.0000083   0.1693457   0.9526915
41.3535320   -0.9946718  -0.0663699   0.0003882   0.0024343  -0.0000069  -0.0000035   0.1860114   0.9501695
41.8619009   -0.9946590  -0.0671574   0.0003832   0.0024568  -0.0000012   0.0000013   0.2030277   0.9472720
42.3765193   -0.9945925  -0.0680247   0.0004047   0.0024851   0.0000010  -0.0000008   0.2201222   0.9440599
42.8974639   -0.9944643  -0.0686965   0.0004065   0.0024989  -0.0000026   0.0000052   0.2373514   0.9404513
43.4248127   -0.9945237  -0.0696361   0.0004055   0.0025330   0.0000010  -0.0000060   0.2547651   0.9366341
43.9586443   -0.9943785  -0.0703798   0.0004244   0.0025461   0.0000045  -0.0000092   0.2723270   0.9323410
44.4990385   -0.9943576  -0.0712501   0.0004388   0.0025821  -0.0000060   0.0000010   0.2900678   0.9276746
45.0460758   -0.9943959  -0.0722318   0.0004506   0.0026050   0.0000030   0.0000042   0.3079234   0.9226692
45.5998380   -0.9943222  -0.0729777   0.0004331   0.0026301  -0.0000014  -0.0000026   0.3258964   0.9172927
46.1604077   -0.9942373  -0.0739217   0.0004560   0.0026695  -0.0000057  -0.0000096   0.3439905   0.9114112
46.7278686   -0.9941567  -0.0748193   0.0004532   0.0027023  -0.0000078  -0.0000061   0.3622095   0.9051561
47.3023055   -0.9941271  -0.0756813   0.0004564   0.0027278  -0.0000035   0.0000063   0.3805383   0.8984954
47.8838040   -0.9939352  -0.0766562   0.0004619   0.0027307   0.0000035  -0.0000116   0.3990787   0.8913030
48.4724511   -0.9941072  -0.0775341   0.0004564   0.0027914  -0.0000043   0.0000037   0.4175483   0.8837820
49.0683345   -0.9939767  -0.0784790   0.0004462   0.0028224  -0.0000065   0.0000016   0.4362200   0.8757527
49.6715433   -0.9937570  -0.0794654   0.0004618   0.0028691  -0.0000056  -0.0000091   0.4548566   0.8672616
50.2821675   -0.9937892  -0.0804154   0.0004697   0.0029041  -0.0000049  -0.0000026   0.4737366   0.8581977
50.9002982   -0.9936661  -0.0814168   0.0004720   0.0029269  -0.0000001  -0.0000023   0.4925113   0.8486204
51.5260277   -0.9936703  -0.0824204   0.0004404   0.0029758   0.0000016  -0.0000145   0.5114078   0.8386844
52.1594495   -0.9934746  -0.0834411   0.0004261   0.0030377   0.0000007  -0.0000111   0.5302185   0.8281260
52.8006581   -0.9934275  -0.0844510   0.0004452   0.0031111   0.0000019  -0.0000070   0.5491565   0.8169084
53.4497492   -0.9934051  -0.0855419   0.0004588   0.0031792   0.0000038  -0.0000035   0.5682259   0.8053365
54.1068198   -0.9933580  -0.0865684   0.0005250   0.0032309   0.0000014  -0.0000070   0.5870810   0.7931806
54.7719678   -0.9933249  -0.0876202   0.0005558   0.0032705  -0.0000080  -0.0000108   0.6059003   0.7804755
55.4452927   -0.9933750  -0.0887585   0.0005698   0.0032804  -0.0000031   0.0000036   0.6248029   0.7668483
56.1268950   -0.9931692  -0.0897264   0.0005573   0.0033247  -0.0000012  -0.0000006   0.6436129   0.7528409
56.8168763   -0.9930511  -0.0908994   0.0006032   0.0033793  -0.0000113  -0.0000002   0.6623330   0.7382715
57.5153398   -0.9930172  -0.0919838   0.0006334   0.0034284  -0.0000006  -0.0000099   0.6809259   0.7230836
58.2223896   -0.9929060  -0.0930422   0.0006654   0.0034612   0.0000062  -0.0000063   0.6993919   0.7071741
58.9381314   -0.9928468  -0.0941135   0.0006846   0.0034837   0.0000077  -0.0000018   0.7177304   0.6906869
59.6626719   -0.9927618  -0.0953111   0.0006896   0.0035074   0.0000018  -0.0000044   0.7358872   0.6734457
60.3961194   -0.9927075  -0.0964303   0.0006819   0.0035453  -0.0000076  -0.0000076   0.7539451   0.6555725
61.1385834   -0.9925853  -0.0976621   0.0006927   0.0035957   0.0000077  -0.0000151   0.7717916   0.6369847
61.8901746   -0.9925194  -0.0988152   0.0007186   0.0036394  -0.0000007  -0.0000055   0.7892939   0.6177425
62.6510053   -0.9924251  -0.0999345   0.0007530   0.0036986  -0.0000042  -0.0000129   0.8065969   0.5978861
63.4211891   -0.9922194  -0.1013598   0.0007480   0.0037470  -0.0000005   0.0000010   0.8236544   0.5771804
64.2008409   -0.9921068  -0.1025708   0.0007586   0.0038138  -0.0000013  -0.0000071   0.8403290   0.5559154
64.9900772   -0.9920436  -0.1037476   0.0007818   0.0038898   0.0000060  -0.0000039   0.8567017   0.5338548
65.7890158   -0.9918484  -0.1051100   0.0008541   0.0039121   0.0000066  -0.0000067   0.8726612   0.5111127
66.5977759   -0.9918059  -0.1062593   0.0008693   0.0039604  -0.0000110   0.0000004   0.8881822   0.4875516
67.4164783   -0.9917330  -0.1076604   0.0009129   0.0039960   0.0000024  -0.0000098   0.9034119   0.4632958
68.2452452   -0.9916143  -0.1088612   0.0009409   0.0040368  -0.0000016  -0.0000030   0.9180764   0.4384124
69.0842003   -0.9914984  -0.1101426   0.0009691   0.0040584  -0.0000021  -0.0000152   0.9322427   0.4127304
69.9334689   -0.9915500  -0.1115080   0.0009854   0.0041075  -0.0000106  -0.0000085   0.9455765   0.3863505
70.7931778   -0.9911740  -0.1128882   0.0010095   0.0041357   0.0000082  -0.0000021   0.9591080   0.3591561
71.6634552   -0.9910569  -0.1142943   0.0010222   0.0041544  -0.0000035  -0.0000070   0.9716677   0.3310241
72.5444312   -0.9909143  -0.1156492   0.0010248   0.0042096   0.0000123   0.0000005   0.9836817   0.3023485
73.4362373   -0.9906097  -0.1171008   0.0010031   0.0042602  -0.0000012  -0.0000107   0.9948434   0.2729349
74.3390065   -0.9907067  -0.1184196   0.0010508   0.0043644   0.0000080  -0.0000129   1.0046945   0.2431284
75.2528737   -0.9905437  -0.1198804   0.0010772   0.0044252  -0.0000040  -0.0000102   1.0143737   0.2123149
76.1779753   -0.9904449  -0.1213224   0.0011373   0.0044854  -0.0000051  -0.0000124   1.0232854   0.1808396
77.1144493   -0.9902556  -0.1227979   0.0011669   0.0045108  -0.0000026  -0.0000045   1.0313023   0.1486103
78.0624357   -0.9900435  -0.1243790   0.0012153   0.0045793  -0.0000029  -0.0000080   1.0384154   0.1157628
79.0220759   -0.9899587  -0.1258232   0.0012372   0.0046136   0.0000002  -0.0000036   1.0445212   0.0821697
79.9935132   -0.9897879  -0.1272430   0.0012514   0.0046490   0.0000041  -0.0000131   1.0496229   0.0480313
80.9768926   -0.9895775  -0.1289207   0.0012705   0.0046934  -0.0000064  -0.0000116   1.0537186   0.0132410
81.9723609   -0.9892427  -0.1304636   0.0012896   0.0047588   0.0000053  -0.0000071   1.0567157  -0.0222640
82.9800667   -0.9892490  -0.1318971   0.0013038   0.0048198  -0.0000016  -0.0000180   1.0586042  -0.0582525
84.0001605   -0.9890688  -0.1335310   0.0013621   0.0049057   0.0000053  -0.0000160   1.0593000  -0.0947391
85.0327946   -0.9887028  -0.1352977   0.0014007   0.0049770   0.0000022  -0.0000081   1.0586965  -0.1319093
86.0781231   -0.9886157  -0.1368691   0.0014533   0.0050310   0.0000029  -0.0000101   1.0568105  -0.1694968
87.1363020   -0.9883863  -0.1385029   0.0015407   0.0050592   0.0000048  -0.0000041   1.0536046  -0.2074041
88.2074894   -0.9880936  -0.1402881   0.0015723   0.0051093  -0.0000051  -0.0000155   1.0489040  -0.2458368
89.2918452   -0.9880604  -0.1419539   0.0015835   0.0051479  -0.0000005  -0.0000021   1.0430306  -0.2849234
90.3895312   -0.9877505  -0.1435434   0.0016490   0.0051889  -0.0000024  -0.0000180   1.0355088  -0.3237174
91.5007114   -0.9874330  -0.1453146   0.0016717   0.0052339  -0.0000084  -0.0000163   1.0264270  -0.3630294
92.6255515   -0.9871930  -0.1470196   0.0017049   0.0052570  -0.0000034  -0.0000041   1.0155656  -0.4024850
93.7642195   -0.9869768  -0.1487515   0.0017131   0.0053217  -0.0000052  -0.0000188   1.0031624  -0.4420937
94.9168855   -0.9866217  -0.1506299   0.0017297   0.0054214  -0.0000125  -0.0000104   0.9892346  -0.4818269
96.0837215   -0.9863914  -0.1524453   0.0017972   0.0054842  -0.0000039  -0.0000178   0.9734644  -0.5215695
97.2649017   -0.9862060  -0.1543705   0.0018289   0.0055242  -0.0000004  -0.0000104   0.9559370  -0.5609835
98.4606024   -0.9858630  -0.1560980   0.0018768   0.0055664  -0.0000038  -0.0000064   0.9365502  -0.6005025
99.6710021   -0.9855150  -0.1581097   0.0018919   0.0056205  -0.0000145  -0.0000062   0.9153443  -0.6396754
100.8962816  -0.9853119  -0.1598710   0.0019162   0.0056827  -0.0000102  -0.0000124   0.8922365  -0.6784421
102.1366237  -0.9849124  -0.1618358   0.0019142   0.0057654   0.0000052  -0.0000179   0.8671283  -0.7166929
103.3922136  -0.9844372  -0.1637107   0.0019719   0.0058650  -0.0000096  -0.0000112   0.8401955  -0.7544722
104.6632389  -0.9840415  -0.1657688   0.0020516   0.0059730  -0.0000105  -0.0000055   0.8113415  -0.7912682
105.9498891  -0.9836744  -0.1671673   0.0021633   0.0060122  -0.0000069  -0.0000089   0.7803574  -0.8250929
107.2523564  -0.9842831  -0.1703200   0.0022053   0.0060962  -0.0000016  -0.0000085   0.7458400  -0.8653272
108.5708353  -0.9837414  -0.1721202   0.0022991   0.0061012  -0.0000106  -0.0000041   0.7121824  -0.8993932
109.9055225  -0.9815437  -0.1735468   0.0023357   0.0060777   0.0000076  -0.0000064   0.6774515  -0.9319120
111.2566174  -0.9824326  -0.1758406   0.0023503   0.0061791  -0.0000017  -0.0000120   0.6366632  -0.9623526
112.6243216  -0.9822537  -0.1780426   0.0024086   0.0062470   0.0000017  -0.0000150   0.5956314  -0.9930429
114.0088393  -0.9819463  -0.1801305   0.0024166   0.0063070  -0.0000127  -0.0000032   0.5528684  -1.0220177
115.4103773  -0.9813793  -0.1823963   0.0024587   0.0063605  -0.0000076  -0.0000214   0.5080600  -1.0493846
116.8291446  -0.9809909  -0.1844784   0.0024837   0.0064198   0.0000125  -0.0000049   0.4616156  -1.0748125
118.2653533  -0.9804935  -0.1866517   0.0025330   0.0064967  -0.0000004  -0.0000118   0.4131618  -1.0983546
119.7192175  -0.9802396  -0.1889246   0.0025440   0.0065573  -0.0000147  -0.0000006   0.3630310  -1.1198741
121.1909545  -0.9796482  -0.1912251   0.0025228   0.0066535  -0.0000096  -0.0000137   0.3112472  -1.1389094
122.6807839  -0.9790415  -0.1935493   0.0025667   0.0067618  -0.0000186  -0.0000183   0.2578829  -1.1556283
124.1889281  -0.9785671  -0.1957750   0.0025691   0.0069307   0.0000025  -0.0000021   0.2030196  -1.1697805
125.7156123  -0.9780463  -0.1982447   0.0026291   0.0070513  -0.0000108  -0.0000053   0.1468018  -1.1813263
127.2610644  -0.9774061  -0.2006575   0.0027054   0.0072088  -0.0000061  -0.0000096   0.0899457  -1.1898236
128.8255151  -0.9769598  -0.2030239   0.0027921   0.0073649  -0.0000125  -0.0000101   0.0310541  -1.1954536
130.4091980  -0.9762892  -0.2056252   0.0029319   0.0075106  -0.0000132  -0.0000125  -0.0282397  -1.1979713
132.0123495  -0.9757905  -0.2082431   0.0030999   0.0076394  -0.0000062  -0.0000027  -0.0885005  -1.1971293
133.6352088  -0.9754105  -0.2107143   0.0032144   0.0077623  -0.0000239  -0.0000059  -0.1491135  -1.1931309
135.2780184  -0.9748629  -0.2133254   0.0033744   0.0078571  -0.0000031  -0.0000057  -0.2103454  -1.1854267
136.9410235  -0.9743106  -0.2158923   0.0035322   0.0079022  -0.0000093  -0.0000137  -0.2717939  -1.1740384
138.6244722  -0.9735919  -0.2184611   0.0036984   0.0079768  -0.0000096  -0.0000023  -0.3330388  -1.1591738
140.3286160  -0.9731459  -0.2212529   0.0038286   0.0080004  -0.0000127  -0.0000127  -0.3943408  -1.1406394
142.0537093  -0.9718086  -0.2242067   0.0039368   0.0080339  -0.0000183  -0.0000196  -0.4577303  -1.1193078
143.8000095  -0.9720945  -0.2258035   0.0040799   0.0081052  -0.0000058   0.0000000  -0.5114804  -1.0920313
145.5677774  -0.9726565  -0.2290333   0.0042095   0.0081659   0.0000058  -0.0000122  -0.5686752  -1.0596310
147.3572769  -0.9705367  -0.2319514   0.0042762   0.0081904  -0.0000021  -0.0000169  -0.6296031  -1.0274029
149.1687752  -0.9699670  -0.2346139   0.0044121   0.0082184   0.0000015  -0.0000091  -0.6842854  -0.9897038
151.0025426  -0.9693419  -0.2371604   0.0045051   0.0082618  -0.0000053  -0.0000193  -0.7376444  -0.9478988
152.8588530  -0.9685563  -0.2402454   0.0046135   0.0083055  -0.0000013  -0.0000092  -0.7884430  -0.9023780
154.7379834  -0.9676746  -0.2429601   0.0047062   0.0083719  -0.0000086  -0.0000110  -0.8368112  -0.8532143
156.6402144  -0.9669097  -0.2458029   0.0048366   0.0083732  -0.0000084  -0.0000061  -0.8822036  -0.8005717
158.5658301  -0.9663105  -0.2489396   0.0049287   0.0084520  -0.0000037   0.0000147  -0.9241073  -0.7445390
160.5151177  -0.9657978  -0.2516258   0.0050307   0.0085070   0.0000014  -0.0000065  -0.9630209  -0.6849737
162.4883685  -0.9642518  -0.2558608   0.0051419   0.0086018   0.0000013  -0.0000028  -0.9967976  -0.6237559
164.4858769  -0.9638069  -0.2579079   0.0052340   0.0085946   0.0000046  -0.0000033  -1.0278789  -0.5582318
166.5079411  -0.9627012  -0.2609775   0.0053443   0.0086700  -0.0000070  -0.0000102  -1.0539276  -0.4910024
168.5548630  -0.9618235  -0.2642014   0.0054160   0.0087281  -0.0000107   0.0000016  -1.0755896  -0.4214285
170.6269483  -0.9609293  -0.2675201   0.0054761   0.0088097  -0.0000006  -0.0000172  -1.0920161  -0.3500769
172.7245062  -0.9600421  -0.2707055   0.0055947   0.0089084   0.0000046  -0.0000030  -1.1035268  -0.2774294
174.8478498  -0.9589948  -0.2739354   0.0057066   0.0090064   0.0000061  -0.0000036  -1.1094082  -0.2032648
176.9972963  -0.9581029  -0.2774949   0.0058209   0.0091639   0.0000235  -0.0000062  -1.1102204  -0.1277967
179.1731664  -0.9569247  -0.2828359   0.0059843   0.0092869  -0.0000187  -0.0000088  -1.1019377  -0.0580540
181.3757850  -0.9569489  -0.2841461   0.0061569   0.0092901  -0.0000020  -0.0000058  -1.0923748   0.0172629
183.6054809  -0.9549238  -0.2881682   0.0062997   0.0094578  -0.0000115  -0.0000014  -1.0773858   0.0954521
185.8625870  -0.9540629  -0.2917423   0.0065108   0.0095832  -0.0000271  -0.0000083  -1.0548059   0.1676861
188.1474402  -0.9532918  -0.2955295   0.0066889   0.0096086  -0.0000045  -0.0000041  -1.0266452   0.2388777
190.4603817  -0.9515721  -0.2974797   0.0068608   0.0096570  -0.0000241  -0.0000166  -0.9928692   0.3077410
192.8017567  -0.9460320  -0.3044787   0.0069755   0.0097656   0.0000113  -0.0000080  -0.9528826   0.3737659
195.1719148  -0.9473280  -0.3156251   0.0072369   0.0098611  -0.0000411   0.0000164  -0.9079903   0.4365081
197.5712099  -0.9607717  -0.3250250   0.0074896   0.0100104   0.0000064  -0.0000064  -0.8584258   0.4960860
200.0000000  -0.9688578  -0.3067420   0.0077670   0.0099196  -0.0000129  -0.0000066  -0.8026131   0.5505821
