! ListType=Log
# MHZ S RI R 50
0.0010000    -0.9974030  -0.0003786  -0.0004034   0.0024562  -0.0000115  -0.0000299  -0.9088780   0.2599563
0.0010123    -0.9981096  -0.0003481  -0.0005522   0.0001972   0.0000121  -0.0000287  -0.9094622   0.2603417
0.0010247    -0.9973000  -0.0008314  -0.0001271   0.0008505  -0.0000157   0.0000266  -0.9095897   0.2591301
0.0010373    -0.9975990  -0.0004588  -0.0001966   0.0000050  -0.0000085  -0.0000056  -0.9097936   0.2598523
0.0010501    -0.9972134  -0.0000794  -0.0006721   0.0000685  -0.0000136  -0.0000118  -0.9091506   0.2596915
0.0010630    -0.9981369   0.0001444  -0.0006763   0.0005885   0.0000229   0.0000125  -0.9105505   0.2595735
0.0010761    -0.9974919  -0.0003698  -0.0003371  -0.0004089  -0.0000149   0.0000095  -0.9107037   0.2587981
0.0010893    -0.9976332  -0.0000164  -0.0001384   0.0001493   0.0000198  -0.0000037  -0.9110865   0.2599258
0.0011027    -0.9978215  -0.0004978  -0.0008587   0.0006205   0.0000030  -0.0000187  -0.9110775   0.2587990
0.0011162    -0.9979615  -0.0008336   0.0000487   0.0004579  -0.0000056   0.0000030  -0.9120701   0.2584382
0.0011300    -0.9971303  -0.0001152  -0.0006695   0.0004429  -0.0000259  -0.0000173  -0.9112969   0.2587179
0.0011439    -0.9974605  -0.0000218  -0.0002578   0.0003714   0.0000190  -0.0000020  -0.9120502   0.2590832
0.0011579    -0.9975051  -0.0008639  -0.0000902   0.0002600  -0.0000080   0.0000011  -0.9120575   0.2578675
0.0011721    -0.9978043  -0.0003750  -0.0009116   0.0001587   0.0000114  -0.0000118  -0.9124015   0.2585311
0.0011866    -0.9971679  -0.0000205  -0.0004122   0.0002140  -0.0000454  -0.0000152  -0.9122040   0.2582435
0.0012011    -0.9977243  -0.0001950  -0.0005776  -0.0004788  -0.0000151   0.0000003  -0.9128818   0.2582597
0.0012159    -0.9979513  -0.0004345  -0.0003398   0.0004675   0.0000208   0.0000031  -0.9136437   0.2584854
0.0012309    -0.9976394  -0.0008023  -0.0003320   0.0003749   0.0000094   0.0000109  -0.9137401   0.2577885
0.0012460    -0.9974341  -0.0001256  -0.0005151   0.0004782  -0.0000062  -0.0000060  -0.9134154   0.2581256
0.0012613    -0.9978552  -0.0003101  -0.0003197   0.0000379   0.0000269  -0.0000021  -0.9147353   0.2579363
0.0012768    -0.9973609  -0.0003349  -0.0012503   0.0004445  -0.0000207   0.0000053  -0.9141770   0.2576231
0.0012925    -0.9979220  -0.0004775  -0.0002007   0.0001022   0.0000140   0.0000076  -0.9151106   0.2580592
0.0013084    -0.9974665  -0.0003611  -0.0001554   0.0002051  -0.0000049   0.0000097  -0.9149123   0.2575421
0.0013245    -0.9976240  -0.0000428  -0.0009850   0.0001906   0.0000181  -0.0000016  -0.9155488   0.2580240
0.0013408    -0.9975176  -0.0004443  -0.0006518   0.0001743   0.0000024  -0.0000096  -0.9153819   0.2572752
0.0013572    -0.9981110  -0.0003778   0.0000339   0.0000300   0.0000187   0.0000077  -0.9163567   0.2576933
0.0013739    -0.9977670  -0.0002156  -0.0002675  -0.0001278   0.0000133   0.0000164  -0.9162218   0.2575399
0.0013908    -0.9979652  -0.0004181  -0.0003916   0.0003745   0.0000136   0.0000045  -0.9169530   0.2576089
0.0014079    -0.9973019  -0.0002124  -0.0008848   0.0005065  -0.0000214  -0.0000005  -0.9167295   0.2573538
0.0014252    -0.9978195  -0.0003457  -0.0002789   0.0002203   0.0000186   0.0000247  -0.9176592   0.2572531
0.0014427    -0.9972607  -0.0000935  -0.0006892   0.0000368  -0.0000097  -0.0000156  -0.9173659   0.2571991
0.0014605    -0.9977370  -0.0003771  -0.0003881   0.0008816   0.0000009  -0.0000180  -0.9180822   0.2573986
0.0014784    -0.9976462  -0.0003071  -0.0002131   0.0003646  -0.0000049   0.0000082  -0.9178605   0.2569127
0.0014966    -0.9973953   0.0001667  -0.0011105   0.0001286   0.0000002  -0.0000287  -0.9186111   0.2574162
0.0015150    -0.9975051  -0.0004754  -0.0001425   0.0009781   0.0000270   0.0000241  -0.9189818   0.2573396
0.0015336    -0.9973872  -0.0004165  -0.0016348   0.0006464  -0.0000074  -0.0000028  -0.9190102   0.2570696
0.0015525    -0.9974398  -0.0002846  -0.0002710  -0.0001730  -0.0000076  -0.0000167  -0.9190290   0.2573496
0.0015716    -0.9978346  -0.0004676  -0.0005221   0.0001946   0.0000126  -0.0000211  -0.9196280   0.2571869
0.0015909    -0.9977394  -0.0001842  -0.0002692   0.0001938   0.0000100  -0.0000345  -0.9199847   0.2575694
0.0016104    -0.9975106  -0.0003560  -0.0005085   0.0002411  -0.0000243   0.0000094  -0.9203199   0.2569523
0.0016302    -0.9977900  -0.0000977  -0.0004767   0.0003695   0.0000135  -0.0000063  -0.9203642   0.2573044
0.0016503    -0.9978237  -0.0000876  -0.0001624   0.0006701   0.0000088  -0.0000100  -0.9213751   0.2574882
0.0016706    -0.9976497  -0.0006978   0.0000999   0.0001036   0.0000033  -0.0000045  -0.9211996   0.2574022
0.0016911    -0.9976020  -0.0004389  -0.0000245  -0.0003745  -0.0000210  -0.0000159  -0.9218180   0.2570958
0.0017119    -0.9975008  -0.0000443  -0.0006706   0.0005137  -0.0000161  -0.0000298  -0.9218589   0.2574357
0.0017329    -0.9978798  -0.0004320  -0.0010661  -0.0001142  -0.0000031   0.0000134  -0.9220861   0.2573962
0.0017542    -0.9974687  -0.0007302  -0.0002836   0.0001789   0.0000071   0.0000175  -0.9225671   0.2571541
0.0017758    -0.9977782  -0.0004209  -0.0005775   0.0006316  -0.0000018  -0.0000029  -0.9227763   0.2574617
0.0017976    -0.9977687  -0.0004152   0.0002155   0.0000809   0.0000059  -0.0000063  -0.9233452   0.2574793
0.0018197    -0.9973336  -0.0002370  -0.0001171  -0.0001450  -0.0000150  -0.0000040  -0.9231438   0.2573279
0.0018421    -0.9976961  -0.0004319  -0.0005219  -0.0000249   0.0000151  -0.0000070  -0.9238326   0.2577191
0.0018648    -0.9971785  -0.0002853  -0.0003068   0.0003590  -0.0000028   0.0000040  -0.9239003   0.2574820
0.0018877    -0.9974606  -0.0003522  -0.0000345   0.0000939  -0.0000105  -0.0000158  -0.9239804   0.2577066
0.0019109    -0.9973352  -0.0003765  -0.0003941   0.0002188  -0.0000036   0.0000066  -0.9248491   0.2579357
0.0019344    -0.9974166  -0.0004149  -0.0005303   0.0002321  -0.0000050  -0.0000064  -0.9247153   0.2577397
0.0019582    -0.9974830  -0.0004244  -0.0000104   0.0008073   0.0000018  -0.0000051  -0.9248236   0.2579512
0.0019822    -0.9978360  -0.0002227   0.0007636   0.0010889   0.0000061   0.0000007  -0.9256894   0.2580907
0.0020066    -0.9975554  -0.0000971  -0.0000157   0.0012934   0.0000030   0.0000010  -0.9257598   0.2582423
0.0020313    -0.9980031  -0.0003611  -0.0009416  -0.0006100   0.0000072   0.0000076  -0.9261621   0.2581689
0.0020562    -0.9976043  -0.0004691  -0.0001453   0.0005442  -0.0000161  -0.0000018  -0.9265384   0.2580705
0.0020815    -0.9974559  -0.0002058  -0.0002800   0.0002942   0.0000003  -0.0000015  -0.9265952   0.2584793
0.0021071    -0.9976004  -0.0005311  -0.0006513   0.0002426  -0.0000104  -0.0000033  -0.9270215   0.2585237
0.0021330    -0.9976450  -0.0002694  -0.0002307   0.0003111  -0.0000010  -0.0000229  -0.9272019   0.2587586
0.0021592    -0.9976091  -0.0001276  -0.0000587   0.0005632  -0.0000025  -0.0000190  -0.9277383   0.2588852
0.0021858    -0.9978151  -0.0003956  -0.0000867   0.0003882  -0.0000026  -0.0000044  -0.9279115   0.2586740
0.0022126    -0.9976556  -0.0004225  -0.0001460   0.0005109  -0.0000054  -0.0000144  -0.9280733   0.2590422
0.0022398    -0.9978266  -0.0002378  -0.0002375   0.0001244  -0.0000122   0.0000062  -0.9283379   0.2590142
0.0022674    -0.9975659  -0.0002663  -0.0000528   0.0003202   0.0000047  -0.0000181  -0.9287816   0.2593020
0.0022953    -0.9976593  -0.0001054  -0.0008149   0.0004931   0.0000060  -0.0000025  -0.9290308   0.2594769
0.0023235    -0.9978263  -0.0002551  -0.0001075   0.0004558  -0.0000061  -0.0000002  -0.9294341   0.2594680
0.0023520    -0.9975171  -0.0004218  -0.0000378   0.0004503  -0.0000078  -0.0000054  -0.9292532   0.2594361
0.0023809    -0.9976985  -0.0006416  -0.0003839   0.0000987  -0.0000079   0.0000077  -0.9299422   0.2596373
0.0024102    -0.9977172  -0.0002797  -0.0004426  -0.0001139   0.0000131   0.0000064  -0.9298942   0.2598229
0.0024398    -0.9978205  -0.0002229  -0.0004938   0.0001829   0.0000033   0.0000032  -0.9303333   0.2599209
0.0024698    -0.9977592  -0.0003865  -0.0007808   0.0004685   0.0000079  -0.0000170  -0.9305707   0.2602177
0.0025002    -0.9978442  -0.0002750  -0.0001782   0.0001751  -0.0000013  -0.0000042  -0.9307198   0.2603729
0.0025309    -0.9974489  -0.0002560  -0.0003500   0.0002823  -0.0000087  -0.0000112  -0.9309336   0.2606611
0.0025621    -0.9978722  -0.0003168  -0.0002490   0.0001801   0.0000070  -0.0000087  -0.9313972   0.2606534
0.0025935    -0.9976591  -0.0002478  -0.0000519   0.0001588  -0.0000057  -0.0000035  -0.9316742   0.2605261
0.0026254    -0.9974938  -0.0006213  -0.0002736   0.0002093  -0.0000042  -0.0000026  -0.9317934   0.2605545
0.0026577    -0.9976835  -0.0003814  -0.0001204   0.0003142  -0.0000107  -0.0000105  -0.9319015   0.2609742
0.0026904    -0.9975895  -0.0001031  -0.0003220   0.0001731  -0.0000128  -0.0000062  -0.9320964   0.2613407
0.0027235    -0.9978684  -0.0004707  -0.0002234   0.0003110  -0.0000013  -0.0000137  -0.9327563   0.2611832
0.0027569    -0.9977792  -0.0004160   0.0000419   0.0003284  -0.0000088  -0.0000033  -0.9327095   0.2612955
0.0027908    -0.9978653  -0.0001259  -0.0003543   0.0003578   0.0000059  -0.0000083  -0.9327881   0.2617246
0.0028251    -0.9976206  -0.0002455   0.0009269   0.0002352   0.0000069   0.0000018  -0.9332618   0.2618815
0.0028599    -0.9977371  -0.0004482  -0.0002151   0.0001906  -0.0000022   0.0000010  -0.9334185   0.2618729
0.0028950    -0.9975988  -0.0006041  -0.0001761   0.0004199   0.0000031   0.0000025  -0.9336124   0.2618484
0.0029306    -0.9978298  -0.0000909  -0.0004401   0.0001790  -0.0000042  -0.0000190  -0.9337557   0.2620064
0.0029666    -0.9978811  -0.0001237  -0.0005361   0.0002780   0.0000131  -0.0000065  -0.9339990   0.2622600
0.0030031    -0.9977703  -0.0002610   0.0005466  -0.0006013  -0.0000049   0.0000133  -0.9341076   0.2625548
0.0030400    -0.9977878  -0.0003358  -0.0001656   0.0005285  -0.0000027  -0.0000165  -0.9343379   0.2628196
0.0030774    -0.9978743  -0.0004804  -0.0003908   0.0002678  -0.0000097  -0.0000045  -0.9345217   0.2629743
0.0031152    -0.9978437  -0.0004850  -0.0004050   0.0000714   0.0000102   0.0000018  -0.9348862   0.2629809
0.0031535    -0.9978798  -0.0004189  -0.0001024   0.0001463  -0.0000035  -0.0000120  -0.9349260   0.2633534
0.0031923    -0.9977735  -0.0003052   0.0000692   0.0001323   0.0000126  -0.0000124  -0.9353236   0.2634966
0.0032315    -0.9976582  -0.0002281   0.0000381   0.0000488  -0.0000004  -0.0000064  -0.9355121   0.2636469
0.0032713    -0.9977266  -0.0001797  -0.0004649   0.0002739   0.0000023  -0.0000089  -0.9356770   0.2636865
0.0033115    -0.9978149  -0.0001957  -0.0000814   0.0003437   0.0000084  -0.0000006  -0.9357024   0.2639999
0.0033522    -0.9977443  -0.0001429  -0.0003714   0.0002927  -0.0000109  -0.0000057  -0.9360229   0.2644064
0.0033934    -0.9976646  -0.0004544   0.0001167   0.0002436   0.0000014   0.0000021  -0.9362628   0.2642656
0.0034351    -0.9977086  -0.0004905   0.0001384   0.0001572  -0.0000013   0.0000084  -0.9364516   0.2645556
0.0034773    -0.9979578  -0.0003676   0.0000057   0.0003381   0.0000084  -0.0000086  -0.9364323   0.2647053
0.0035201    -0.9978330  -0.0004860   0.0000675   0.0003894   0.0000056  -0.0000029  -0.9367876   0.2648143
0.0035634    -0.9978315  -0.0004750   0.0000328   0.0003263   0.0000070  -0.0000048  -0.9368663   0.2649771
0.0036072    -0.9978505  -0.0003709  -0.0003506   0.0006101  -0.0000008  -0.0000046  -0.9369396   0.2652301
0.0036515    -0.9976373  -0.0002254  -0.0001259   0.0004074  -0.0000051   0.0000044  -0.9372120   0.2655556
0.0036964    -0.9977011  -0.0002178  -0.0002326   0.0003129  -0.0000114   0.0000007  -0.9371598   0.2658447
0.0037418    -0.9978950  -0.0001213   0.0001540   0.0000947   0.0000014  -0.0000077  -0.9373776   0.2659021
0.0037878    -0.9979267  -0.0004015   0.0000378   0.0008278   0.0000009  -0.0000191  -0.9374859   0.2660117
0.0038344    -0.9977711  -0.0003784  -0.0007919   0.0003803   0.0000059  -0.0000063  -0.9376847   0.2663411
0.0038815    -0.9977806  -0.0003573  -0.0001921  -0.0000696  -0.0000009   0.0000041  -0.9378065   0.2664228
0.0039293    -0.9979623  -0.0002927   0.0018463   0.0011649   0.0000049  -0.0000071  -0.9379777   0.2663981
0.0039776    -0.9978028  -0.0001540  -0.0022511  -0.0002487  -0.0000018  -0.0000120  -0.9381920   0.2668196
0.0040265    -0.9979237  -0.0004454  -0.0013509   0.0002957   0.0000000   0.0000014  -0.9383100   0.2667670
0.0040759    -0.9978048  -0.0004229  -0.0001864   0.0001886  -0.0000007   0.0000008  -0.9384242   0.2671272
0.0041261    -0.9979068  -0.0004423  -0.0001821   0.0002082   0.0000015  -0.0000048  -0.9385339   0.2672093
0.0041768    -0.9978289  -0.0001558  -0.0004070   0.0002540  -0.0000009   0.0000009  -0.9387328   0.2675105
0.0042281    -0.9978102  -0.0002170  -0.0005349   0.0003693   0.0000064  -0.0000054  -0.9388509   0.2677209
0.0042801    -0.9978595  -0.0001748  -0.0002662   0.0001206   0.0000041  -0.0000002  -0.9389324   0.2679158
0.0043327    -0.9978718  -0.0001775   0.0001137   0.0002335  -0.0000035  -0.0000042  -0.9390299   0.2683019
0.0043860    -0.9978693  -0.0001237  -0.0003407   0.0001002  -0.0000025   0.0000091  -0.9392749   0.2683077
0.0044399    -0.9980381  -0.0002851   0.0001388   0.0001718   0.0000007  -0.0000043  -0.9393379   0.2684832
0.0044945    -0.9978024  -0.0001182   0.0001129   0.0003924  -0.0000065  -0.0000034  -0.9394909   0.2686169
0.0045497    -0.9978692  -0.0002642  -0.0002285   0.0000796  -0.0000109  -0.0000034  -0.9394766   0.2688047
0.0046057    -0.9981186  -0.0002600  -0.0000030   0.0002222  -0.0000053   0.0000049  -0.9395575   0.2689400
0.0046623    -0.9977427  -0.0002416  -0.0002295   0.0000506   0.0000035  -0.0000071  -0.9395089   0.2692334
0.0047196    -0.9981341  -0.0004223  -0.0001466   0.0002552  -0.0000083  -0.0000009  -0.9398293   0.2694102
0.0047776    -0.9979476  -0.0002732  -0.0000317  -0.0000940   0.0000065  -0.0000104  -0.9398891   0.2695281
0.0048363    -0.9978631  -0.0002105  -0.0003425   0.0000693   0.0000003  -0.0000094  -0.9399332   0.2697804
0.0048958    -0.9978965  -0.0002510  -0.0001548   0.0001605  -0.0000047  -0.0000137  -0.9400721   0.2700554
0.0049560    -0.9979896  -0.0001304  -0.0002229  -0.0000172  -0.0000099  -0.0000067  -0.9402632   0.2701632
0.0050169    -0.9981603  -0.0003692   0.0000624   0.0003650  -0.0000178   0.0000051  -0.9403351   0.2701639
0.0050786    -0.9978403  -0.0002760  -0.0001460   0.0002440   0.0000062   0.0000011  -0.9403187   0.2703988
0.0051410    -0.9981981  -0.0001920  -0.0000468   0.0001120  -0.0000039  -0.0000105  -0.9404152   0.2706001
0.0052042    -0.9980487  -0.0002592  -0.0000153  -0.0000997   0.0000035  -0.0000032  -0.9405021   0.2708001
0.0052682    -0.9978132  -0.0003214   0.0000055   0.0001834   0.0000060  -0.0000054  -0.9406327   0.2710467
0.0053330    -0.9978491  -0.0004019   0.0000565  -0.0000152  -0.0000089  -0.0000088  -0.9406896   0.2711812
0.0053985    -0.9979837  -0.0003646  -0.0001157  -0.0000212  -0.0000131  -0.0000073  -0.9407775   0.2713440
0.0054649    -0.9979211  -0.0002900   0.0001293   0.0001438   0.0000164  -0.0000018  -0.9409076   0.2714998
0.0055321    -0.9980112  -0.0003345   0.0001814   0.0000974  -0.0000015  -0.0000112  -0.9409565   0.2716945
0.0056001    -0.9978828  -0.0003177  -0.0000985   0.0002569   0.0000146   0.0000031  -0.9411138   0.2719386
0.0056689    -0.9979593  -0.0003165  -0.0001967   0.0000629  -0.0000082  -0.0000200  -0.9411273   0.2720064
0.0057386    -0.9978258  -0.0001281  -0.0000247   0.0001218   0.0000036  -0.0000155  -0.9411893   0.2721200
0.0058091    -0.9980016  -0.0003051  -0.0002153   0.0001394   0.0000022   0.0000047  -0.9411386   0.2723728
0.0058806    -0.9978727  -0.0002160  -0.0001624   0.0000704  -0.0000013  -0.0000061  -0.9411190   0.2724188
0.0059529    -0.9979538  -0.0002885  -0.0003536  -0.0000339  -0.0000054  -0.0000104  -0.9412062   0.2727041
0.0060260    -0.9977147  -0.0001287   0.0007729   0.0003428  -0.0000053  -0.0000183  -0.9412507   0.2727098
0.0061001    -0.9979119  -0.0002907   0.0001876   0.0005213  -0.0000142  -0.0000055  -0.9413455   0.2729546
0.0061751    -0.9977926  -0.0003256  -0.0000905   0.0000308   0.0000003   0.0000049  -0.9413314   0.2731470
0.0062510    -0.9979055  -0.0002105   0.0007240   0.0000587  -0.0000030  -0.0000002  -0.9415101   0.2732916
0.0063279    -0.9981057  -0.0000955  -0.0001498   0.0000024  -0.0000043  -0.0000012  -0.9416430   0.2734560
0.0064056    -0.9978723  -0.0002889   0.0018514  -0.0018980   0.0000044  -0.0000061  -0.9416371   0.2736081
0.0064844    -0.9979424  -0.0003093  -0.0003590  -0.0007205   0.0000000  -0.0000076  -0.9416977   0.2736701
0.0065641    -0.9978903  -0.0001293  -0.0002963   0.0000568  -0.0000063  -0.0000193  -0.9415242   0.2737903
0.0066448    -0.9978891  -0.0001261  -0.0000417   0.0001423   0.0000005  -0.0000093  -0.9416728   0.2739591
0.0067265    -0.9977260  -0.0002493  -0.0001756  -0.0000296  -0.0000082   0.0000041  -0.9417777   0.2741424
0.0068092    -0.9978776  -0.0000910  -0.0002378   0.0001451   0.0000036   0.0000010  -0.9418365   0.2743665
0.0068929    -0.9977955  -0.0001471  -0.0000747   0.0000894   0.0000128  -0.0000086  -0.9418909   0.2744498
0.0069776    -0.9981261  -0.0001120  -0.0001081  -0.0001645   0.0000024  -0.0000116  -0.9420478   0.2746782
0.0070634    -0.9979237  -0.0002313  -0.0000398   0.0000693   0.0000023  -0.0000052  -0.9419420   0.2748400
0.0071502    -0.9978813  -0.0002641  -0.0002938   0.0000292   0.0000031  -0.0000154  -0.9419125   0.2748555
0.0072381    -0.9978550  -0.0000872   0.0000413  -0.0000278  -0.0000033  -0.0000122  -0.9418756   0.2750367
0.0073271    -0.9977891  -0.0001354  -0.0003448   0.0000808  -0.0000089  -0.0000030  -0.9420109   0.2752536
0.0074172    -0.9979292  -0.0001276   0.0000539   0.0001079   0.0000121  -0.0000083  -0.9421284   0.2753567
0.0075084    -0.9979686  -0.0002595  -0.0001111   0.0001824   0.0000064  -0.0000108  -0.9421577   0.2755385
0.0076007    -0.9979389  -0.0001333  -0.0001046   0.0001364   0.0000004  -0.0000116  -0.9421461   0.2756577
0.0076941    -0.9980023  -0.0001820   0.0001142   0.0000807  -0.0000021   0.0000084  -0.9421786   0.2759126
0.0077887    -0.9979271  -0.0001178  -0.0002343  -0.0001131   0.0000107  -0.0000020  -0.9421820   0.2759312
0.0078844    -0.9978906  -0.0000322  -0.0001819   0.0001041  -0.0000035  -0.0000018  -0.9422685   0.2760016
0.0079814    -0.9978587  -0.0000395  -0.0004388   0.0004611   0.0000006  -0.0000059  -0.9422404   0.2762762
0.0080795    -0.9978493  -0.0003252  -0.0001851   0.0000318   0.0000058  -0.0000034  -0.9423989   0.2763341
0.0081788    -0.9978184  -0.0001637   0.0002999  -0.0001525  -0.0000045   0.0000043  -0.9422137   0.2765218
0.0082793    -0.9979436  -0.0001248   0.0000012   0.0001613  -0.0000005  -0.0000093  -0.9423942   0.2765888
0.0083811    -0.9978242  -0.0002346  -0.0002876   0.0002427  -0.0000037   0.0000070  -0.9423573   0.2767983
0.0084842    -0.9978965  -0.0001405  -0.0001644  -0.0001225  -0.0000016   0.0000005  -0.9423313   0.2768930
0.0085885    -0.9979686  -0.0002048  -0.0000783  -0.0000560   0.0000015  -0.0000070  -0.9424398   0.2769427
0.0086940    -0.9979673  -0.0001430  -0.0001232   0.0000932   0.0000127  -0.0000141  -0.9423699   0.2771411
0.0088009    -0.9979682  -0.0001340  -0.0003127  -0.0000877   0.0000002   0.0000062  -0.9423860   0.2772914
0.0089091    -0.9980044  -0.0000227  -0.0001256  -0.0000052   0.0000024  -0.0000112  -0.9423989   0.2774866
0.0090186    -0.9980209  -0.0002884  -0.0001159   0.0000461  -0.0000090  -0.0000046  -0.9424998   0.2774735
0.0091295    -0.9977639  -0.0003191  -0.0001463   0.0000069   0.0000055  -0.0000005  -0.9425199   0.2777457
0.0092417    -0.9979104  -0.0002325  -0.0001586   0.0000302   0.0000093  -0.0000054  -0.9424069   0.2777833
0.0093553    -0.9979060  -0.0000312  -0.0001262   0.0000150   0.0000041  -0.0000095  -0.9424297   0.2779104
0.0094703    -0.9978885  -0.0003107  -0.0002461  -0.0000462   0.0000006   0.0000108  -0.9425230   0.2779699
0.0095868    -0.9980358   0.0000115  -0.0001838  -0.0001232  -0.0000033  -0.0000074  -0.9424579   0.2781670
0.0097046    -0.9977452  -0.0002182  -0.0000926   0.0001868  -0.0000017   0.0000127  -0.9425030   0.2781965
0.0098239    -0.9979750   0.0000052  -0.0002665   0.0002932  -0.0000008   0.0000001  -0.9425577   0.2783250
0.0099447    -0.9980005  -0.0001713  -0.0002459  -0.0000303  -0.0000004  -0.0000051  -0.9425478   0.2783615
0.0100669    -0.9979281  -0.0001264  -0.0002463  -0.0000033  -0.0000093  -0.0000186  -0.9425242   0.2785836
0.0101907    -0.9978958  -0.0001357  -0.0002005   0.0000103  -0.0000033  -0.0000092  -0.9425358   0.2786114
0.0103160    -0.9979655  -0.0003087  -0.0002008   0.0002812   0.0000116  -0.0000083  -0.9425019   0.2787091
0.0104428    -0.9979041  -0.0001224  -0.0003220  -0.0000877  -0.0000035   0.0000003  -0.9425838   0.2789201
0.0105712    -0.9980178  -0.0001093  -0.0001975   0.0000432   0.0000088   0.0000015  -0.9425830   0.2789347
0.0107011    -0.9978604  -0.0000960  -0.0000867   0.0000077   0.0000044  -0.0000051  -0.9426090   0.2791118
0.0108327    -0.9977348  -0.0000555  -0.0001447   0.0000005   0.0000012  -0.0000062  -0.9425325   0.2791449
0.0109658    -0.9979897  -0.0001548  -0.0001600   0.0000529  -0.0000070  -0.0000045  -0.9426464   0.2792784
0.0111006    -0.9979316  -0.0000959  -0.0002200  -0.0000083  -0.0000041  -0.0000068  -0.9426136   0.2795289
0.0112371    -0.9978804  -0.0001021  -0.0002423  -0.0000033  -0.0000054   0.0000003  -0.9426557   0.2794251
0.0113752    -0.9978855  -0.0001934  -0.0001905   0.0000021  -0.0000107   0.0000007  -0.9425597   0.2795968
0.0115151    -0.9979974  -0.0001326  -0.0000994  -0.0000681   0.0000003  -0.0000004  -0.9427017   0.2798539
0.0116566    -0.9978086  -0.0000284  -0.0003331   0.0005900  -0.0000025  -0.0000093  -0.9425976   0.2797545
0.0117999    -0.9981106  -0.0001121  -0.0001034  -0.0000226  -0.0000078  -0.0000039  -0.9426702   0.2800117
0.0119450    -0.9946847   0.0012008  -0.0000531   0.0000074  -0.0000012   0.0000006  -0.9434624   0.2782170
0.0120918    -0.9979894  -0.0000086  -0.0001123   0.0001007   0.0000006  -0.0000104  -0.9426943   0.2801527
0.0122405    -0.9977409  -0.0001477  -0.0002788   0.0000312  -0.0000107   0.0000039  -0.9427471   0.2801706
0.0123910    -0.9980883  -0.0001444  -0.0002062  -0.0000234  -0.0000042  -0.0000100  -0.9426088   0.2804391
0.0125433    -0.9979001   0.0000758  -0.0002383  -0.0000191  -0.0000016   0.0000043  -0.9427097   0.2803775
0.0126975    -0.9979076  -0.0001564  -0.0002222  -0.0000482  -0.0000036  -0.0000023  -0.9425424   0.2804387
0.0128536    -0.9979941  -0.0002792  -0.0002932  -0.0000083   0.0000036  -0.0000033  -0.9426407   0.2806492
0.0130116    -0.9977803  -0.0001459  -0.0002983   0.0001122   0.0000031   0.0000037  -0.9426215   0.2806846
0.0131716    -0.9980231  -0.0001563  -0.0004621   0.0004987  -0.0000045   0.0000010  -0.9426642   0.2806807
0.0133335    -0.9978525  -0.0001894  -0.0001930   0.0001279  -0.0000017  -0.0000095  -0.9425145   0.2809397
0.0134974    -0.9979940  -0.0000872  -0.0002270  -0.0000175   0.0000014  -0.0000020  -0.9425677   0.2809175
0.0136633    -0.9979148   0.0000852  -0.0001969   0.0001468   0.0000013  -0.0000062  -0.9426221   0.2811150
0.0138313    -0.9980172  -0.0000358  -0.0001640   0.0000685  -0.0000014  -0.0000050  -0.9425397   0.2811490
0.0140013    -0.9979426  -0.0001435  -0.0000014   0.0003650  -0.0000043  -0.0000027  -0.9426175   0.2812854
0.0141734    -0.9979966  -0.0001648  -0.0002109   0.0001058  -0.0000133  -0.0000052  -0.9426482   0.2814176
0.0143477    -0.9979464  -0.0001007  -0.0002194   0.0004399   0.0000019  -0.0000050  -0.9426134   0.2813920
0.0145240    -0.9979593  -0.0001398  -0.0001513   0.0001213   0.0000018   0.0000028  -0.9426510   0.2814696
0.0147026    -0.9979785  -0.0001747  -0.0001411   0.0000375   0.0000098  -0.0000082  -0.9425887   0.2815431
0.0148833    -0.9978416  -0.0000341  -0.0002958  -0.0000193  -0.0000038  -0.0000085  -0.9425701   0.2817147
0.0150663    -0.9979003  -0.0000010  -0.0002759  -0.0000194   0.0000025  -0.0000094  -0.9425500   0.2817628
0.0152515    -0.9978472  -0.0000376  -0.0003533  -0.0001367  -0.0000064  -0.0000097  -0.9425577   0.2819218
0.0154390    -0.9979168   0.0001346  -0.0001949   0.0001768  -0.0000151   0.0000062  -0.9425825   0.2819117
0.0156288    -0.9979935  -0.0001486  -0.0000092   0.0001207  -0.0000092  -0.0000074  -0.9426634   0.2819290
0.0158209    -0.9979571  -0.0000603  -0.0001798   0.0001020  -0.0000031  -0.0000088  -0.9425187   0.2819562
0.0160154    -0.9979041  -0.0000745  -0.0003670  -0.0004953   0.0000012  -0.0000067  -0.9425096   0.2821765
0.0162123    -0.9977669  -0.0001683  -0.0001622   0.0000607  -0.0000041  -0.0000005  -0.9424733   0.2823458
0.0164116    -0.9981126  -0.0000593  -0.0002591   0.0000087   0.0000020  -0.0000133  -0.9425390   0.2823374
0.0166134    -0.9979589  -0.0001760  -0.0002439   0.0000133   0.0000025   0.0000024  -0.9424725   0.2825105
0.0168176    -0.9980801  -0.0000376  -0.0002437   0.0000654   0.0000023  -0.0000011  -0.9425681   0.2824212
0.0170243    -0.9979416  -0.0000986  -0.0003908  -0.0001035  -0.0000044  -0.0000021  -0.9425075   0.2825839
0.0172336    -0.9978482  -0.0000618  -0.0003272   0.0000233   0.0000039  -0.0000065  -0.9424701   0.2825693
0.0174455    -0.9978586  -0.0001238  -0.0000688   0.0001151  -0.0000069   0.0000054  -0.9424511   0.2826684
0.0176599    -0.9979368  -0.0001412  -0.0003459   0.0002813  -0.0000030  -0.0000096  -0.9424459   0.2827776
0.0178770    -0.9979536   0.0000659  -0.0003621   0.0000508  -0.0000056   0.0000042  -0.9424224   0.2829245
0.0180968    -0.9979217  -0.0000668  -0.0002687   0.0000218  -0.0000086  -0.0000035  -0.9424302   0.2828374
0.0183193    -0.9979842  -0.0000614  -0.0000846   0.0001806   0.0000087  -0.0000044  -0.9424509   0.2830002
0.0185445    -0.9980104  -0.0000826  -0.0003384   0.0002714   0.0000103  -0.0000060  -0.9424455   0.2830423
0.0187724    -0.9978342   0.0000325  -0.0004051   0.0000495   0.0000036   0.0000011  -0.9423371   0.2830841
0.0190032    -0.9980527  -0.0000004  -0.0004556  -0.0008504  -0.0000030  -0.0000051  -0.9424280   0.2831313
0.0192368    -0.9978873  -0.0002365   0.0001042   0.0002200   0.0000020   0.0000008  -0.9425254   0.2832695
0.0194733    -0.9978567  -0.0001552  -0.0000230   0.0001223   0.0000098  -0.0000044  -0.9424154   0.2833488
0.0197127    -0.9979729  -0.0000512  -0.0002151   0.0000324  -0.0000072  -0.0000149  -0.9423865   0.2834325
0.0199550    -0.9979713  -0.0001134  -0.0001883   0.0000995  -0.0000085  -0.0000115  -0.9424142   0.2834576
0.0202003    -0.9979722  -0.0000571  -0.0002135  -0.0000469  -0.0000027  -0.0000121  -0.9424186   0.2834956
0.0204487    -0.9978166  -0.0001613  -0.0001986   0.0001432  -0.0000126  -0.0000027  -0.9423482   0.2836018
0.0207001    -0.9979639  -0.0001634  -0.0002998   0.0001326  -0.0000050  -0.0000153  -0.9422820   0.2836091
0.0209545    -0.9978907  -0.0000541  -0.0002714   0.0001437  -0.0000042  -0.0000062  -0.9422991   0.2836966
0.0212121    -0.9979483  -0.0002345  -0.0002907   0.0001469   0.0000013   0.0000014  -0.9422630   0.2838958
0.0214729    -0.9977361  -0.0000632  -0.0001834   0.0000104  -0.0000082  -0.0000137  -0.9423046   0.2839225
0.0217369    -0.9978861  -0.0000902  -0.0001957  -0.0000210   0.0000177  -0.0000012  -0.9422967   0.2839207
0.0220041    -0.9979983  -0.0001282  -0.0005871   0.0005460  -0.0000034  -0.0000052  -0.9423316   0.2839710
0.0222746    -0.9979695  -0.0000787  -0.0003151   0.0001956   0.0000044  -0.0000094  -0.9421834   0.2840686
0.0225484    -0.9978637  -0.0002117  -0.0002082   0.0001363  -0.0000069   0.0000029  -0.9421589   0.2840821
0.0228256    -0.9979600   0.0000649  -0.0001528   0.0001360  -0.0000015   0.0000000  -0.9422130   0.2841121
0.0231062    -0.9979400  -0.0000423  -0.0001927   0.0000758  -0.0000071  -0.0000067  -0.9422103   0.2841453
0.0233902    -0.9978799  -0.0000857  -0.0001360   0.0001572  -0.0000062   0.0000041  -0.9421501   0.2842650
0.0236778    -0.9979125  -0.0001147  -0.0001570   0.0000367   0.0000026  -0.0000065  -0.9421274   0.2843437
0.0239689    -0.9959224   0.0006985  -0.0006818   0.0001138  -0.0000034  -0.0000028  -0.9431943   0.2849166
0.0242635    -0.9978942   0.0000125  -0.0002670   0.0001092   0.0000020  -0.0000015  -0.9421554   0.2844378
0.0245618    -0.9978749  -0.0000852  -0.0002515   0.0001205  -0.0000175  -0.0000006  -0.9420997   0.2845678
0.0248637    -0.9978230   0.0000023  -0.0002260   0.0001017  -0.0000010  -0.0000011  -0.9421057   0.2846436
0.0251694    -0.9981084   0.0000507  -0.0002534   0.0001416  -0.0000045  -0.0000092  -0.9421237   0.2846718
0.0254788    -0.9979003  -0.0000606  -0.0000946   0.0002435  -0.0000051  -0.0000060  -0.9420106   0.2847303
0.0257920    -0.9979317  -0.0001820  -0.0002498   0.0001280   0.0000011  -0.0000116  -0.9420984   0.2848583
0.0261091    -0.9977980   0.0000583  -0.0002532   0.0001439   0.0000032  -0.0000093  -0.9419308   0.2848252
0.0264301    -0.9979218  -0.0001162  -0.0001922   0.0000708   0.0000051  -0.0000114  -0.9420806   0.2849199
0.0267550    -0.9980258  -0.0000736  -0.0001656   0.0001804  -0.0000017   0.0000036  -0.9419236   0.2849455
0.0270839    -0.9979651  -0.0001408  -0.0001820   0.0001212  -0.0000150  -0.0000070  -0.9420152   0.2849370
0.0274168    -0.9977169  -0.0000714  -0.0002678   0.0001305  -0.0000071  -0.0000091  -0.9419723   0.2849874
0.0277539    -0.9979327  -0.0000915  -0.0002675   0.0001674  -0.0000055  -0.0000124  -0.9418585   0.2850718
0.0280951    -0.9980708  -0.0000314  -0.0002128   0.0002031  -0.0000084  -0.0000131  -0.9418695   0.2851680
0.0284404    -0.9980209  -0.0001110  -0.0002574   0.0001158  -0.0000050  -0.0000027  -0.9418926   0.2852433
0.0287901    -0.9979319  -0.0000810  -0.0002052   0.0001455  -0.0000104  -0.0000071  -0.9419360   0.2851845
0.0291440    -0.9978789   0.0000022  -0.0002375   0.0001521   0.0000046  -0.0000088  -0.9418947   0.2853351
0.0295023    -0.9979482  -0.0000939  -0.0001965   0.0000955   0.0000158   0.0000033  -0.9418181   0.2853636
0.0298649    -0.9979166  -0.0000206  -0.0001467   0.0000831   0.0000090  -0.0000008  -0.9418149   0.2853996
0.0302321    -0.9980101  -0.0000638  -0.0002994   0.0001311   0.0000043  -0.0000058  -0.9417208   0.2854923
0.0306037    -0.9977959  -0.0001563  -0.0002192   0.0002246  -0.0000045  -0.0000008  -0.9417143   0.2855678
0.0309799    -0.9979663  -0.0000434  -0.0002752   0.0000440  -0.0000045   0.0000013  -0.9418265   0.2855831
0.0313608    -0.9980144  -0.0001506  -0.0001802   0.0002995   0.0000041  -0.0000197  -0.9417779   0.2856653
0.0317463    -0.9978690  -0.0000074  -0.0002415   0.0002815  -0.0000047   0.0000050  -0.9416988   0.2857371
0.0321366    -0.9978735  -0.0000222  -0.0001860   0.0001261   0.0000041  -0.0000031  -0.9417880   0.2857474
0.0325316    -0.9979905  -0.0001367  -0.0002590   0.0002110   0.0000030  -0.0000159  -0.9416747   0.2858300
0.0329316    -0.9979075  -0.0000133  -0.0002728   0.0001825   0.0000071  -0.0000175  -0.9416642   0.2859160
0.0333364    -0.9978822  -0.0000489  -0.0001838   0.0002894   0.0000033  -0.0000037  -0.9416956   0.2859965
0.0337462    -0.9979127  -0.0000962  -0.0001541   0.0001007   0.0000003   0.0000066  -0.9415459   0.2858363
0.0341610    -0.9978771  -0.0000524  -0.0001003   0.0002129   0.0000031  -0.0000018  -0.9415890   0.2860550
0.0345810    -0.9979553  -0.0000806  -0.0002522   0.0002645   0.0000025  -0.0000054  -0.9415994   0.2860402
0.0350061    -0.9978860  -0.0001210  -0.0000870   0.0003069   0.0000041   0.0000028  -0.9416480   0.2861025
0.0354365    -0.9980179  -0.0001513  -0.0001785   0.0002627   0.0000008  -0.0000113  -0.9415532   0.2862356
0.0358721    -0.9979795  -0.0002358  -0.0002329   0.0000794   0.0000027   0.0000040  -0.9415274   0.2861881
0.0363131    -0.9978690   0.0000937  -0.0001782   0.0002090  -0.0000035  -0.0000022  -0.9415787   0.2862180
0.0367595    -0.9979007  -0.0001922  -0.0003129   0.0002821  -0.0000029  -0.0000134  -0.9414277   0.2863980
0.0372114    -0.9979393  -0.0001265  -0.0002024   0.0001971   0.0000021  -0.0000147  -0.9414660   0.2864445
0.0376688    -0.9978442  -0.0000585  -0.0001662   0.0002070  -0.0000015  -0.0000004  -0.9414265   0.2864517
0.0381319    -0.9979685  -0.0001148  -0.0002287   0.0000664  -0.0000009  -0.0000148  -0.9414994   0.2864761
0.0386006    -0.9979825  -0.0000752  -0.0001770   0.0000542  -0.0000001  -0.0000062  -0.9414738   0.2866139
0.0390752    -0.9979510  -0.0000445  -0.0002273   0.0001837   0.0000058  -0.0000044  -0.9413666   0.2865701
0.0395555    -0.9978922   0.0000002   0.0005256   0.0002638  -0.0000018  -0.0000008  -0.9413887   0.2866159
0.0400418    -0.9979233  -0.0001171  -0.0001929   0.0001619  -0.0000059  -0.0000090  -0.9414225   0.2867169
0.0405340    -0.9979519  -0.0001410  -0.0001975   0.0002508   0.0000032  -0.0000083  -0.9413678   0.2866962
0.0410323    -0.9978430  -0.0001970  -0.0002107   0.0001767   0.0000113  -0.0000063  -0.9412536   0.2867964
0.0415368    -0.9978249  -0.0001516  -0.0001420   0.0000191  -0.0000101   0.0000046  -0.9413906   0.2868516
0.0420474    -0.9979289  -0.0001405  -0.0002787   0.0003420  -0.0000032  -0.0000059  -0.9413047   0.2867908
0.0425643    -0.9980953  -0.0000768   0.0002383   0.0000702   0.0000041  -0.0000041  -0.9412317   0.2868349
0.0430875    -0.9978531  -0.0001265  -0.0002165   0.0002472   0.0000041  -0.0000004  -0.9413051   0.2869693
0.0436172    -0.9980143  -0.0000785  -0.0001293   0.0002084  -0.0000077  -0.0000074  -0.9412355   0.2870156
0.0441534    -0.9978758  -0.0000357   0.0000256   0.0001329   0.0000004  -0.0000073  -0.9411886   0.2871031
0.0446962    -0.9978757  -0.0001743  -0.0001400   0.0002620  -0.0000045  -0.0000057  -0.9411981   0.2871376
0.0452457    -0.9979018   0.0000216  -0.0001486   0.0002457   0.0000028  -0.0000074  -0.9411458   0.2871384
0.0458019    -0.9979147  -0.0000181  -0.0001063  -0.0000439   0.0000017  -0.0000085  -0.9411226   0.2871739
0.0463649    -0.9979080   0.0000250  -0.0001851   0.0002319   0.0000098   0.0000013  -0.9410879   0.2872438
0.0469349    -0.9979428  -0.0001025  -0.0001356   0.0002197  -0.0000076  -0.0000056  -0.9410962   0.2873527
0.0475119    -0.9979335  -0.0001357  -0.0001084   0.0002764   0.0000017  -0.0000071  -0.9410704   0.2873649
0.0480960    -0.9979661  -0.0000474  -0.0002181   0.0002228  -0.0000044  -0.0000019  -0.9409973   0.2874680
0.0486872    -0.9979248  -0.0001062  -0.0001714   0.0001822  -0.0000129  -0.0000110  -0.9409651   0.2874875
0.0492857    -0.9978669  -0.0001040  -0.0001429   0.0002437  -0.0000002  -0.0000042  -0.9409461   0.2875644
0.0498916    -0.9980058  -0.0000221  -0.0001288   0.0002640  -0.0000045  -0.0000018  -0.9408737   0.2876173
0.0505050    -0.9979120  -0.0001057  -0.0002298   0.0002120  -0.0000103  -0.0000166  -0.9409469   0.2876108
0.0511258    -0.9980897   0.0000739  -0.0001613   0.0002752  -0.0000017  -0.0000074  -0.9409396   0.2877756
0.0517543    -0.9979420  -0.0002230  -0.0001654   0.0002406  -0.0000078  -0.0000062  -0.9409543   0.2877150
0.0523906    -0.9979174  -0.0001005  -0.0001221   0.0002085   0.0000057  -0.0000072  -0.9408638   0.2877875
0.0530346    -0.9979329  -0.0000461  -0.0000945   0.0002175   0.0000032  -0.0000115  -0.9408033   0.2878187
0.0536866    -0.9978431  -0.0000877  -0.0002061   0.0001881  -0.0000095  -0.0000167  -0.9408350   0.2878571
0.0543466    -0.9977923   0.0000313  -0.0001592   0.0002329  -0.0000052  -0.0000006  -0.9407425   0.2878680
0.0550146    -0.9980561   0.0001009  -0.0001714   0.0002861  -0.0000055  -0.0000045  -0.9407686   0.2879192
0.0556910    -0.9979073  -0.0001038  -0.0000759   0.0001931  -0.0000121  -0.0000102  -0.9406990   0.2879734
0.0563756    -0.9979689  -0.0001358  -0.0002118   0.0002324   0.0000018  -0.0000108  -0.9407175   0.2881117
0.0570686    -0.9979414  -0.0000763  -0.0001414   0.0001943   0.0000006  -0.0000166  -0.9406780   0.2881488
0.0577702    -0.9979464  -0.0001256  -0.0001625   0.0002314  -0.0000013  -0.0000054  -0.9406106   0.2882546
0.0584804    -0.9979015  -0.0001718  -0.0001560   0.0000011   0.0000011  -0.0000075  -0.9405687   0.2881916
0.0591993    -0.9979710  -0.0000111  -0.0002574   0.0002175   0.0000087   0.0000003  -0.9405477   0.2882490
0.0599270    -0.9978885  -0.0000874  -0.0002261   0.0002119   0.0000084  -0.0000020  -0.9406534   0.2883762
0.0606637    -0.9978126  -0.0000765  -0.0001353   0.0002098  -0.0000008  -0.0000084  -0.9404613   0.2883609
0.0614095    -0.9979213   0.0000116  -0.0001770   0.0002416  -0.0000130   0.0000009  -0.9405219   0.2883972
0.0621644    -0.9979246  -0.0000005  -0.0000713   0.0002352  -0.0000010  -0.0000074  -0.9405535   0.2885076
0.0629286    -0.9979482  -0.0001065  -0.0000882   0.0001749  -0.0000052  -0.0000012  -0.9404398   0.2884878
0.0637022    -0.9978718  -0.0001937  -0.0001569   0.0002309   0.0000020  -0.0000046  -0.9403573   0.2886245
0.0644853    -0.9979880  -0.0000851  -0.0001001   0.0002908  -0.0000014  -0.0000039  -0.9404157   0.2886764
0.0652780    -0.9979194  -0.0001638  -0.0001639   0.0002757   0.0000039  -0.0000084  -0.9403190   0.2886986
0.0660805    -0.9978519  -0.0002021  -0.0000990   0.0001776  -0.0000050  -0.0000067  -0.9402917   0.2888275
0.0668928    -0.9978931  -0.0000996  -0.0000841   0.0002679  -0.0000128  -0.0000122  -0.9402203   0.2888212
0.0677152    -0.9979445  -0.0001261  -0.0001165   0.0002249   0.0000000  -0.0000112  -0.9402024   0.2888230
0.0685476    -0.9979237  -0.0002256  -0.0001151   0.0002682  -0.0000072  -0.0000117  -0.9401862   0.2888922
0.0693903    -0.9978200  -0.0001680  -0.0001636   0.0002732  -0.0000004  -0.0000041  -0.9401122   0.2890172
0.0702433    -0.9979223  -0.0001340  -0.0001391   0.0001654  -0.0000029   0.0000041  -0.9401311   0.2890242
0.0711068    -0.9979167  -0.0000933  -0.0000770   0.0002700   0.0000037  -0.0000059  -0.9400895   0.2890692
0.0719810    -0.9978722  -0.0000407  -0.0001741   0.0002028  -0.0000091   0.0000050  -0.9400307   0.2890734
0.0728659    -0.9979263  -0.0000911  -0.0001283   0.0003384   0.0000052  -0.0000014  -0.9399982   0.2891921
0.0737616    -0.9979890  -0.0001284  -0.0000942   0.0001909  -0.0000012   0.0000004  -0.9399166   0.2892475
0.0746684    -0.9978602  -0.0001569  -0.0001603   0.0001851   0.0000073  -0.0000086  -0.9399425   0.2892933
0.0755863    -0.9979612  -0.0001993  -0.0001046   0.0002702  -0.0000051  -0.0000018  -0.9398644   0.2893296
0.0765155    -0.9979530  -0.0001478  -0.0001143   0.0002349  -0.0000040  -0.0000102  -0.9398543   0.2893451
0.0774561    -0.9979342  -0.0001472  -0.0001361   0.0001734   0.0000021  -0.0000132  -0.9397228   0.2894283
0.0784083    -0.9978403  -0.0001797  -0.0003790   0.0003616   0.0000033   0.0000006  -0.9396576   0.2894038
0.0793722    -0.9979586  -0.0000560   0.0001654   0.0002425  -0.0000042  -0.0000104  -0.9396161   0.2895158
0.0803479    -0.9978511  -0.0000432  -0.0002369   0.0003668   0.0000014  -0.0000099  -0.9396115   0.2895176
0.0813357    -0.9978387  -0.0001591  -0.0002049   0.0004940  -0.0000006  -0.0000007  -0.9394970   0.2895606
0.0823356    -0.9979239  -0.0001545  -0.0001406   0.0001801  -0.0000053  -0.0000076  -0.9394075   0.2896695
0.0833477    -0.9977697  -0.0000550  -0.0000783   0.0002899   0.0000061  -0.0000029  -0.9393761   0.2896456
0.0843723    -0.9979490  -0.0002252  -0.0000599   0.0002837   0.0000086  -0.0000037  -0.9393115   0.2897923
0.0854095    -0.9979332  -0.0001149  -0.0001104   0.0002611  -0.0000026  -0.0000074  -0.9392051   0.2896720
0.0864595    -0.9978332  -0.0001920  -0.0001518   0.0002535  -0.0000029   0.0000073  -0.9391912   0.2898053
0.0875224    -0.9979296  -0.0001608  -0.0001152   0.0002997   0.0000034  -0.0000104  -0.9391330   0.2897833
0.0885983    -0.9978154  -0.0001125  -0.0000362   0.0002181  -0.0000022  -0.0000038  -0.9390844   0.2898074
0.0896875    -0.9978704  -0.0001607  -0.0000998   0.0002990   0.0000089  -0.0000091  -0.9389901   0.2898603
0.0907900    -0.9978470  -0.0002021  -0.0001318   0.0001663  -0.0000058  -0.0000009  -0.9389029   0.2897670
0.0919061    -0.9979637  -0.0001712  -0.0001104   0.0002212   0.0000026   0.0000009  -0.9387465   0.2898359
0.0930359    -0.9979491  -0.0002824  -0.0000709   0.0002509   0.0000012   0.0000016  -0.9387368   0.2897206
0.0941797    -0.9979192  -0.0002244  -0.0001123   0.0002826   0.0000025   0.0000095  -0.9386642   0.2897788
0.0953374    -0.9978310  -0.0004100  -0.0001069   0.0001805  -0.0000047   0.0000036  -0.9386589   0.2896874
0.0965094    -0.9978598  -0.0002182  -0.0001021   0.0002213   0.0000008  -0.0000022  -0.9385277   0.2897067
0.0976959    -0.9978866  -0.0002271  -0.0001236   0.0002868   0.0000064  -0.0000051  -0.9385353   0.2896980
0.0988969    -0.9978582  -0.0002239  -0.0001217   0.0002787  -0.0000068  -0.0000015  -0.9384663   0.2896201
0.1001126    -0.9979851  -0.0003129  -0.0000533   0.0002734  -0.0000042  -0.0000113  -0.9384273   0.2896009
0.1013433    -0.9979401  -0.0002866  -0.0002188   0.0001869  -0.0000066  -0.0000005  -0.9384162   0.2895283
0.1025892    -0.9979201  -0.0002218  -0.0001114   0.0002594  -0.0000089  -0.0000156  -0.9383242   0.2894642
0.1038503    -0.9980093  -0.0003703  -0.0001271   0.0002003  -0.0000061   0.0000026  -0.9383898   0.2893628
0.1051270    -0.9979107  -0.0003198  -0.0001226   0.0002623  -0.0000042   0.0000032  -0.9384645   0.2893710
0.1064193    -0.9980122  -0.0002697  -0.0001775   0.0002248  -0.0000009  -0.0000043  -0.9385210   0.2892712
0.1077276    -0.9979096  -0.0003335  -0.0001130   0.0002530  -0.0000010   0.0000042  -0.9385561   0.2893075
0.1090519    -0.9979596  -0.0003143  -0.0000785   0.0002764   0.0000081   0.0000023  -0.9386699   0.2891948
0.1103925    -0.9978958  -0.0002790  -0.0001279   0.0002532  -0.0000053  -0.0000082  -0.9386504   0.2892372
0.1117496    -0.9979590  -0.0002180  -0.0001451   0.0002271   0.0000070  -0.0000009  -0.9387449   0.2892651
0.1131233    -0.9980296  -0.0002611  -0.0001660   0.0002764  -0.0000109  -0.0000063  -0.9388706   0.2892237
0.1145140    -0.9980221  -0.0003873  -0.0001099   0.0002841  -0.0000020  -0.0000139  -0.9389367   0.2893050
0.1159217    -0.9979389  -0.0003551  -0.0000882   0.0002931  -0.0000058  -0.0000006  -0.9389502   0.2893045
0.1173468    -0.9979444  -0.0002046   0.0002945   0.0008659   0.0000043  -0.0000100  -0.9390159   0.2893834
0.1187893    -0.9980335  -0.0002831  -0.0006098  -0.0005376  -0.0000015  -0.0000112  -0.9391408   0.2894386
0.1202497    -0.9979779  -0.0002559  -0.0004925   0.0000792  -0.0000076  -0.0000202  -0.9391425   0.2894774
0.1217279    -0.9979692  -0.0002766  -0.0000846   0.0003020   0.0000047   0.0000067  -0.9391774   0.2895602
0.1232243    -0.9979218  -0.0003598  -0.0004021   0.0004586  -0.0000059  -0.0000097  -0.9393238   0.2897100
0.1247392    -0.9980029  -0.0002690  -0.0003542   0.0001314  -0.0000005  -0.0000021  -0.9393441   0.2897610
0.1262726    -0.9979527  -0.0002249  -0.0001598   0.0002479  -0.0000082  -0.0000107  -0.9393835   0.2898578
0.1278249    -0.9979806  -0.0002652  -0.0001387   0.0003241  -0.0000011  -0.0000062  -0.9393711   0.2899272
0.1293963    -0.9980018  -0.0002804  -0.0001468   0.0003201  -0.0000038  -0.0000042  -0.9394349   0.2900448
0.1309870    -0.9980030  -0.0002646  -0.0002693   0.0002372   0.0000004  -0.0000140  -0.9394403   0.2901690
0.1325973    -0.9979555  -0.0002795  -0.0002108   0.0002526  -0.0000006   0.0000020  -0.9394429   0.2901727
0.1342273    -0.9979449  -0.0002262  -0.0000563   0.0003614  -0.0000030  -0.0000066  -0.9395119   0.2902830
0.1358774    -0.9979581  -0.0001593  -0.0001197   0.0003754  -0.0000045   0.0000028  -0.9394840   0.2904587
0.1375478    -0.9980065  -0.0002545  -0.0001138   0.0003874   0.0000041  -0.0000011  -0.9395102   0.2904983
0.1392387    -0.9979751  -0.0003042  -0.0001357   0.0003043  -0.0000016  -0.0000030  -0.9394896   0.2906542
0.1409504    -0.9980532  -0.0003245  -0.0001602   0.0003451  -0.0000098  -0.0000030  -0.9395416   0.2907525
0.1426831    -0.9979612  -0.0002183  -0.0001195   0.0003534  -0.0000051  -0.0000032  -0.9395182   0.2907696
0.1444371    -0.9980395  -0.0003953  -0.0001505   0.0003536   0.0000040  -0.0000025  -0.9394529   0.2909111
0.1462127    -0.9980226  -0.0001417  -0.0001385   0.0002832   0.0000011  -0.0000080  -0.9395321   0.2910522
0.1480102    -0.9979344  -0.0003085  -0.0000813   0.0003795  -0.0000016  -0.0000117  -0.9394888   0.2911476
0.1498297    -0.9979926  -0.0001987  -0.0001527   0.0003593  -0.0000046   0.0000006  -0.9394295   0.2911965
0.1516716    -0.9979494  -0.0001796  -0.0000409   0.0001577  -0.0000031   0.0000037  -0.9394114   0.2913293
0.1535361    -0.9980023  -0.0003076  -0.0002473   0.0003637  -0.0000056  -0.0000089  -0.9394468   0.2914228
0.1554236    -0.9978526  -0.0003680  -0.0001770   0.0003774   0.0000006   0.0000022  -0.9394299   0.2915906
0.1573342    -0.9979755  -0.0003603  -0.0001330   0.0004160  -0.0000109  -0.0000090  -0.9393141   0.2916879
0.1592684    -0.9979303  -0.0003281  -0.0002274   0.0003730   0.0000048   0.0000032  -0.9394186   0.2917255
0.1612263    -0.9980357  -0.0003534  -0.0001862   0.0004092   0.0000049  -0.0000010  -0.9393069   0.2918717
0.1632083    -0.9979421  -0.0002439  -0.0002592   0.0003815   0.0000052  -0.0000046  -0.9393931   0.2919294
0.1652147    -0.9979334  -0.0003944  -0.0001167   0.0004324  -0.0000054   0.0000015  -0.9392935   0.2920767
0.1672457    -0.9979416  -0.0003248  -0.0001572   0.0004092   0.0000058  -0.0000092  -0.9392819   0.2921465
0.1693017    -0.9978848  -0.0003319  -0.0001565   0.0004051  -0.0000093  -0.0000026  -0.9392562   0.2921591
0.1713829    -0.9979896  -0.0003018  -0.0002405   0.0004652  -0.0000062  -0.0000029  -0.9392212   0.2923577
0.1734898    -0.9979974  -0.0002988  -0.0001205   0.0004727  -0.0000008   0.0000005  -0.9391912   0.2923584
0.1756225    -0.9979526  -0.0002841  -0.0001431   0.0004579   0.0000067  -0.0000024  -0.9391699   0.2925539
0.1777815    -0.9978770  -0.0002965  -0.0001412   0.0004563  -0.0000031  -0.0000086  -0.9390592   0.2925714
0.1799670    -0.9979330  -0.0002861  -0.0003754   0.0003480  -0.0000053  -0.0000102  -0.9390654   0.2927581
0.1821794    -0.9980493  -0.0004070  -0.0001923   0.0004868   0.0000027  -0.0000042  -0.9390483   0.2928551
0.1844190    -0.9979357  -0.0003849  -0.0001521   0.0004603  -0.0000014  -0.0000113  -0.9391059   0.2929285
0.1866861    -0.9979862  -0.0003441  -0.0000924   0.0004840  -0.0000025  -0.0000085  -0.9389236   0.2930493
0.1889811    -0.9979382  -0.0003117  -0.0001700   0.0004990  -0.0000052  -0.0000045  -0.9389341   0.2931909
0.1913043    -0.9980412  -0.0003004  -0.0002368   0.0004821  -0.0000022  -0.0000077  -0.9389398   0.2931881
0.1936560    -0.9979584  -0.0003309  -0.0001971   0.0004536  -0.0000029   0.0000011  -0.9388743   0.2934055
0.1960367    -0.9980506  -0.0002998  -0.0001523   0.0004956  -0.0000034  -0.0000113  -0.9388666   0.2935421
0.1984466    -0.9979956  -0.0002278  -0.0001819   0.0005320  -0.0000069  -0.0000007  -0.9388003   0.2935264
0.2008861    -0.9978912  -0.0004016  -0.0001626   0.0003859  -0.0000035  -0.0000135  -0.9388468   0.2937072
0.2033557    -0.9978349  -0.0003746  -0.0001550   0.0004927  -0.0000017  -0.0000072  -0.9388149   0.2937507
0.2058556    -0.9979592  -0.0002773  -0.0001973   0.0004793   0.0000063  -0.0000012  -0.9386165   0.2938308
0.2083862    -0.9979331  -0.0004701  -0.0001811   0.0005512  -0.0000007  -0.0000098  -0.9386430   0.2939738
0.2109480    -0.9980081  -0.0004242  -0.0001233   0.0005670  -0.0000041   0.0000037  -0.9386125   0.2940661
0.2135412    -0.9978580  -0.0003511  -0.0001546   0.0005410   0.0000026  -0.0000099  -0.9385548   0.2941996
0.2161663    -0.9979921  -0.0004255  -0.0001414   0.0006041   0.0000069  -0.0000061  -0.9385860   0.2942747
0.2188237    -0.9979457  -0.0003797  -0.0001543   0.0005652  -0.0000015  -0.0000051  -0.9385893   0.2944157
0.2215137    -0.9978601  -0.0005119  -0.0001668   0.0005499  -0.0000176  -0.0000081  -0.9384733   0.2944849
0.2242369    -0.9979258  -0.0003948  -0.0001299   0.0005291  -0.0000093  -0.0000156  -0.9383799   0.2946712
0.2269935    -0.9979446  -0.0003096  -0.0001582   0.0006178  -0.0000070  -0.0000102  -0.9383557   0.2947396
0.2297839    -0.9979865  -0.0005131  -0.0001021   0.0006341   0.0000008  -0.0000095  -0.9383288   0.2948782
0.2326087    -0.9978673  -0.0004634  -0.0001806   0.0005900  -0.0000072  -0.0000042  -0.9383012   0.2949777
0.2354682    -0.9980024  -0.0004517  -0.0000554   0.0005872   0.0000062  -0.0000025  -0.9382314   0.2950852
0.2383629    -0.9979638  -0.0003804  -0.0002152   0.0006238   0.0000095  -0.0000077  -0.9382402   0.2951383
0.2412932    -0.9978812  -0.0003859  -0.0001069   0.0006344  -0.0000204  -0.0000146  -0.9381400   0.2952565
0.2442594    -0.9979698  -0.0003538  -0.0001873   0.0006668  -0.0000093   0.0000065  -0.9381314   0.2954319
0.2472622    -0.9980043  -0.0004133  -0.0000907   0.0006173  -0.0000034  -0.0000044  -0.9381191   0.2955686
0.2503018    -0.9978908  -0.0003790  -0.0002019   0.0006827  -0.0000125  -0.0000093  -0.9379876   0.2957517
0.2533788    -0.9979869  -0.0004487  -0.0001938   0.0006903  -0.0000040   0.0000031  -0.9379655   0.2957465
0.2564937    -0.9980386  -0.0004416  -0.0001436   0.0006587  -0.0000017  -0.0000116  -0.9379517   0.2958429
0.2596468    -0.9979652  -0.0004108  -0.0002208   0.0007001  -0.0000103  -0.0000019  -0.9378675   0.2960615
0.2628387    -0.9978597  -0.0004263  -0.0001244   0.0006819   0.0000019   0.0000031  -0.9378421   0.2962113
0.2660699    -0.9980085  -0.0004635  -0.0001478   0.0007213   0.0000030  -0.0000001  -0.9377637   0.2962477
0.2693407    -0.9979423  -0.0004896  -0.0002093   0.0007593   0.0000029   0.0000017  -0.9376920   0.2964796
0.2726518    -0.9979530  -0.0004458  -0.0001924   0.0007310   0.0000098  -0.0000065  -0.9376563   0.2965318
0.2760036    -0.9979227  -0.0005166  -0.0001584   0.0007074  -0.0000009  -0.0000004  -0.9376370   0.2967253
0.2793966    -0.9979738  -0.0005961  -0.0001417   0.0008063   0.0000015  -0.0000069  -0.9375655   0.2967840
0.2828312    -0.9980132  -0.0004203  -0.0001878   0.0007509  -0.0000054  -0.0000065  -0.9375553   0.2969881
0.2863082    -0.9980115  -0.0004988  -0.0001309   0.0007413  -0.0000069  -0.0000156  -0.9374514   0.2970842
0.2898278    -0.9980559  -0.0005286  -0.0001923   0.0007415   0.0000011  -0.0000148  -0.9373987   0.2972562
0.2933907    -0.9980369  -0.0005155  -0.0001459   0.0007885  -0.0000071  -0.0000110  -0.9374491   0.2973166
0.2969975    -0.9979607  -0.0005356  -0.0001708   0.0008204   0.0000025  -0.0000002  -0.9373918   0.2974570
0.3006485    -0.9978957  -0.0004408  -0.0002775   0.0007910  -0.0000037  -0.0000003  -0.9372446   0.2976492
0.3043445    -0.9979199  -0.0005474  -0.0001890   0.0008149   0.0000030  -0.0000090  -0.9372233   0.2977212
0.3080858    -0.9979743  -0.0005210  -0.0001172   0.0006939   0.0000008  -0.0000047  -0.9371217   0.2978439
0.3118732    -0.9980035  -0.0006073  -0.0001795   0.0007865  -0.0000029  -0.0000037  -0.9370846   0.2981255
0.3157071    -0.9980159  -0.0005447  -0.0001136   0.0008179   0.0000001  -0.0000051  -0.9369519   0.2981806
0.3195882    -0.9979251  -0.0006730  -0.0001454   0.0008700  -0.0000056  -0.0000075  -0.9369621   0.2983713
0.3235170    -0.9979282  -0.0006093  -0.0001810   0.0008068   0.0000005  -0.0000101  -0.9368877   0.2985743
0.3274941    -0.9979311  -0.0006346  -0.0001272   0.0008376  -0.0000171  -0.0000030  -0.9368245   0.2986018
0.3315200    -0.9979479  -0.0005132  -0.0001709   0.0008096  -0.0000011  -0.0000002  -0.9366881   0.2987612
0.3355955    -0.9979693  -0.0005190  -0.0001043   0.0008699   0.0000024  -0.0000098  -0.9367534   0.2988743
0.3397210    -0.9978421  -0.0006108  -0.0001659   0.0008153  -0.0000033  -0.0000140  -0.9366286   0.2991156
0.3438973    -0.9978839  -0.0006176  -0.0001389   0.0008963   0.0000025  -0.0000018  -0.9365542   0.2991742
0.3481249    -0.9979882  -0.0006992  -0.0001719   0.0009444  -0.0000090  -0.0000003  -0.9365513   0.2993079
0.3524045    -0.9979411  -0.0006565  -0.0001612   0.0009389   0.0000071  -0.0000049  -0.9364981   0.2994654
0.3567367    -0.9980431  -0.0005463  -0.0001253   0.0009414   0.0000048  -0.0000006  -0.9364733   0.2996630
0.3611221    -0.9979848  -0.0005771  -0.0001284   0.0008656  -0.0000009  -0.0000053  -0.9363157   0.2998125
0.3655615    -0.9978436  -0.0006263  -0.0001368   0.0009959   0.0000008   0.0000035  -0.9362350   0.2999891
0.3700554    -0.9979541  -0.0007521  -0.0000503   0.0009767  -0.0000078   0.0000013  -0.9361766   0.3001423
0.3746046    -0.9978406  -0.0006116  -0.0001144   0.0009673  -0.0000074   0.0000052  -0.9360952   0.3002810
0.3792097    -0.9980090  -0.0006746  -0.0001642   0.0009703   0.0000027  -0.0000014  -0.9360310   0.3005167
0.3838714    -0.9979593  -0.0006228  -0.0000833   0.0010581  -0.0000147   0.0000006  -0.9360487   0.3006684
0.3885905    -0.9979724  -0.0006133  -0.0001455   0.0010417   0.0000014  -0.0000025  -0.9359445   0.3008066
0.3933675    -0.9980869  -0.0006748  -0.0001064   0.0010398  -0.0000064  -0.0000079  -0.9358374   0.3010662
0.3982033    -0.9980386  -0.0007563  -0.0000882   0.0010953   0.0000045  -0.0000028  -0.9357388   0.3011775
0.4030985    -0.9980579  -0.0007828  -0.0000802   0.0010706  -0.0000013  -0.0000019  -0.9356822   0.3013380
0.4080538    -0.9979491  -0.0006973  -0.0000622   0.0010629   0.0000088  -0.0000011  -0.9356213   0.3015114
0.4130701    -0.9980580  -0.0008095  -0.0000575   0.0010725  -0.0000030  -0.0000011  -0.9354990   0.3017008
0.4181481    -0.9979819  -0.0007818  -0.0000581   0.0010974  -0.0000217  -0.0000123  -0.9354835   0.3019167
0.4232885    -0.9980249  -0.0007272  -0.0000400   0.0010924   0.0000013  -0.0000042  -0.9353929   0.3020374
0.4284921    -0.9980594  -0.0007653  -0.0000664   0.0011375   0.0000050  -0.0000019  -0.9353126   0.3021829
0.4337597    -0.9980105  -0.0007358  -0.0000496   0.0011494  -0.0000025  -0.0000129  -0.9351899   0.3024178
0.4390920    -0.9979519  -0.0007898  -0.0000640   0.0011691   0.0000014  -0.0000040  -0.9351455   0.3026475
0.4444898    -0.9979954  -0.0008068  -0.0000807   0.0010731   0.0000003  -0.0000071  -0.9350953   0.3028394
0.4499541    -0.9979291  -0.0008209  -0.0000616   0.0011459   0.0000018   0.0000071  -0.9349420   0.3029515
0.4554854    -0.9979493  -0.0008781  -0.0000189   0.0012315  -0.0000024   0.0000004  -0.9349191   0.3031716
0.4610848    -0.9979172  -0.0008422  -0.0000210   0.0011836   0.0000036  -0.0000010  -0.9347462   0.3034583
0.4667531    -0.9981009  -0.0008248  -0.0001239   0.0012097  -0.0000048  -0.0000122  -0.9347264   0.3035858
0.4724910    -0.9979491  -0.0008787  -0.0000198   0.0012598   0.0000114  -0.0000039  -0.9345766   0.3037551
0.4782994    -0.9978986  -0.0008328  -0.0000333   0.0012173  -0.0000062  -0.0000052  -0.9345650   0.3040264
0.4841793    -0.9979291  -0.0008767   0.0000019   0.0012483   0.0000106   0.0000023  -0.9344129   0.3041643
0.4901314    -0.9979878  -0.0008308  -0.0000092   0.0012273   0.0000062  -0.0000086  -0.9344641   0.3044346
0.4961567    -0.9980544  -0.0009679  -0.0000686   0.0012059  -0.0000058  -0.0000014  -0.9343045   0.3046205
0.5022561    -0.9979593  -0.0008531  -0.0000169   0.0012567  -0.0000017  -0.0000053  -0.9341865   0.3048411
0.5084304    -0.9979753  -0.0008270  -0.0000173   0.0012927  -0.0000013  -0.0000019  -0.9340425   0.3051119
0.5146807    -0.9979395  -0.0009536   0.0000047   0.0013153  -0.0000092  -0.0000063  -0.9339961   0.3052493
0.5210078    -0.9980096  -0.0008942  -0.0000120   0.0012598   0.0000043  -0.0000041  -0.9338725   0.3054744
0.5274126    -0.9980395  -0.0009583  -0.0000544   0.0013342  -0.0000064  -0.0000075  -0.9338402   0.3057256
0.5338963    -0.9979087  -0.0010033  -0.0000278   0.0012953   0.0000003   0.0000057  -0.9337405   0.3059158
0.5404596    -0.9979154  -0.0010191   0.0000370   0.0013579  -0.0000084   0.0000050  -0.9336710   0.3062319
0.5471036    -0.9979305  -0.0010581  -0.0000749   0.0013905  -0.0000094  -0.0000065  -0.9335276   0.3063257
0.5538292    -0.9981010  -0.0010093  -0.0000090   0.0013768   0.0000020  -0.0000054  -0.9334165   0.3066357
0.5606376    -0.9979646  -0.0009023  -0.0000103   0.0014092  -0.0000026  -0.0000073  -0.9332411   0.3068205
0.5675297    -0.9979590  -0.0010877  -0.0000044   0.0014415  -0.0000022  -0.0000028  -0.9331879   0.3071370
0.5745064    -0.9979418  -0.0010324  -0.0000352   0.0014573   0.0000018   0.0000011  -0.9330557   0.3073340
0.5815690    -0.9980013  -0.0009190  -0.0000313   0.0014127   0.0000020   0.0000047  -0.9330523   0.3075216
0.5887183    -0.9980383  -0.0010292   0.0000469   0.0015045  -0.0000109  -0.0000114  -0.9328489   0.3077647
0.5959556    -0.9980048  -0.0010403   0.0000295   0.0014667  -0.0000057  -0.0000093  -0.9327533   0.3080503
0.6032818    -0.9980098  -0.0011536  -0.0003237   0.0010120  -0.0000051  -0.0000031  -0.9326622   0.3083318
0.6106981    -0.9980413  -0.0011584   0.0000717   0.0018659   0.0000033  -0.0000101  -0.9325332   0.3086434
0.6182056    -0.9979677  -0.0011015   0.0000307   0.0015334   0.0000045  -0.0000047  -0.9324797   0.3087512
0.6258053    -0.9980178  -0.0010711   0.0000735   0.0015146  -0.0000036   0.0000009  -0.9323100   0.3090988
0.6334985    -0.9979799  -0.0010952   0.0000723   0.0015791   0.0000043  -0.0000057  -0.9322906   0.3093580
0.6412862    -0.9981033  -0.0011557   0.0001332   0.0014750  -0.0000087  -0.0000039  -0.9320162   0.3096498
0.6491697    -0.9979999  -0.0010755   0.0000486   0.0015503  -0.0000025   0.0000017  -0.9320639   0.3099768
0.6571501    -0.9979364  -0.0011639   0.0000544   0.0015839  -0.0000156  -0.0000076  -0.9318527   0.3101546
0.6652286    -0.9980581  -0.0012396   0.0000854   0.0016086   0.0000013  -0.0000025  -0.9317385   0.3105023
0.6734064    -0.9979442  -0.0011922   0.0000554   0.0016062  -0.0000007  -0.0000128  -0.9316249   0.3107810
0.6816848    -0.9980218  -0.0011943   0.0000471   0.0015641  -0.0000108  -0.0000052  -0.9314518   0.3109770
0.6900649    -0.9980126  -0.0012426   0.0000440   0.0016512  -0.0000001  -0.0000024  -0.9313558   0.3112493
0.6985480    -0.9980497  -0.0012251   0.0000750   0.0017029  -0.0000011  -0.0000022  -0.9312130   0.3116300
0.7071355    -0.9979794  -0.0012430   0.0000926   0.0016567   0.0000024  -0.0000047  -0.9311384   0.3119213
0.7158284    -0.9979530  -0.0013674   0.0001368   0.0016878   0.0000018  -0.0000044  -0.9310515   0.3121998
0.7246283    -0.9980445  -0.0012391   0.0001333   0.0017420  -0.0000065  -0.0000022  -0.9308397   0.3124587
0.7335363    -0.9981225  -0.0012849   0.0001023   0.0017051   0.0000072  -0.0000030  -0.9308036   0.3127722
0.7425539    -0.9980076  -0.0013455   0.0000903   0.0017218  -0.0000014  -0.0000051  -0.9306783   0.3131388
0.7516822    -0.9980780  -0.0013142   0.0000286   0.0018058  -0.0000061   0.0000039  -0.9304417   0.3133883
0.7609229    -0.9980277  -0.0013657   0.0000814   0.0017500  -0.0000108  -0.0000073  -0.9302693   0.3136903
0.7702771    -0.9979948  -0.0013770   0.0000759   0.0018079   0.0000060  -0.0000118  -0.9301103   0.3139566
0.7797463    -0.9979612  -0.0014273   0.0000631   0.0015787  -0.0000053  -0.0000039  -0.9299867   0.3143409
0.7893319    -0.9980440  -0.0012329   0.0000871   0.0017975  -0.0000011  -0.0000039  -0.9298566   0.3146606
0.7990353    -0.9979555  -0.0014340   0.0000969   0.0019457   0.0000108   0.0000006  -0.9297423   0.3149845
0.8088580    -0.9979613  -0.0013599   0.0001058   0.0021118  -0.0000011  -0.0000043  -0.9295781   0.3153214
0.8188015    -0.9979270  -0.0014167   0.0001173   0.0019573  -0.0000041  -0.0000032  -0.9294537   0.3156519
0.8288673    -0.9980257  -0.0014926   0.0001658   0.0019096  -0.0000032  -0.0000065  -0.9292674   0.3159989
0.8390567    -0.9980536  -0.0014934  -0.0001402   0.0021230   0.0000029  -0.0000167  -0.9291964   0.3163791
0.8493714    -0.9979987  -0.0015004   0.0000781   0.0019459   0.0000081  -0.0000012  -0.9290133   0.3166715
0.8598130    -0.9978938  -0.0015074   0.0001150   0.0019439   0.0000073  -0.0000083  -0.9288463   0.3170546
0.8703829    -0.9979574  -0.0015922   0.0001377   0.0019906   0.0000037  -0.0000044  -0.9286617   0.3173866
0.8810827    -0.9980485  -0.0015559   0.0001289   0.0020987  -0.0000029  -0.0000054  -0.9285109   0.3178376
0.8919140    -0.9980632  -0.0015533   0.0000739   0.0015827   0.0000023  -0.0000108  -0.9283561   0.3181357
0.9028786    -0.9981398  -0.0015580  -0.0001750   0.0025187  -0.0000092   0.0000004  -0.9281942   0.3185210
0.9139779    -0.9980293  -0.0015898   0.0000902   0.0021579  -0.0000026  -0.0000067  -0.9280326   0.3189216
0.9252136    -0.9980692  -0.0015803   0.0001553   0.0020484  -0.0000001  -0.0000139  -0.9278553   0.3192816
0.9365875    -0.9981346  -0.0016345   0.0001125   0.0021835  -0.0000034   0.0000006  -0.9276938   0.3196557
0.9481012    -0.9980360  -0.0016538   0.0001354   0.0021583  -0.0000017  -0.0000055  -0.9275186   0.3200543
0.9597564    -0.9980494  -0.0016454   0.0001079   0.0021445  -0.0000017  -0.0000023  -0.9273121   0.3204456
0.9715549    -0.9980484  -0.0016590   0.0001522   0.0022078  -0.0000036  -0.0000012  -0.9271461   0.3208858
0.9834985    -0.9979966  -0.0017335   0.0001128   0.0022098  -0.0000065  -0.0000013  -0.9270109   0.3212321
0.9955889    -0.9981135  -0.0017505   0.0001406   0.0021974  -0.0000032  -0.0000050  -0.9268638   0.3216050
1.0078279    -0.9980098  -0.0016713   0.0001495   0.0022529   0.0000107  -0.0000079  -0.9265545   0.3220619
1.0202173    -0.9980684  -0.0017558   0.0001321   0.0022996   0.0000011  -0.0000053  -0.9264578   0.3224213
1.0327591    -0.9981580  -0.0017763   0.0000718   0.0022679  -0.0000039  -0.0000004  -0.9262505   0.3229331
1.0454551    -0.9980667  -0.0018373   0.0001112   0.0023038   0.0000008  -0.0000101  -0.9260666   0.3233381
1.0583071    -0.9980264  -0.0018205   0.0001280   0.0023617  -0.0000013   0.0000049  -0.9258682   0.3237213
1.0713171    -0.9980526  -0.0018441   0.0001222   0.0023981  -0.0000064   0.0000018  -0.9255917   0.3241481
1.0844871    -0.9980594  -0.0018591   0.0001409   0.0023631  -0.0000048   0.0000027  -0.9254617   0.3245377
1.0978189    -0.9980093  -0.0019123   0.0001094   0.0024262   0.0000007   0.0000068  -0.9252756   0.3250599
1.1113147    -0.9980328  -0.0018791   0.0001299   0.0024409  -0.0000006  -0.0000055  -0.9250334   0.3254274
1.1249763    -0.9981609  -0.0019567   0.0001363   0.0024645  -0.0000013  -0.0000018  -0.9248774   0.3259905
1.1388059    -0.9980606  -0.0019497   0.0001685   0.0025048  -0.0000019  -0.0000060  -0.9247198   0.3264517
1.1528056    -0.9979480  -0.0019635   0.0000828   0.0024969  -0.0000044  -0.0000036  -0.9244583   0.3268988
1.1669773    -0.9979887  -0.0020191   0.0001960   0.0025554  -0.0000009  -0.0000082  -0.9242727   0.3273953
1.1813232    -0.9979246  -0.0020185   0.0001437   0.0025676  -0.0000031  -0.0000048  -0.9240773   0.3278585
1.1958455    -0.9979218  -0.0020646   0.0001243   0.0025877   0.0000009   0.0000004  -0.9238039   0.3283554
1.2105463    -0.9980847  -0.0021360   0.0001509   0.0026963  -0.0000031  -0.0000085  -0.9236208   0.3288517
1.2254278    -0.9979780  -0.0021464   0.0001435   0.0026772  -0.0000064   0.0000002  -0.9233540   0.3293477
1.2404923    -0.9980696  -0.0021768   0.0001482   0.0026742   0.0000005  -0.0000006  -0.9232183   0.3298264
1.2557420    -0.9980585  -0.0021798   0.0001095   0.0027003   0.0000060  -0.0000034  -0.9229541   0.3303611
1.2711791    -0.9980769  -0.0021389   0.0001291   0.0027883   0.0000058   0.0000032  -0.9226769   0.3308420
1.2868060    -0.9981177  -0.0021287   0.0002289   0.0028337  -0.0000086   0.0000018  -0.9224299   0.3313969
1.3026251    -0.9981515  -0.0023279   0.0001504   0.0028265   0.0000010  -0.0000178  -0.9221532   0.3319239
1.3186385    -0.9979885  -0.0023173   0.0001942   0.0028660  -0.0000032  -0.0000001  -0.9219294   0.3324706
1.3348489    -0.9980832  -0.0023836   0.0001749   0.0028545  -0.0000022  -0.0000067  -0.9217568   0.3330027
1.3512585    -0.9979619  -0.0023202   0.0004451   0.0030752  -0.0000067  -0.0000152  -0.9214508   0.3335168
1.3678698    -0.9980871  -0.0022622   0.0001177   0.0027839  -0.0000091  -0.0000157  -0.9212825   0.3340755
1.3846854    -0.9979675  -0.0023429  -0.0003397   0.0025128   0.0000027  -0.0000135  -0.9210106   0.3347380
1.4017077    -0.9980585  -0.0024604  -0.0007268   0.0033085   0.0000041   0.0000045  -0.9207423   0.3352204
1.4189392    -0.9981557  -0.0024472  -0.0005100   0.0033425   0.0000006   0.0000001  -0.9205003   0.3357456
1.4363825    -0.9980771  -0.0024963   0.0001562   0.0031632  -0.0000072  -0.0000012  -0.9202484   0.3363581
1.4540403    -0.9980574  -0.0024722   0.0000336   0.0031744  -0.0000064  -0.0000011  -0.9199559   0.3369570
1.4719152    -0.9980449  -0.0025276   0.0002750   0.0031538   0.0000078   0.0000075  -0.9197156   0.3376479
1.4900098    -0.9980099  -0.0025881  -0.0000265   0.0026873   0.0000059  -0.0000025  -0.9193985   0.3381595
1.5083269    -0.9980549  -0.0026160   0.0000134   0.0030636  -0.0000053   0.0000013  -0.9191216   0.3387463
1.5268691    -0.9981771  -0.0026601   0.0001904   0.0031626   0.0000075  -0.0000016  -0.9188447   0.3393919
1.5456392    -0.9980110  -0.0026732   0.0001915   0.0033019  -0.0000034  -0.0000016  -0.9186352   0.3399954
1.5646402    -0.9979844  -0.0025674   0.0001890   0.0032983   0.0000027  -0.0000022  -0.9183255   0.3407034
1.5838747    -0.9979765  -0.0027323   0.0001875   0.0033354  -0.0000058   0.0000018  -0.9180071   0.3413056
1.6033456    -0.9983021  -0.0026813   0.0001690   0.0034297  -0.0000038   0.0000005  -0.9178175   0.3419714
1.6230559    -0.9981404  -0.0026918   0.0001834   0.0034880   0.0000040  -0.0000088  -0.9174998   0.3426997
1.6430085    -0.9981539  -0.0028697   0.0002258   0.0035570  -0.0000092  -0.0000087  -0.9171685   0.3433497
1.6632064    -0.9981236  -0.0028093   0.0001175   0.0032594  -0.0000108  -0.0000073  -0.9168588   0.3440620
1.6836526    -0.9980896  -0.0029155   0.0001439   0.0036074   0.0000037  -0.0000099  -0.9166106   0.3447857
1.7043502    -0.9980496  -0.0029045   0.0001842   0.0036177   0.0000002  -0.0000113  -0.9161800   0.3455200
1.7253021    -0.9980651  -0.0029712   0.0000931   0.0036754  -0.0000079  -0.0000040  -0.9159925   0.3461715
1.7465117    -0.9980897  -0.0030697   0.0001819   0.0037045   0.0000025  -0.0000055  -0.9157903   0.3469968
1.7679820    -0.9980422  -0.0029930   0.0001624   0.0037044  -0.0000045   0.0000031  -0.9154066   0.3477171
1.7897162    -0.9980926  -0.0030521   0.0001585   0.0038266  -0.0000016  -0.0000074  -0.9151174   0.3484560
1.8117176    -0.9980820  -0.0030860   0.0001927   0.0038654  -0.0000088  -0.0000035  -0.9147761   0.3493066
1.8339895    -0.9981256  -0.0031469   0.0001741   0.0039005  -0.0000118  -0.0000034  -0.9144893   0.3500739
1.8565352    -0.9980238  -0.0031264   0.0001296   0.0039706  -0.0000061  -0.0000007  -0.9141587   0.3508992
1.8793580    -0.9981248  -0.0031212   0.0001769   0.0039615   0.0000050  -0.0000067  -0.9138773   0.3516445
1.9024614    -0.9981163  -0.0031960   0.0001859   0.0040017   0.0000034   0.0000019  -0.9136433   0.3524820
1.9258488    -0.9981303  -0.0032242   0.0001985   0.0041126  -0.0000040  -0.0000066  -0.9132013   0.3533232
1.9495237    -0.9981015  -0.0033061   0.0001346   0.0042207  -0.0000036  -0.0000086  -0.9128573   0.3542622
1.9734897    -0.9981450  -0.0033557   0.0001935   0.0042266  -0.0000027  -0.0000027  -0.9124967   0.3551210
1.9977503    -0.9981560  -0.0033329   0.0002382   0.0042289  -0.0000022  -0.0000100  -0.9121862   0.3560367
2.0223091    -0.9981576  -0.0034671   0.0001628   0.0042936   0.0000036  -0.0000066  -0.9117146   0.3569520
2.0471698    -0.9980748  -0.0034876   0.0001551   0.0043208   0.0000021  -0.0000058  -0.9112576   0.3578717
2.0723362    -0.9980413  -0.0034754   0.0001308   0.0044106  -0.0000052  -0.0000109  -0.9108508   0.3587810
2.0978119    -0.9981577  -0.0035201   0.0002217   0.0044754  -0.0000046  -0.0000081  -0.9103719   0.3597379
2.1236008    -0.9981677  -0.0036272   0.0001901   0.0045131  -0.0000093  -0.0000004  -0.9098752   0.3606545
2.1497067    -0.9981634  -0.0036412   0.0002061   0.0045470  -0.0000046  -0.0000022  -0.9093895   0.3616367
2.1761336    -0.9981132  -0.0036608   0.0001709   0.0046635  -0.0000068  -0.0000094  -0.9089004   0.3624516
2.2028853    -0.9981963  -0.0036902   0.0002080   0.0046882  -0.0000069  -0.0000036  -0.9082573   0.3634525
2.2299659    -0.9981266  -0.0037275   0.0001737   0.0047156  -0.0000041  -0.0000103  -0.9079217   0.3643863
2.2573794    -0.9980866  -0.0038425   0.0002101   0.0047726  -0.0000005   0.0000045  -0.9073349   0.3653268
2.2851299    -0.9980786  -0.0039840   0.0002360   0.0047661  -0.0000203  -0.0000078  -0.9067572   0.3662666
2.3132216    -0.9981849  -0.0039620   0.0000834   0.0048540  -0.0000061  -0.0000051  -0.9062437   0.3671181
2.3416586    -0.9981841  -0.0039150   0.0001867   0.0049503   0.0000013  -0.0000147  -0.9056892   0.3680784
2.3704451    -0.9980696  -0.0040003   0.0002010   0.0050117  -0.0000051  -0.0000091  -0.9051684   0.3691096
2.3995856    -0.9980769  -0.0040665   0.0002318   0.0050840  -0.0000066  -0.0000082  -0.9045189   0.3700807
2.4290843    -0.9981807  -0.0041653   0.0002574   0.0050467  -0.0000003  -0.0000136  -0.9041214   0.3709168
2.4589456    -0.9981148  -0.0041428   0.0002675   0.0051642  -0.0000015  -0.0000055  -0.9035454   0.3719175
2.4891740    -0.9982191  -0.0042731   0.0002401   0.0052523   0.0000065   0.0000046  -0.9030067   0.3729132
2.5197740    -0.9982150  -0.0042296   0.0002951   0.0052789  -0.0000101  -0.0000049  -0.9025121   0.3739415
2.5507502    -0.9980841  -0.0042840   0.0003399   0.0053608  -0.0000041   0.0000006  -0.9019500   0.3748543
2.5821072    -0.9981582  -0.0043224   0.0002498   0.0053606   0.0000005  -0.0000009  -0.9013914   0.3758758
2.6138496    -0.9982199  -0.0044515   0.0003076   0.0055062  -0.0000073  -0.0000027  -0.9007222   0.3768633
2.6459823    -0.9982012  -0.0044477   0.0002836   0.0055327  -0.0000029   0.0000048  -0.9001987   0.3779199
2.6785100    -0.9981652  -0.0045594   0.0003389   0.0056595  -0.0000082  -0.0000121  -0.8996597   0.3790409
2.7114376    -0.9982362  -0.0046257   0.0002780   0.0057075  -0.0000063  -0.0000062  -0.8990225   0.3800620
2.7447699    -0.9982205  -0.0046376   0.0002924   0.0058431   0.0000017  -0.0000063  -0.8984440   0.3810689
2.7785120    -0.9981883  -0.0046848   0.0003025   0.0057978  -0.0000026  -0.0000068  -0.8978285   0.3821643
2.8126689    -0.9981536  -0.0047045   0.0003004   0.0057213  -0.0000122   0.0000035  -0.8973122   0.3833147
2.8472457    -0.9981413  -0.0048521   0.0002795   0.0058956  -0.0000035  -0.0000070  -0.8967607   0.3844286
2.8822476    -0.9981891  -0.0047716   0.0003208   0.0060397   0.0000060   0.0000022  -0.8961782   0.3855124
2.9176798    -0.9981680  -0.0048870   0.0003400   0.0061088  -0.0000007  -0.0000141  -0.8955195   0.3866086
2.9535475    -0.9982040  -0.0048834   0.0003292   0.0061656  -0.0000058  -0.0000054  -0.8949483   0.3878070
2.9898562    -0.9983132  -0.0050848   0.0002586   0.0062584  -0.0000028  -0.0000049  -0.8942470   0.3890268
3.0266112    -0.9982120  -0.0051647   0.0003522   0.0063436  -0.0000014  -0.0000102  -0.8936296   0.3901293
3.0638180    -0.9982180  -0.0051157   0.0003436   0.0063856  -0.0000027  -0.0000106  -0.8929854   0.3913348
3.1014823    -0.9981087  -0.0051634   0.0003404   0.0065270   0.0000122   0.0000001  -0.8923790   0.3926033
3.1396096    -0.9982124  -0.0051815   0.0003574   0.0065316   0.0000007  -0.0000151  -0.8916534   0.3937399
3.1782055    -0.9983153  -0.0053396   0.0003714   0.0066536  -0.0000052  -0.0000060  -0.8910269   0.3950064
3.2172760    -0.9982723  -0.0053877   0.0003609   0.0066873  -0.0000021  -0.0000025  -0.8903442   0.3962763
3.2568267    -0.9981759  -0.0055497   0.0003994   0.0067507   0.0000000   0.0000010  -0.8897056   0.3975141
3.2968637    -0.9981419  -0.0056213   0.0004115   0.0068850   0.0000079  -0.0000071  -0.8889123   0.3988380
3.3373928    -0.9981797  -0.0056200   0.0004788   0.0069110  -0.0000055  -0.0000043  -0.8882090   0.4000991
3.3784202    -0.9981812  -0.0056751   0.0004446   0.0070091   0.0000017  -0.0000115  -0.8874257   0.4014749
3.4199519    -0.9982004  -0.0058387   0.0004611   0.0075357  -0.0000018  -0.0000072  -0.8867184   0.4027799
3.4619942    -0.9981860  -0.0057972   0.0003970   0.0072832   0.0000094  -0.0000015  -0.8859021   0.4040620
3.5045533    -0.9981888  -0.0058772   0.0005144   0.0075024  -0.0000130  -0.0000043  -0.8851955   0.4055343
3.5476356    -0.9982831  -0.0060134   0.0004267   0.0073731  -0.0000032  -0.0000072  -0.8844131   0.4068135
3.5912475    -0.9982177  -0.0060172   0.0007280   0.0074147   0.0000050  -0.0000068  -0.8835820   0.4081858
3.6353956    -0.9981989  -0.0060072   0.0005246   0.0076880  -0.0000033   0.0000033  -0.8828196   0.4096963
3.6800864    -0.9982826  -0.0061797   0.0006219   0.0077893  -0.0000019  -0.0000012  -0.8820544   0.4111741
3.7253266    -0.9983340  -0.0062000   0.0004081   0.0076498  -0.0000012   0.0000029  -0.8812237   0.4125975
3.7711229    -0.9982243  -0.0062555   0.0004898   0.0078289   0.0000036  -0.0000073  -0.8804596   0.4140384
3.8174822    -0.9982642  -0.0064817   0.0004602   0.0078620   0.0000054  -0.0000037  -0.8795996   0.4154965
3.8644115    -0.9981754  -0.0064724   0.0005079   0.0080097  -0.0000027  -0.0000005  -0.8788628   0.4170898
3.9119176    -0.9982677  -0.0065144   0.0004700   0.0081367   0.0000050  -0.0000047  -0.8780034   0.4186069
3.9600077    -0.9982812  -0.0065690   0.0004873   0.0081862  -0.0000003  -0.0000106  -0.8772529   0.4201030
4.0086890    -0.9981778  -0.0067770   0.0005396   0.0083223  -0.0000001  -0.0000011  -0.8762245   0.4216955
4.0579688    -0.9981626  -0.0067403   0.0005545   0.0084137   0.0000105  -0.0000087  -0.8753939   0.4232443
4.1078544    -0.9981137  -0.0068641   0.0005131   0.0084985   0.0000009  -0.0000062  -0.8745147   0.4247613
4.1583532    -0.9982768  -0.0070161   0.0005329   0.0085656  -0.0000076  -0.0000134  -0.8735491   0.4263804
4.2094729    -0.9982951  -0.0070942   0.0005764   0.0086517  -0.0000130  -0.0000085  -0.8727399   0.4279787
4.2612209    -0.9983364  -0.0071575   0.0006128   0.0088308   0.0000049  -0.0000003  -0.8717528   0.4295703
4.3136051    -0.9982622  -0.0072250   0.0004444   0.0087988   0.0000094  -0.0000038  -0.8707551   0.4312195
4.3666333    -0.9982356  -0.0073463   0.0006405   0.0089782  -0.0000042  -0.0000094  -0.8698497   0.4329018
4.4203134    -0.9982758  -0.0075010   0.0006767   0.0091017  -0.0000094  -0.0000055  -0.8687537   0.4345216
4.4746534    -0.9983274  -0.0074020   0.0006310   0.0091936  -0.0000100  -0.0000040  -0.8676684   0.4362446
4.5296613    -0.9982304  -0.0076248   0.0006676   0.0093376  -0.0000140  -0.0000062  -0.8666960   0.4379928
4.5853455    -0.9981828  -0.0078172   0.0006698   0.0094199   0.0000126  -0.0000056  -0.8655878   0.4397037
4.6417143    -0.9981610  -0.0078037   0.0006044   0.0095119   0.0000038  -0.0000010  -0.8644354   0.4412928
4.6987760    -0.9982300  -0.0078508   0.0006949   0.0096805  -0.0000146  -0.0000077  -0.8633619   0.4429503
4.7565392    -0.9983602  -0.0079979   0.0007382   0.0098113  -0.0000048  -0.0000118  -0.8622112   0.4446939
4.8150125    -0.9982498  -0.0081244   0.0007548   0.0099102   0.0000012  -0.0000054  -0.8610678   0.4463435
4.8742045    -0.9982705  -0.0081944   0.0006944   0.0099925   0.0000013  -0.0000100  -0.8598778   0.4479819
4.9341243    -0.9983083  -0.0082950   0.0007624   0.0101021  -0.0000079  -0.0000109  -0.8588102   0.4494953
4.9947807    -0.9983121  -0.0083467   0.0007726   0.0102677  -0.0000006  -0.0000013  -0.8578174   0.4510817
5.0561827    -0.9983510  -0.0084518   0.0008156   0.0103330  -0.0000007  -0.0000055  -0.8568059   0.4527803
5.1183396    -0.9983127  -0.0085901   0.0007256   0.0104341   0.0000014  -0.0000067  -0.8558557   0.4544847
5.1812606    -0.9983710  -0.0086677   0.0008393   0.0105896   0.0000041   0.0000007  -0.8549632   0.4562606
5.2449550    -0.9983078  -0.0088886   0.0008616   0.0106639  -0.0000038  -0.0000165  -0.8540537   0.4582926
5.3094325    -0.9983076  -0.0087607   0.0008042   0.0107601  -0.0000002  -0.0000129  -0.8530595   0.4601084
5.3747026    -0.9983146  -0.0090284   0.0007882   0.0109374  -0.0000032  -0.0000010  -0.8520304   0.4623129
5.4407751    -0.9983530  -0.0091195   0.0008614   0.0109975   0.0000050  -0.0000045  -0.8508710   0.4642557
5.5076599    -0.9982168  -0.0092247   0.0008421   0.0111574  -0.0000117  -0.0000096  -0.8497691   0.4663224
5.5753669    -0.9982696  -0.0092756   0.0007988   0.0113019   0.0000046  -0.0000046  -0.8485973   0.4684798
5.6439062    -0.9982801  -0.0094305   0.0008739   0.0114628   0.0000020  -0.0000020  -0.8474325   0.4705647
5.7132881    -0.9983446  -0.0096092   0.0008710   0.0115388  -0.0000053  -0.0000021  -0.8461542   0.4727491
5.7835229    -0.9983377  -0.0097486   0.0008823   0.0117111   0.0000120  -0.0000015  -0.8448744   0.4749231
5.8546211    -0.9983700  -0.0098101   0.0008334   0.0118408   0.0000019  -0.0000059  -0.8436650   0.4771559
5.9265934    -0.9983471  -0.0100066   0.0008824   0.0120363   0.0000031  -0.0000032  -0.8422969   0.4793258
5.9994504    -0.9983057  -0.0100814   0.0009796   0.0122657  -0.0000047  -0.0000054  -0.8409209   0.4814409
6.0732031    -0.9983976  -0.0101648   0.0009311   0.0121944  -0.0000113  -0.0000100  -0.8395623   0.4836481
6.1478624    -0.9983602  -0.0102177   0.0008775   0.0123851   0.0000063  -0.0000045  -0.8381859   0.4858738
6.2234396    -0.9983754  -0.0104365   0.0008850   0.0125031  -0.0000013  -0.0000036  -0.8366054   0.4881844
6.2999458    -0.9984094  -0.0104565   0.0009856   0.0126997  -0.0000015  -0.0000074  -0.8352632   0.4904485
6.3773925    -0.9983829  -0.0105915   0.0010051   0.0127725  -0.0000065  -0.0000109  -0.8337530   0.4927246
6.4557914    -0.9984424  -0.0107908   0.0008930   0.0129265   0.0000019  -0.0000044  -0.8322471   0.4949631
6.5351539    -0.9983948  -0.0109131   0.0009810   0.0131202  -0.0000016   0.0000001  -0.8307492   0.4973691
6.6154922    -0.9983181  -0.0109829   0.0010494   0.0132347   0.0000017  -0.0000067  -0.8291662   0.4997310
6.6968180    -0.9982663  -0.0111513   0.0010020   0.0134335  -0.0000013  -0.0000054  -0.8275994   0.5021189
6.7791436    -0.9983511  -0.0114279   0.0010117   0.0135797  -0.0000036  -0.0000061  -0.8260330   0.5044637
6.8624812    -0.9983089  -0.0114432   0.0010268   0.0137180  -0.0000017  -0.0000108  -0.8244187   0.5069328
6.9468433    -0.9983783  -0.0115650   0.0010635   0.0138113  -0.0000075   0.0000006  -0.8228260   0.5093485
7.0322425    -0.9983015  -0.0116566   0.0010088   0.0140799  -0.0000001  -0.0000017  -0.8211146   0.5118158
7.1186916    -0.9982985  -0.0119402   0.0010250   0.0142015   0.0000055  -0.0000068  -0.8194095   0.5143454
7.2062034    -0.9983383  -0.0120819   0.0009914   0.0144120  -0.0000054  -0.0000028  -0.8176992   0.5169044
7.2947909    -0.9983254  -0.0121184   0.0010548   0.0146009  -0.0000060  -0.0000003  -0.8159561   0.5194736
7.3844675    -0.9982375  -0.0123358   0.0009258   0.0146024  -0.0000109  -0.0000018  -0.8142863   0.5220747
7.4752466    -0.9983127  -0.0125160   0.0010471   0.0150085   0.0000062  -0.0000064  -0.8124937   0.5246904
7.5671416    -0.9984842  -0.0125973   0.0010659   0.0151562  -0.0000101   0.0000033  -0.8107805   0.5273408
7.6601662    -0.9984025  -0.0127001   0.0010778   0.0152573  -0.0000032  -0.0000058  -0.8089321   0.5300260
7.7543345    -0.9983635  -0.0129590   0.0011266   0.0152668  -0.0000011  -0.0000027  -0.8070409   0.5328550
7.8496604    -0.9983863  -0.0130597   0.0011346   0.0155518  -0.0000081  -0.0000079  -0.8052010   0.5356596
7.9461581    -0.9983100  -0.0131425   0.0011930   0.0157353  -0.0000041  -0.0000001  -0.8031845   0.5385086
8.0438422    -0.9983750  -0.0133446   0.0011499   0.0158923  -0.0000019   0.0000034  -0.8012046   0.5413537
8.1427270    -0.9983290  -0.0135156   0.0011121   0.0160870   0.0000042   0.0000010  -0.7990345   0.5443276
8.2428275    -0.9983950  -0.0137471   0.0011524   0.0162569   0.0000016   0.0000028  -0.7968067   0.5471867
8.3441586    -0.9983958  -0.0138410   0.0011766   0.0165129  -0.0000017   0.0000017  -0.7946318   0.5499687
8.4467353    -0.9982890  -0.0140385   0.0011865   0.0166568   0.0000085  -0.0000037  -0.7923743   0.5529673
8.5505731    -0.9984264  -0.0141866   0.0011889   0.0168872   0.0000036  -0.0000037  -0.7900742   0.5557386
8.6556873    -0.9983408  -0.0143495   0.0011829   0.0171109   0.0000022  -0.0000069  -0.7877981   0.5586649
8.7620937    -0.9984642  -0.0145572   0.0012472   0.0172572  -0.0000146  -0.0000022  -0.7855033   0.5615264
8.8698082    -0.9984740  -0.0147094   0.0012448   0.0174969   0.0000006  -0.0000076  -0.7831491   0.5644380
8.9788469    -0.9983770  -0.0149494   0.0012970   0.0176861   0.0000057  -0.0000060  -0.7808526   0.5673655
9.0892260    -0.9983420  -0.0151979   0.0012491   0.0179180  -0.0000017  -0.0000065  -0.7784899   0.5703176
9.2009621    -0.9984032  -0.0153033   0.0013042   0.0181705  -0.0000012  -0.0000011  -0.7759998   0.5733714
9.3140717    -0.9984192  -0.0154979   0.0013054   0.0183027   0.0000038   0.0000058  -0.7735743   0.5763568
9.4285718    -0.9983790  -0.0156588   0.0012890   0.0185675  -0.0000053  -0.0000121  -0.7711036   0.5794398
9.5444795    -0.9984221  -0.0159028   0.0013746   0.0188083  -0.0000082   0.0000062  -0.7685506   0.5825374
9.6618121    -0.9983538  -0.0160459   0.0013710   0.0189828   0.0000018  -0.0000043  -0.7660223   0.5856292
9.7805870    -0.9983558  -0.0163324   0.0012929   0.0191899   0.0000009   0.0000032  -0.7634060   0.5888029
9.9008221    -0.9984220  -0.0165432   0.0013345   0.0194271   0.0000039  -0.0000012  -0.7607542   0.5920226
10.0225353   -0.9983677  -0.0166126   0.0013760   0.0196728  -0.0000049  -0.0000083  -0.7581033   0.5951324
10.1457447   -0.9983385  -0.0169412   0.0013850   0.0198571  -0.0000039  -0.0000058  -0.7553612   0.5984296
10.2704688   -0.9984685  -0.0170020   0.0015969   0.0201357  -0.0000041  -0.0000085  -0.7526769   0.6017045
10.3967261   -0.9983996  -0.0173225   0.0014907   0.0201805  -0.0000061  -0.0000066  -0.7498397   0.6050384
10.5245356   -0.9984202  -0.0174859   0.0012639   0.0207267  -0.0000079  -0.0000076  -0.7469667   0.6082174
10.6539162   -0.9984087  -0.0177302   0.0015037   0.0208439   0.0000029   0.0000029  -0.7440703   0.6115378
10.7848873   -0.9984063  -0.0179005   0.0016474   0.0212477   0.0000005  -0.0000063  -0.7411368   0.6149778
10.9174685   -0.9984755  -0.0181687   0.0014770   0.0213658  -0.0000070  -0.0000035  -0.7381281   0.6183689
11.0516796   -0.9984392  -0.0182734   0.0014720   0.0215880  -0.0000045   0.0000037  -0.7349763   0.6217995
11.1875405   -0.9984602  -0.0185269   0.0015630   0.0218751   0.0000009  -0.0000076  -0.7319551   0.6253218
11.3250716   -0.9984189  -0.0188245   0.0015253   0.0221351  -0.0000013  -0.0000002  -0.7288001   0.6287838
11.4642934   -0.9983662  -0.0190310   0.0015426   0.0223513  -0.0000070  -0.0000020  -0.7255736   0.6322627
11.6052267   -0.9983694  -0.0192056   0.0015222   0.0226231  -0.0000104  -0.0000051  -0.7223402   0.6358978
11.7478926   -0.9984077  -0.0195012   0.0015996   0.0228858  -0.0000036   0.0000009  -0.7190147   0.6394037
11.8923122   -0.9984309  -0.0196772   0.0016361   0.0231341   0.0000007   0.0000002  -0.7156511   0.6429700
12.0385073   -0.9983563  -0.0199380   0.0016391   0.0234626  -0.0000075  -0.0000003  -0.7121713   0.6466395
12.1864995   -0.9983617  -0.0201686   0.0016328   0.0237617  -0.0000044  -0.0000095  -0.7086981   0.6502674
12.3363111   -0.9984505  -0.0204749   0.0016604   0.0239921  -0.0000098  -0.0000015  -0.7052440   0.6539590
12.4879643   -0.9983191  -0.0206922   0.0016963   0.0242590  -0.0000047  -0.0000026  -0.7015574   0.6576797
12.6414818   -0.9983778  -0.0208757   0.0016309   0.0245881   0.0000050  -0.0000068  -0.6978449   0.6613944
12.7968866   -0.9982665  -0.0211885   0.0017009   0.0249096   0.0000019  -0.0000131  -0.6941116   0.6651428
12.9542018   -0.9983310  -0.0214002   0.0016845   0.0251777   0.0000027   0.0000004  -0.6903715   0.6689079
13.1134509   -0.9983875  -0.0216444   0.0017814   0.0254272  -0.0000100  -0.0000035  -0.6864955   0.6727020
13.2746577   -0.9983260  -0.0220602   0.0017888   0.0257686  -0.0000033  -0.0000037  -0.6825288   0.6765492
13.4378462   -0.9984086  -0.0222131   0.0017476   0.0260973   0.0000116  -0.0000093  -0.6785797   0.6805044
13.6030409   -0.9983082  -0.0225157   0.0017842   0.0263838   0.0000024  -0.0000091  -0.6744924   0.6843455
13.7702663   -0.9983036  -0.0227459   0.0017748   0.0266659  -0.0000078   0.0000053  -0.6703140   0.6882447
13.9395475   -0.9983232  -0.0230404   0.0018613   0.0269607  -0.0000009  -0.0000010  -0.6661352   0.6921232
14.1109097   -0.9983632  -0.0232905   0.0018343   0.0273231  -0.0000038  -0.0000051  -0.6618006   0.6961022
14.2843785   -0.9983659  -0.0236465   0.0017951   0.0276454   0.0000052   0.0000030  -0.6574447   0.7000021
14.4599797   -0.9983281  -0.0238091   0.0018506   0.0279904   0.0000036  -0.0000067  -0.6530176   0.7040575
14.6377397   -0.9984055  -0.0241832   0.0019147   0.0282627  -0.0000093  -0.0000076  -0.6485291   0.7080584
14.8176850   -0.9983401  -0.0244818   0.0019343   0.0286830  -0.0000131   0.0000027  -0.6439510   0.7120446
14.9998423   -0.9984459  -0.0248178   0.0018757   0.0289821  -0.0000022  -0.0000131  -0.6392536   0.7161155
15.1842390   -0.9983878  -0.0251034   0.0020242   0.0293595  -0.0000130   0.0000049  -0.6344815   0.7202062
15.3709024   -0.9984019  -0.0254010   0.0018719   0.0296713  -0.0000048   0.0000017  -0.6297241   0.7242485
15.5598606   -0.9983968  -0.0256945   0.0019634   0.0300644  -0.0000054  -0.0000108  -0.6248621   0.7283607
15.7511417   -0.9983832  -0.0259481   0.0019444   0.0302352   0.0000019  -0.0000063  -0.6198680   0.7325479
15.9447743   -0.9984092  -0.0262902   0.0020596   0.0306630   0.0000020  -0.0000005  -0.6148227   0.7366409
16.1407872   -0.9983463  -0.0266093   0.0021161   0.0311460  -0.0000153  -0.0000110  -0.6095775   0.7408179
16.3392097   -0.9983985  -0.0269181   0.0021212   0.0316146  -0.0000056   0.0000011  -0.6043237   0.7450111
16.5400716   -0.9983100  -0.0272809   0.0021143   0.0319347  -0.0000077   0.0000002  -0.5990279   0.7492048
16.7434026   -0.9983307  -0.0275926   0.0021168   0.0323358  -0.0000112  -0.0000024  -0.5935454   0.7533613
16.9492333   -0.9983295  -0.0280147   0.0022150   0.0326849   0.0000049   0.0000022  -0.5880423   0.7577115
17.1575942   -0.9983252  -0.0281341   0.0024065   0.0330260  -0.0000039   0.0000064  -0.5824226   0.7618352
17.3685166   -0.9982634  -0.0285711   0.0020516   0.0334867  -0.0000002   0.0000013  -0.5767305   0.7661086
17.5820320   -0.9983292  -0.0289979   0.0022801   0.0339461  -0.0000036  -0.0000010  -0.5708657   0.7702965
17.7981721   -0.9983523  -0.0294254   0.0023090   0.0343770  -0.0000008  -0.0000063  -0.5649477   0.7746078
18.0169693   -0.9983234  -0.0296788   0.0023166   0.0346148  -0.0000148   0.0000015  -0.5589829   0.7788677
18.2384562   -0.9982455  -0.0299877   0.0023290   0.0350267  -0.0000088  -0.0000066  -0.5528978   0.7832294
18.4626659   -0.9982909  -0.0304622   0.0023122   0.0355619   0.0000017  -0.0000043  -0.5466180   0.7874117
18.6896319   -0.9982443  -0.0306976   0.0023973   0.0359935  -0.0000066   0.0000047  -0.5403799   0.7916946
18.9193880   -0.9982993  -0.0310947   0.0024145   0.0364113  -0.0000040  -0.0000020  -0.5338648   0.7960754
19.1519686   -0.9982257  -0.0314886   0.0024735   0.0366869   0.0000009  -0.0000067  -0.5272533   0.8003731
19.3874083   -0.9982943  -0.0319345   0.0025394   0.0371377  -0.0000090  -0.0000072  -0.5205907   0.8046701
19.6257423   -0.9983332  -0.0322847   0.0026428   0.0377412  -0.0000034  -0.0000054  -0.5139282   0.8090026
19.8670063   -0.9983364  -0.0327313   0.0024793   0.0381712  -0.0000003  -0.0000053  -0.5070653   0.8132444
20.1112361   -0.9984068  -0.0330152   0.0028573   0.0385502   0.0000014   0.0000039  -0.5000667   0.8175503
20.3584684   -0.9983065  -0.0334674   0.0027770   0.0391417  -0.0000109  -0.0000031  -0.4928451   0.8218131
20.6087399   -0.9982599  -0.0338868   0.0028287   0.0396439   0.0000064  -0.0000074  -0.4856078   0.8260492
20.8620881   -0.9982167  -0.0342975   0.0029315   0.0399336  -0.0000070   0.0000015  -0.4781752   0.8303917
21.1185507   -0.9982850  -0.0347233   0.0028724   0.0405895  -0.0000055   0.0000029  -0.4706816   0.8346281
21.3781661   -0.9982149  -0.0351457   0.0029880   0.0411182  -0.0000035  -0.0000010  -0.4630449   0.8387695
21.6409730   -0.9981241  -0.0355217   0.0029771   0.0415049  -0.0000039  -0.0000078  -0.4552968   0.8429882
21.9070107   -0.9981545  -0.0360125   0.0030095   0.0417833  -0.0000070   0.0000040  -0.4474480   0.8472129
22.1763188   -0.9982152  -0.0364942   0.0032103   0.0421652  -0.0000040   0.0000040  -0.4393970   0.8514093
22.4489376   -0.9981414  -0.0368413   0.0031888   0.0431736  -0.0000043  -0.0000038  -0.4312338   0.8556008
22.7249077   -0.9981789  -0.0372919   0.0032034   0.0435964  -0.0000006  -0.0000028  -0.4229033   0.8597198
23.0042705   -0.9980824  -0.0377437   0.0031953   0.0441029  -0.0000025   0.0000032  -0.4144679   0.8638397
23.2870675   -0.9981799  -0.0381816   0.0032178   0.0446165  -0.0000063   0.0000051  -0.4059703   0.8679089
23.5733409   -0.9982309  -0.0385828   0.0033130   0.0451224  -0.0000101  -0.0000119  -0.3971808   0.8719871
23.8631337   -0.9981389  -0.0392105   0.0032969   0.0456455  -0.0000095   0.0000009  -0.3882574   0.8759217
24.1564889   -0.9981673  -0.0396485   0.0033001   0.0462417  -0.0000145   0.0000020  -0.3793041   0.8799030
24.4534504   -0.9981710  -0.0402009   0.0035294   0.0467073  -0.0000039  -0.0000033  -0.3701540   0.8837846
24.7540625   -0.9980300  -0.0406374   0.0039460   0.0470528  -0.0000011  -0.0000056  -0.3608652   0.8877116
25.0583701   -0.9981373  -0.0410789   0.0032926   0.0478080   0.0000015  -0.0000007  -0.3513553   0.8915770
25.3664186   -0.9979782  -0.0416355   0.0035495   0.0485127  -0.0000058  -0.0000061  -0.3416299   0.8953736
25.6782541   -0.9980185  -0.0420459   0.0036413   0.0490333   0.0000039  -0.0000031  -0.3318719   0.8991532
25.9939230   -0.9979114  -0.0426142   0.0036504   0.0496251  -0.0000041  -0.0000050  -0.3219447   0.9027781
26.3134725   -0.9979842  -0.0431039   0.0037358   0.0502149   0.0000036  -0.0000035  -0.3118192   0.9063520
26.6369503   -0.9980147  -0.0437019   0.0037919   0.0508749  -0.0000030  -0.0000139  -0.3015927   0.9099376
26.9644047   -0.9979396  -0.0442189   0.0039122   0.0515224   0.0000019   0.0000037  -0.2911556   0.9134289
27.2958846   -0.9980206  -0.0447249   0.0040085   0.0521349  -0.0000076   0.0000021  -0.2805167   0.9167797
27.6314394   -0.9980287  -0.0451816   0.0040044   0.0527256  -0.0000017  -0.0000051  -0.2698048   0.9201340
27.9711193   -0.9978188  -0.0458005   0.0041205   0.0534235   0.0000071  -0.0000031  -0.2588429   0.9232956
28.3149750   -0.9978633  -0.0463614   0.0041281   0.0539993   0.0000039  -0.0000051  -0.2477763   0.9264440
28.6630578   -0.9978582  -0.0469042   0.0042578   0.0548136  -0.0000087  -0.0000003  -0.2365017   0.9294491
29.0154196   -0.9978064  -0.0475509   0.0042577   0.0553875  -0.0000064  -0.0000030  -0.2250419   0.9323611
29.3721131   -0.9978729  -0.0480749   0.0044061   0.0561933   0.0000014  -0.0000039  -0.2134533   0.9351741
29.7331915   -0.9978251  -0.0486179   0.0045454   0.0567677  -0.0000054  -0.0000036  -0.2016027   0.9379710
30.0987087   -0.9977968  -0.0492685   0.0045896   0.0574478  -0.0000033   0.0000123  -0.1897006   0.9405994
30.4687194   -0.9977506  -0.0498618   0.0047601   0.0580348  -0.0000021  -0.0000058  -0.1775500   0.9431766
30.8432786   -0.9977252  -0.0505150   0.0048226   0.0588426  -0.0000102   0.0000030  -0.1652043   0.9454509
31.2224424   -0.9977392  -0.0509840   0.0048748   0.0596658   0.0000061   0.0000027  -0.1527992   0.9476807
31.6062674   -0.9977072  -0.0516434   0.0048940   0.0601347  -0.0000091  -0.0000072  -0.1400337   0.9498177
31.9948108   -0.9977223  -0.0522795   0.0051905   0.0609905   0.0000000   0.0000043  -0.1271896   0.9518871
32.3881306   -0.9978002  -0.0528917   0.0053498   0.0615484  -0.0000007  -0.0000042  -0.1141830   0.9537462
32.7862857   -0.9976383  -0.0535083   0.0053311   0.0622306  -0.0000070  -0.0000062  -0.1009629   0.9553778
33.1893353   -0.9975541  -0.0542698   0.0053605   0.0629563  -0.0000018  -0.0000006  -0.0875903   0.9570247
33.5973398   -0.9975540  -0.0548746   0.0053421   0.0636248   0.0000037  -0.0000116  -0.0740442   0.9583378
34.0103599   -0.9976903  -0.0556109   0.0052952   0.0643536  -0.0000011   0.0000036  -0.0602129   0.9594876
34.4284574   -0.9975784  -0.0560870   0.0050358   0.0653193  -0.0000075  -0.0000028  -0.0465159   0.9606917
34.8516946   -0.9975073  -0.0568584   0.0053183   0.0664399  -0.0000053   0.0000028  -0.0322434   0.9616950
35.2801349   -0.9973184  -0.0575873   0.0056646   0.0672902  -0.0000032  -0.0000036  -0.0177784   0.9624635
35.7138420   -0.9975148  -0.0583068   0.0058020   0.0680503  -0.0000069  -0.0000060  -0.0032039   0.9628964
36.1528808   -0.9974049  -0.0589943   0.0059332   0.0689333  -0.0000086  -0.0000063   0.0115347   0.9632563
36.5973168   -0.9973337  -0.0597028   0.0061268   0.0696023   0.0000000  -0.0000055   0.0264333   0.9633738
37.0472164   -0.9973726  -0.0604261   0.0061362   0.0704028  -0.0000010  -0.0000025   0.0415912   0.9631242
37.5026467   -0.9971925  -0.0611513   0.0063676   0.0712217   0.0000005  -0.0000051   0.0569194   0.9628974
37.9636757   -0.9972517  -0.0620062   0.0067630   0.0719738  -0.0000025  -0.0000048   0.0726387   0.9619464
38.4303722   -0.9972442  -0.0626410   0.0069124   0.0729449   0.0000012  -0.0000023   0.0881824   0.9611452
38.9028060   -0.9972019  -0.0633541   0.0070304   0.0736192   0.0000032   0.0000041   0.1040381   0.9599848
39.3810475   -0.9971923  -0.0642002   0.0073311   0.0745340  -0.0000019   0.0000034   0.1201362   0.9586652
39.8651681   -0.9970658  -0.0649783   0.0075908   0.0754934  -0.0000008   0.0000047   0.1362896   0.9569852
40.3552402   -0.9970479  -0.0657909   0.0075763   0.0761900   0.0000052   0.0000025   0.1527017   0.9550329
40.8513368   -0.9971088  -0.0664907   0.0078048   0.0772552  -0.0000009  -0.0000083   0.1693457   0.9526915
41.3535320   -0.9970288  -0.0673582   0.0078913   0.0780994  -0.0000069  -0.0000035   0.1860114   0.9501695
41.8619009   -0.9969811  -0.0681738   0.0080285   0.0789533  -0.0000012   0.0000013   0.2030277   0.9472720
42.3765193   -0.9969266  -0.0689698   0.0082638   0.0798410   0.0000010  -0.0000008   0.2201222   0.9440599
42.8974639   -0.9967711  -0.0698032   0.0082913   0.0807240  -0.0000026   0.0000052   0.2373514   0.9404513
43.4248127   -0.9967248  -0.0706739   0.0084366   0.0817394   0.0000010  -0.0000060   0.2547651   0.9366341
43.9586443   -0.9968474  -0.0715653   0.0085562   0.0824812   0.0000045  -0.0000092   0.2723270   0.9323410
44.4990385   -0.9966396  -0.0723627   0.0085969   0.0835417  -0.0000060   0.0000010   0.2900678   0.9276746
45.0460758   -0.9966947  -0.0732820   0.0088532   0.0844520   0.0000030   0.0000042   0.3079234   0.9226692
45.5998380   -0.9966264  -0.0741393   0.0089485   0.0852775  -0.0000014  -0.0000026   0.3258964   0.9172927
46.1604077   -0.9964973  -0.0750224   0.0090759   0.0862911  -0.0000057  -0.0000096   0.3439905   0.9114112
46.7278686   -0.9965089  -0.0759148   0.0090572   0.0870727  -0.0000078  -0.0000061   0.3622095   0.9051561
47.3023055   -0.9963462  -0.0769607   0.0090468   0.0881734  -0.0000035   0.0000063   0.3805383   0.8984954
47.8838040   -0.9963150  -0.0778133   0.0090943   0.0892693   0.0000035  -0.0000116   0.3990787   0.8913030
48.4724511   -0.9962009  -0.0788015   0.0089721   0.0904811  -0.0000043   0.0000037   0.4175483   0.8837820
49.0683345   -0.9962233  -0.0797489   0.0091850   0.0917966  -0.0000065   0.0000016   0.4362200   0.8757527
49.6715433   -0.9961192  -0.0806752   0.0093810   0.0929417  -0.0000056  -0.0000091   0.4548566   0.8672616
50.2821675   -0.9961062  -0.0816807   0.0098049   0.0939741  -0.0000049  -0.0000026   0.4737366   0.8581977
50.9002982   -0.9959372  -0.0825721   0.0098578   0.0949528  -0.0000001  -0.0000023   0.4925113   0.8486204
51.5260277   -0.9958621  -0.0836462   0.0098446   0.0959586   0.0000016  -0.0000145   0.5114078   0.8386844
52.1594495   -0.9957982  -0.0847396   0.0096482   0.0969897   0.0000007  -0.0000111   0.5302185   0.8281260
52.8006581   -0.9956643  -0.0857495   0.0095169   0.0985503   0.0000019  -0.0000070   0.5491565   0.8169084
53.4497492   -0.9955471  -0.0867118   0.0097328   0.1001393   0.0000038  -0.0000035   0.5682259   0.8053365
54.1068198   -0.9955304  -0.0879279   0.0101768   0.1016918   0.0000014  -0.0000070   0.5870810   0.7931806
54.7719678   -0.9955432  -0.0888520   0.0105736   0.1027231  -0.0000080  -0.0000108   0.6059003   0.7804755
55.4452927   -0.9952768  -0.0899030   0.0107455   0.1040061  -0.0000031   0.0000036   0.6248029   0.7668483
56.1268950   -0.9952601  -0.0910000   0.0105752   0.1049402  -0.0000012  -0.0000006   0.6436129   0.7528409
56.8168763   -0.9951850  -0.0922154   0.0103423   0.1064657  -0.0000113  -0.0000002   0.6623330   0.7382715
57.5153398   -0.9950880  -0.0932844   0.0107494   0.1084439  -0.0000006  -0.0000099   0.6809259   0.7230836
58.2223896   -0.9949645  -0.0944203   0.0113562   0.1101522   0.0000062  -0.0000063   0.6993919   0.7071741
58.9381314   -0.9949275  -0.0955691   0.0121152   0.1112586   0.0000077  -0.0000018   0.7177304   0.6906869
59.6626719   -0.9947602  -0.0967199   0.0123769   0.1119449   0.0000018  -0.0000044   0.7358872   0.6734457
60.3961194   -0.9947409  -0.0978831   0.0124592   0.1132287  -0.0000076  -0.0000076   0.7539451   0.6555725
61.1385834   -0.9945046  -0.0990273   0.0125277   0.1144275   0.0000077  -0.0000151   0.7717916   0.6369847
61.8901746   -0.9944735  -0.1003062   0.0127816   0.1164530  -0.0000007  -0.0000055   0.7892939   0.6177425
62.6510053   -0.9943711  -0.1014102   0.0132946   0.1176496  -0.0000042  -0.0000129   0.8065969   0.5978861
63.4211891   -0.9942992  -0.1027844   0.0131793   0.1189040  -0.0000005   0.0000010   0.8236544   0.5771804
64.2008409   -0.9941031  -0.1039887   0.0128095   0.1201838  -0.0000013  -0.0000071   0.8403290   0.5559154
64.9900772   -0.9939471  -0.1051942   0.0121882   0.1218954   0.0000060  -0.0000039   0.8567017   0.5338548
65.7890158   -0.9938026  -0.1065752   0.0125934   0.1248201   0.0000066  -0.0000067   0.8726612   0.5111127
66.5977759   -0.9936711  -0.1078181   0.0133312   0.1269324  -0.0000110   0.0000004   0.8881822   0.4875516
67.4164783   -0.9934893  -0.1091628   0.0145415   0.1287096   0.0000024  -0.0000098   0.9034119   0.4632958
68.2452452   -0.9933938  -0.1104158   0.0155803   0.1299243  -0.0000016  -0.0000030   0.9180764   0.4384124
69.0842003   -0.9931896  -0.1117580   0.0162107   0.1314100  -0.0000021  -0.0000152   0.9322427   0.4127304
69.9334689   -0.9931075  -0.1131340   0.0171219   0.1328544  -0.0000106  -0.0000085   0.9455765   0.3863505
70.7931778   -0.9928815  -0.1147133   0.0175679   0.1333544   0.0000082  -0.0000021   0.9591080   0.3591561
71.6634552   -0.9927138  -0.1161036   0.0171644   0.1346559  -0.0000035  -0.0000070   0.9716677   0.3310241
72.5444312   -0.9925709  -0.1173248   0.0166814   0.1361439   0.0000123   0.0000005   0.9836817   0.3023485
73.4362373   -0.9924425  -0.1187183   0.0158603   0.1384151  -0.0000012  -0.0000107   0.9948434   0.2729349
74.3390065   -0.9922241  -0.1200881   0.0164473   0.1410260   0.0000080  -0.0000129   1.0046945   0.2431284
75.2528737   -0.9920099  -0.1215954   0.0167061   0.1435667  -0.0000040  -0.0000102   1.0143737   0.2123149
76.1779753   -0.9918554  -0.1231597   0.0177763   0.1463785  -0.0000051  -0.0000124   1.0232854   0.1808396
77.1144493   -0.9916564  -0.1246444   0.0188249   0.1483335  -0.0000026  -0.0000045   1.0313023   0.1486103
78.0624357   -0.9915321  -0.1261234   0.0202009   0.1503289  -0.0000029  -0.0000080   1.0384154   0.1157628
79.0220759   -0.9913008  -0.1276451   0.0214848   0.1515299   0.0000002  -0.0000036   1.0445212   0.0821697
79.9935132   -0.9910859  -0.1291897   0.0219155   0.1522120   0.0000041  -0.0000131   1.0496229   0.0480313
80.9768926   -0.9909786  -0.1306887   0.0216068   0.1534740  -0.0000064  -0.0000116   1.0537186   0.0132410
81.9723609   -0.9907571  -0.1323499   0.0207793   0.1554427   0.0000053  -0.0000071   1.0567157  -0.0222640
82.9800667   -0.9904607  -0.1338624   0.0201224   0.1581269  -0.0000016  -0.0000180   1.0586042  -0.0582525
84.0001605   -0.9901569  -0.1356269   0.0198757   0.1624778   0.0000053  -0.0000160   1.0593000  -0.0947391
85.0327946   -0.9898911  -0.1373213   0.0217671   0.1662896   0.0000022  -0.0000081   1.0586965  -0.1319093
86.0781231   -0.9897557  -0.1390417   0.0249954   0.1692814   0.0000029  -0.0000101   1.0568105  -0.1694968
87.1363020   -0.9895566  -0.1405720   0.0268318   0.1708956   0.0000048  -0.0000041   1.0536046  -0.2074041
88.2074894   -0.9893373  -0.1422628   0.0289595   0.1723189  -0.0000051  -0.0000155   1.0489040  -0.2458368
89.2918452   -0.9891941  -0.1440870   0.0307053   0.1733958  -0.0000005  -0.0000021   1.0430306  -0.2849234
90.3895312   -0.9888630  -0.1457643   0.0318234   0.1743144  -0.0000024  -0.0000180   1.0355088  -0.3237174
91.5007114   -0.9886847  -0.1475273   0.0325148   0.1752798  -0.0000084  -0.0000163   1.0264270  -0.3630294
92.6255515   -0.9885025  -0.1493293   0.0326415   0.1765740  -0.0000034  -0.0000041   1.0155656  -0.4024850
93.7642195   -0.9880678  -0.1510172   0.0326387   0.1780585  -0.0000052  -0.0000188   1.0031624  -0.4420937
94.9168855   -0.9878140  -0.1528383   0.0332776   0.1808214  -0.0000125  -0.0000104   0.9892346  -0.4818269
96.0837215   -0.9874127  -0.1547648   0.0343290   0.1825092  -0.0000039  -0.0000178   0.9734644  -0.5215695
97.2649017   -0.9870497  -0.1566761   0.0347330   0.1837522  -0.0000004  -0.0000104   0.9559370  -0.5609835
98.4606024   -0.9869689  -0.1584185   0.0346055   0.1850075  -0.0000038  -0.0000064   0.9365502  -0.6005025
99.6710021   -0.9864541  -0.1603562   0.0342867   0.1876629  -0.0000145  -0.0000062   0.9153443  -0.6396754
100.8962816  -0.9861027  -0.1622519   0.0340360   0.1903461  -0.0000102  -0.0000124   0.8922365  -0.6784421
102.1366237  -0.9857417  -0.1643267   0.0338358   0.1938463   0.0000052  -0.0000179   0.8671283  -0.7166929
103.3922136  -0.9852554  -0.1662596   0.0342061   0.1983927  -0.0000096  -0.0000112   0.8401955  -0.7544722
104.6632389  -0.9848546  -0.1683738   0.0368669   0.2027682  -0.0000105  -0.0000055   0.8113415  -0.7912682
105.9498891  -0.9846051  -0.1702116   0.0395148   0.2050495  -0.0000069  -0.0000089   0.7803574  -0.8250929
107.2523564  -0.9847434  -0.1726009   0.0442586   0.2068742  -0.0000016  -0.0000085   0.7458400  -0.8653272
108.5708353  -0.9841649  -0.1745648   0.0462083   0.2069864  -0.0000106  -0.0000041   0.7121824  -0.8993932
109.9055225  -0.9825525  -0.1766482   0.0442380   0.2062741   0.0000076  -0.0000064   0.6774515  -0.9319120
111.2566174  -0.9831337  -0.1787201   0.0462609   0.2091575  -0.0000017  -0.0000120   0.6366632  -0.9623526
112.6243216  -0.9827517  -0.1807570   0.0465847   0.2107150   0.0000017  -0.0000150   0.5956314  -0.9930429
114.0088393  -0.9823965  -0.1829388   0.0464977   0.2127966  -0.0000127  -0.0000032   0.5528684  -1.0220177
115.4103773  -0.9818314  -0.1851286   0.0465528   0.2146426  -0.0000076  -0.0000214   0.5080600  -1.0493846
116.8291446  -0.9815394  -0.1872388   0.0461342   0.2168030   0.0000125  -0.0000049   0.4616156  -1.0748125
118.2653533  -0.9809782  -0.1896087   0.0457012   0.2192035  -0.0000004  -0.0000118   0.4131618  -1.0983546
119.7192175  -0.9802683  -0.1918606   0.0441294   0.2221084  -0.0000147  -0.0000006   0.3630310  -1.1198741
121.1909545  -0.9798256  -0.1940778   0.0432080   0.2261318  -0.0000096  -0.0000137   0.3112472  -1.1389094
122.6807839  -0.9793002  -0.1964331   0.0420061   0.2303769  -0.0000186  -0.0000183   0.2578829  -1.1556283
124.1889281  -0.9785823  -0.1988591   0.0412420   0.2369463   0.0000025  -0.0000021   0.2030196  -1.1697805
125.7156123  -0.9781140  -0.2011930   0.0415124   0.2433840  -0.0000108  -0.0000053   0.1468018  -1.1813263
127.2610644  -0.9775053  -0.2038042   0.0438712   0.2505002  -0.0000061  -0.0000096   0.0899457  -1.1898236
128.8255151  -0.9769598  -0.2063981   0.0472782   0.2568945  -0.0000125  -0.0000101   0.0310541  -1.1954536
130.4091980  -0.9763618  -0.2088380   0.0506024   0.2628571  -0.0000132  -0.0000125  -0.0282397  -1.1979713
132.0123495  -0.9758090  -0.2114485   0.0555426   0.2675688  -0.0000062  -0.0000027  -0.0885005  -1.1971293
133.6352088  -0.9751409  -0.2140313   0.0593420   0.2718483  -0.0000239  -0.0000059  -0.1491135  -1.1931309
135.2780184  -0.9747275  -0.2167478   0.0644764   0.2761175  -0.0000031  -0.0000057  -0.2103454  -1.1854267
136.9410235  -0.9741046  -0.2192754   0.0691430   0.2792101  -0.0000093  -0.0000137  -0.2717939  -1.1740384
138.6244722  -0.9735676  -0.2220719   0.0738389   0.2822169  -0.0000096  -0.0000023  -0.3330388  -1.1591738
140.3286160  -0.9728540  -0.2249207   0.0781632   0.2835935  -0.0000127  -0.0000127  -0.3943408  -1.1406394
142.0537093  -0.9720107  -0.2276250   0.0816034   0.2862714  -0.0000183  -0.0000196  -0.4577303  -1.1193078
143.8000095  -0.9717117  -0.2297484   0.0853223   0.2883603  -0.0000058   0.0000000  -0.5114804  -1.0920313
145.5677774  -0.9715272  -0.2330690   0.0888069   0.2909236   0.0000058  -0.0000122  -0.5686752  -1.0596310
147.3572769  -0.9704158  -0.2357752   0.0923586   0.2926594  -0.0000021  -0.0000169  -0.6296031  -1.0274029
149.1687752  -0.9694562  -0.2383393   0.0953469   0.2944064   0.0000015  -0.0000091  -0.6842854  -0.9897038
151.0025426  -0.9688544  -0.2413401   0.0982694   0.2965733  -0.0000053  -0.0000193  -0.7376444  -0.9478988
152.8588530  -0.9680359  -0.2442065   0.1011326   0.2986856  -0.0000013  -0.0000092  -0.7884430  -0.9023780
154.7379834  -0.9672560  -0.2470510   0.1037413   0.3008986  -0.0000086  -0.0000110  -0.8368112  -0.8532143
156.6402144  -0.9665888  -0.2499349   0.1070319   0.3034189  -0.0000084  -0.0000061  -0.8822036  -0.8005717
158.5658301  -0.9657769  -0.2529638   0.1097572   0.3059515  -0.0000037   0.0000147  -0.9241073  -0.7445390
160.5151177  -0.9648736  -0.2558256   0.1126116   0.3078868   0.0000014  -0.0000065  -0.9630209  -0.6849737
162.4883685  -0.9637219  -0.2594228   0.1155789   0.3108282   0.0000013  -0.0000028  -0.9967976  -0.6237559
164.4858769  -0.9630874  -0.2619372   0.1186088   0.3132415   0.0000046  -0.0000033  -1.0278789  -0.5582318
166.5079411  -0.9622236  -0.2653807   0.1213982   0.3157376  -0.0000070  -0.0000102  -1.0539276  -0.4910024
168.5548630  -0.9610452  -0.2684163   0.1242750   0.3180487  -0.0000107   0.0000016  -1.0755896  -0.4214285
170.6269483  -0.9601453  -0.2715680   0.1272750   0.3207429  -0.0000006  -0.0000172  -1.0920161  -0.3500769
172.7245062  -0.9592656  -0.2748389   0.1300576   0.3234253   0.0000046  -0.0000030  -1.1035268  -0.2774294
174.8478498  -0.9582453  -0.2782209   0.1328475   0.3263941   0.0000061  -0.0000036  -1.1094082  -0.2032648
176.9972963  -0.9569933  -0.2815577   0.1360216   0.3295294   0.0000235  -0.0000062  -1.1102204  -0.1277967
179.1731664  -0.9553938  -0.2875387   0.1388657   0.3354123  -0.0000187  -0.0000088  -1.1019377  -0.0580540
181.3757850  -0.9558317  -0.2883176   0.1434160   0.3343250  -0.0000020  -0.0000058  -1.0923748   0.0172629
183.6054809  -0.9535480  -0.2920396   0.1454625   0.3384125  -0.0000115  -0.0000014  -1.0773858   0.0954521
185.8625870  -0.9526875  -0.2953624   0.1493905   0.3417182  -0.0000271  -0.0000083  -1.0548059   0.1676861
188.1474402  -0.9512494  -0.2990622   0.1524515   0.3448338  -0.0000045  -0.0000041  -1.0266452   0.2388777
190.4603817  -0.9503410  -0.3026799   0.1565994   0.3479613  -0.0000241  -0.0000166  -0.9928692   0.3077410
192.8017567  -0.9489307  -0.3067280   0.1599238   0.3507722   0.0000113  -0.0000080  -0.9528826   0.3737659
195.1719148  -0.9480387  -0.3106667   0.1640078   0.3535709  -0.0000411   0.0000164  -0.9079903   0.4365081
197.5712099  -0.9474879  -0.3141235   0.1684998   0.3565369   0.0000064  -0.0000064  -0.8584258   0.4960860
200.0000000  -0.9469864  -0.3167292   0.1722184   0.3581777  -0.0000129  -0.0000066  -0.8026131   0.5505821
