! ListType=Log
# MHZ S RI R 50
0.0010000    -0.9995511   0.0002116  -0.0002578   0.0001662  -0.0000115  -0.0000299  -0.9088780   0.2599563
0.0010123    -0.9993128  -0.0004906  -0.0002525   0.0002133   0.0000121  -0.0000287  -0.9094622   0.2603417
0.0010247    -0.9996541   0.0002939  -0.0002875   0.0002144  -0.0000157   0.0000266  -0.9095897   0.2591301
0.0010373    -0.9994832  -0.0003142  -0.0003170   0.0002243  -0.0000085  -0.0000056  -0.9097936   0.2598523
0.0010501    -0.9998796  -0.0000614  -0.0004771   0.0001190  -0.0000136  -0.0000118  -0.9091506   0.2596915
0.0010630    -0.9993778  -0.0001250  -0.0001783   0.0006368   0.0000229   0.0000125  -0.9105505   0.2595735
0.0010761    -0.9991360   0.0004533  -0.0000732   0.0004032  -0.0000149   0.0000095  -0.9107037   0.2587981
0.0010893    -0.9998477  -0.0004888  -0.0000090   0.0000783   0.0000198  -0.0000037  -0.9110865   0.2599258
0.0011027    -0.9995998  -0.0000278  -0.0003361  -0.0000929   0.0000030  -0.0000187  -0.9110775   0.2587990
0.0011162    -0.9988789   0.0002052  -0.0005669   0.0002630  -0.0000056   0.0000030  -0.9120701   0.2584382
0.0011300    -0.9995896   0.0000574  -0.0000898  -0.0002301  -0.0000259  -0.0000173  -0.9112969   0.2587179
0.0011439    -0.9990634  -0.0003292  -0.0002302   0.0008497   0.0000190  -0.0000020  -0.9120502   0.2590832
0.0011579    -0.9996958   0.0003150  -0.0001844   0.0002985  -0.0000080   0.0000011  -0.9120575   0.2578675
0.0011721    -0.9993532   0.0001061  -0.0001267   0.0006921   0.0000114  -0.0000118  -0.9124015   0.2585311
0.0011866    -0.9999073   0.0001016  -0.0006678   0.0000639  -0.0000454  -0.0000152  -0.9122040   0.2582435
0.0012011    -0.9997877  -0.0003986  -0.0001718   0.0001945  -0.0000151   0.0000003  -0.9128818   0.2582597
0.0012159    -0.9993065  -0.0003870  -0.0000554   0.0001638   0.0000208   0.0000031  -0.9136437   0.2584854
0.0012309    -0.9995489   0.0001294   0.0000433   0.0005185   0.0000094   0.0000109  -0.9137401   0.2577885
0.0012460    -0.9998843  -0.0000741  -0.0004442   0.0001855  -0.0000062  -0.0000060  -0.9134154   0.2581256
0.0012613    -0.9993668   0.0001446  -0.0006089   0.0006501   0.0000269  -0.0000021  -0.9147353   0.2579363
0.0012768    -0.9996962  -0.0002577  -0.0006751   0.0003496  -0.0000207   0.0000053  -0.9141770   0.2576231
0.0012925    -0.9994050  -0.0001294  -0.0001595  -0.0002672   0.0000140   0.0000076  -0.9151106   0.2580592
0.0013084    -0.9998366   0.0000967  -0.0000268  -0.0002700  -0.0000049   0.0000097  -0.9149123   0.2575421
0.0013245    -0.9991737  -0.0004251  -0.0005464   0.0003551   0.0000181  -0.0000016  -0.9155488   0.2580240
0.0013408    -0.9996579  -0.0000419  -0.0003113   0.0002944   0.0000024  -0.0000096  -0.9153819   0.2572752
0.0013572    -0.9993529  -0.0002955  -0.0001615   0.0006784   0.0000187   0.0000077  -0.9163567   0.2576933
0.0013739    -0.9995223   0.0002332  -0.0004884  -0.0003321   0.0000133   0.0000164  -0.9162218   0.2575399
0.0013908    -0.9992340  -0.0002368  -0.0007905   0.0004883   0.0000136   0.0000045  -0.9169530   0.2576089
0.0014079    -0.9995994  -0.0000228  -0.0002403   0.0003904  -0.0000214  -0.0000005  -0.9167295   0.2573538
0.0014252    -0.9995695   0.0002086   0.0000729  -0.0000650   0.0000186   0.0000247  -0.9176592   0.2572531
0.0014427    -0.9997487   0.0001556  -0.0000410   0.0002914  -0.0000097  -0.0000156  -0.9173659   0.2571991
0.0014605    -0.9991626  -0.0001560  -0.0006303   0.0001590   0.0000009  -0.0000180  -0.9180822   0.2573986
0.0014784    -0.9999499   0.0003981  -0.0005236   0.0001670  -0.0000049   0.0000082  -0.9178605   0.2569127
0.0014966    -0.9994098  -0.0001398   0.0001500   0.0001723   0.0000002  -0.0000287  -0.9186111   0.2574162
0.0015150    -0.9993571  -0.0000850  -0.0006046   0.0001516   0.0000270   0.0000241  -0.9189818   0.2573396
0.0015336    -0.9996659   0.0001176   0.0001115   0.0006330  -0.0000074  -0.0000028  -0.9190102   0.2570696
0.0015525    -0.9998186  -0.0001080  -0.0003653   0.0003237  -0.0000076  -0.0000167  -0.9190290   0.2573496
0.0015716    -0.9995519   0.0000664   0.0000237   0.0003500   0.0000126  -0.0000211  -0.9196280   0.2571869
0.0015909    -0.9991652  -0.0000903  -0.0003922   0.0002762   0.0000100  -0.0000345  -0.9199847   0.2575694
0.0016104    -0.9996388   0.0004637  -0.0005425   0.0004763  -0.0000243   0.0000094  -0.9203199   0.2569523
0.0016302    -0.9998040   0.0000781  -0.0002124   0.0003419   0.0000135  -0.0000063  -0.9203642   0.2573044
0.0016503    -0.9994995  -0.0002225   0.0001521   0.0005095   0.0000088  -0.0000100  -0.9213751   0.2574882
0.0016706    -0.9996860  -0.0003132  -0.0006380   0.0004549   0.0000033  -0.0000045  -0.9211996   0.2574022
0.0016911    -0.9993248   0.0003514  -0.0008111   0.0001315  -0.0000210  -0.0000159  -0.9218180   0.2570958
0.0017119    -0.9995869   0.0000808   0.0003862   0.0004742  -0.0000161  -0.0000298  -0.9218589   0.2574357
0.0017329    -0.9993823  -0.0003460   0.0000401   0.0001149  -0.0000031   0.0000134  -0.9220861   0.2573962
0.0017542    -0.9998663   0.0001305   0.0005204  -0.0002259   0.0000071   0.0000175  -0.9225671   0.2571541
0.0017758    -0.9993893  -0.0000503  -0.0004740   0.0002259  -0.0000018  -0.0000029  -0.9227763   0.2574617
0.0017976    -0.9995364   0.0001915  -0.0000525  -0.0000151   0.0000059  -0.0000063  -0.9233452   0.2574793
0.0018197    -0.9999225   0.0003017  -0.0003741   0.0001521  -0.0000150  -0.0000040  -0.9231438   0.2573279
0.0018421    -0.9995911  -0.0001185   0.0001030   0.0006038   0.0000151  -0.0000070  -0.9238326   0.2577191
0.0018648    -0.9993263   0.0000536  -0.0001854   0.0003193  -0.0000028   0.0000040  -0.9239003   0.2574820
0.0018877    -0.9997544   0.0001638  -0.0000584   0.0001910  -0.0000105  -0.0000158  -0.9239804   0.2577066
0.0019109    -0.9994686   0.0000100  -0.0006747  -0.0001102  -0.0000036   0.0000066  -0.9248491   0.2579357
0.0019344    -0.9995574  -0.0002021  -0.0004404  -0.0000042  -0.0000050  -0.0000064  -0.9247153   0.2577397
0.0019582    -0.9996151  -0.0000825   0.0001096   0.0004598   0.0000018  -0.0000051  -0.9248236   0.2579512
0.0019822    -0.9996352  -0.0001465  -0.0005270   0.0009630   0.0000061   0.0000007  -0.9256894   0.2580907
0.0020066    -0.9993993  -0.0000587  -0.0012323   0.0005284   0.0000030   0.0000010  -0.9257598   0.2582423
0.0020313    -0.9993830  -0.0001512   0.0001480  -0.0002099   0.0000072   0.0000076  -0.9261621   0.2581689
0.0020562    -0.9995967   0.0002540   0.0000973  -0.0000707  -0.0000161  -0.0000018  -0.9265384   0.2580705
0.0020815    -0.9995381  -0.0003293  -0.0003302   0.0001936   0.0000003  -0.0000015  -0.9265952   0.2584793
0.0021071    -0.9995527   0.0000360  -0.0001536   0.0002782  -0.0000104  -0.0000033  -0.9270215   0.2585237
0.0021330    -0.9997067  -0.0001203  -0.0001511   0.0003573  -0.0000010  -0.0000229  -0.9272019   0.2587586
0.0021592    -0.9993788  -0.0000766  -0.0001550  -0.0000147  -0.0000025  -0.0000190  -0.9277383   0.2588852
0.0021858    -0.9994190  -0.0000193  -0.0003379  -0.0000172  -0.0000026  -0.0000044  -0.9279115   0.2586740
0.0022126    -0.9994696  -0.0002948  -0.0002535  -0.0000319  -0.0000054  -0.0000144  -0.9280733   0.2590422
0.0022398    -0.9996033   0.0000063  -0.0000662  -0.0001676  -0.0000122   0.0000062  -0.9283379   0.2590142
0.0022674    -0.9996472  -0.0001186  -0.0003143  -0.0001463   0.0000047  -0.0000181  -0.9287816   0.2593020
0.0022953    -0.9992353  -0.0001441   0.0001277   0.0001960   0.0000060  -0.0000025  -0.9290308   0.2594769
0.0023235    -0.9994947  -0.0001518  -0.0001186   0.0001399  -0.0000061  -0.0000002  -0.9294341   0.2594680
0.0023520    -0.9999372  -0.0003040  -0.0003229   0.0001696  -0.0000078  -0.0000054  -0.9292532   0.2594361
0.0023809    -0.9996304  -0.0001558  -0.0003023   0.0000128  -0.0000079   0.0000077  -0.9299422   0.2596373
0.0024102    -0.9996828  -0.0001190  -0.0003465  -0.0000929   0.0000131   0.0000064  -0.9298942   0.2598229
0.0024398    -0.9994805  -0.0001126  -0.0001242  -0.0001037   0.0000033   0.0000032  -0.9303333   0.2599209
0.0024698    -0.9996197  -0.0000639  -0.0002016  -0.0000330   0.0000079  -0.0000170  -0.9305707   0.2602177
0.0025002    -0.9995905  -0.0003575  -0.0000170   0.0001569  -0.0000013  -0.0000042  -0.9307198   0.2603729
0.0025309    -0.9997049  -0.0002407  -0.0002255   0.0002968  -0.0000087  -0.0000112  -0.9309336   0.2606611
0.0025621    -0.9996245  -0.0001970  -0.0003821   0.0002470   0.0000070  -0.0000087  -0.9313972   0.2606534
0.0025935    -0.9994657   0.0002292  -0.0003972   0.0003111  -0.0000057  -0.0000035  -0.9316742   0.2605261
0.0026254    -0.9994992   0.0001774  -0.0000545   0.0003944  -0.0000042  -0.0000026  -0.9317934   0.2605545
0.0026577    -0.9995782  -0.0000657  -0.0002618   0.0002248  -0.0000107  -0.0000105  -0.9319015   0.2609742
0.0026904    -0.9996532  -0.0002241  -0.0003167   0.0001274  -0.0000128  -0.0000062  -0.9320964   0.2613407
0.0027235    -0.9994301  -0.0000080  -0.0002076   0.0000923  -0.0000013  -0.0000137  -0.9327563   0.2611832
0.0027569    -0.9993833   0.0000419  -0.0000904   0.0003300  -0.0000088  -0.0000033  -0.9327095   0.2612955
0.0027908    -0.9996495  -0.0002299   0.0000367   0.0001960   0.0000059  -0.0000083  -0.9327881   0.2617246
0.0028251    -0.9994828  -0.0000792  -0.0000801   0.0000050   0.0000069   0.0000018  -0.9332618   0.2618815
0.0028599    -0.9993887   0.0000737  -0.0002182   0.0001178  -0.0000022   0.0000010  -0.9334185   0.2618729
0.0028950    -0.9997934  -0.0000549  -0.0000289   0.0002064   0.0000031   0.0000025  -0.9336124   0.2618484
0.0029306    -0.9996110   0.0001541  -0.0002867   0.0001265  -0.0000042  -0.0000190  -0.9337557   0.2620064
0.0029666    -0.9995101   0.0001530  -0.0004968   0.0002022   0.0000131  -0.0000065  -0.9339990   0.2622600
0.0030031    -0.9997325   0.0001064   0.0006262   0.0001583  -0.0000049   0.0000133  -0.9341076   0.2625548
0.0030400    -0.9994675  -0.0001502  -0.0001229   0.0001536  -0.0000027  -0.0000165  -0.9343379   0.2628196
0.0030774    -0.9997235  -0.0000947  -0.0002651  -0.0000879  -0.0000097  -0.0000045  -0.9345217   0.2629743
0.0031152    -0.9996092  -0.0001559  -0.0000627   0.0000903   0.0000102   0.0000018  -0.9348862   0.2629809
0.0031535    -0.9998756  -0.0002688  -0.0000020   0.0001318  -0.0000035  -0.0000120  -0.9349260   0.2633534
0.0031923    -0.9996106   0.0000179  -0.0003173  -0.0000415   0.0000126  -0.0000124  -0.9353236   0.2634966
0.0032315    -0.9995287   0.0000936  -0.0001331   0.0001278  -0.0000004  -0.0000064  -0.9355121   0.2636469
0.0032713    -0.9996148   0.0000926   0.0000477   0.0001253   0.0000023  -0.0000089  -0.9356770   0.2636865
0.0033115    -0.9994568   0.0000492  -0.0001517   0.0003416   0.0000084  -0.0000006  -0.9357024   0.2639999
0.0033522    -0.9995376   0.0000637  -0.0001439   0.0001568  -0.0000109  -0.0000057  -0.9360229   0.2644064
0.0033934    -0.9994948   0.0001905  -0.0002888   0.0002432   0.0000014   0.0000021  -0.9362628   0.2642656
0.0034351    -0.9994181  -0.0001684  -0.0001918   0.0002528  -0.0000013   0.0000084  -0.9364516   0.2645556
0.0034773    -0.9995835  -0.0002143  -0.0001793   0.0003415   0.0000084  -0.0000086  -0.9364323   0.2647053
0.0035201    -0.9995930  -0.0001440  -0.0002734   0.0002317   0.0000056  -0.0000029  -0.9367876   0.2648143
0.0035634    -0.9996598  -0.0000573  -0.0004066   0.0001541   0.0000070  -0.0000048  -0.9368663   0.2649771
0.0036072    -0.9996985  -0.0000563  -0.0002148   0.0000471  -0.0000008  -0.0000046  -0.9369396   0.2652301
0.0036515    -0.9993187  -0.0001934  -0.0002120   0.0001430  -0.0000051   0.0000044  -0.9372120   0.2655556
0.0036964    -0.9994886  -0.0002182  -0.0000501   0.0002199  -0.0000114   0.0000007  -0.9371598   0.2658447
0.0037418    -0.9996204  -0.0000149  -0.0001593   0.0000226   0.0000014  -0.0000077  -0.9373776   0.2659021
0.0037878    -0.9996895  -0.0001860  -0.0001226   0.0000899   0.0000009  -0.0000191  -0.9374859   0.2660117
0.0038344    -0.9996849  -0.0002283  -0.0001208   0.0000088   0.0000059  -0.0000063  -0.9376847   0.2663411
0.0038815    -0.9996938  -0.0001021  -0.0003884  -0.0001342  -0.0000009   0.0000041  -0.9378065   0.2664228
0.0039293    -0.9996085   0.0000637  -0.0002474   0.0001596   0.0000049  -0.0000071  -0.9379777   0.2663981
0.0039776    -0.9995781  -0.0001333  -0.0014207  -0.0009820  -0.0000018  -0.0000120  -0.9381920   0.2668196
0.0040265    -0.9995551   0.0001453  -0.0013378  -0.0003457   0.0000000   0.0000014  -0.9383100   0.2667670
0.0040759    -0.9996277  -0.0000660  -0.0002605   0.0001980  -0.0000007   0.0000008  -0.9384242   0.2671272
0.0041261    -0.9994609   0.0001127   0.0000395   0.0005473   0.0000015  -0.0000048  -0.9385339   0.2672093
0.0041768    -0.9996316  -0.0001434   0.0000258  -0.0002596  -0.0000009   0.0000009  -0.9387328   0.2675105
0.0042281    -0.9994485  -0.0000694   0.0000963  -0.0001109   0.0000064  -0.0000054  -0.9388509   0.2677209
0.0042801    -0.9996686   0.0001004  -0.0002642  -0.0001934   0.0000041  -0.0000002  -0.9389324   0.2679158
0.0043327    -0.9993562  -0.0000442   0.0001085   0.0004415  -0.0000035  -0.0000042  -0.9390299   0.2683019
0.0043860    -0.9994341  -0.0000471  -0.0003704   0.0001136  -0.0000025   0.0000091  -0.9392749   0.2683077
0.0044399    -0.9995774   0.0000266  -0.0001017   0.0001732   0.0000007  -0.0000043  -0.9393379   0.2684832
0.0044945    -0.9993910  -0.0000133  -0.0002012   0.0004603  -0.0000065  -0.0000034  -0.9394909   0.2686169
0.0045497    -0.9998018   0.0000317  -0.0002512   0.0000396  -0.0000109  -0.0000034  -0.9394766   0.2688047
0.0046057    -0.9998463   0.0000215   0.0000649   0.0000464  -0.0000053   0.0000049  -0.9395575   0.2689400
0.0046623    -0.9995209   0.0000114  -0.0000147   0.0001192   0.0000035  -0.0000071  -0.9395089   0.2692334
0.0047196    -0.9996600  -0.0000371  -0.0002081   0.0002429  -0.0000083  -0.0000009  -0.9398293   0.2694102
0.0047776    -0.9995883  -0.0001140  -0.0001880  -0.0000628   0.0000065  -0.0000104  -0.9398891   0.2695281
0.0048363    -0.9996100   0.0000849  -0.0001639   0.0000596   0.0000003  -0.0000094  -0.9399332   0.2697804
0.0048958    -0.9996321  -0.0001346   0.0000817   0.0000869  -0.0000047  -0.0000137  -0.9400721   0.2700554
0.0049560    -0.9994798   0.0000858  -0.0001353  -0.0000217  -0.0000099  -0.0000067  -0.9402632   0.2701632
0.0050169    -0.9996904  -0.0000612   0.0003285   0.0000672  -0.0000178   0.0000051  -0.9403351   0.2701639
0.0050786    -0.9996080  -0.0001626  -0.0000389   0.0000357   0.0000062   0.0000011  -0.9403187   0.2703988
0.0051410    -0.9999020   0.0000330  -0.0001369   0.0000583  -0.0000039  -0.0000105  -0.9404152   0.2706001
0.0052042    -0.9994302  -0.0002216  -0.0001287  -0.0000968   0.0000035  -0.0000032  -0.9405021   0.2708001
0.0052682    -0.9995054  -0.0000569   0.0001645   0.0000964   0.0000060  -0.0000054  -0.9406327   0.2710467
0.0053330    -0.9995410  -0.0000735  -0.0000944  -0.0002743  -0.0000089  -0.0000088  -0.9406896   0.2711812
0.0053985    -0.9994662  -0.0000700  -0.0000981   0.0000969  -0.0000131  -0.0000073  -0.9407775   0.2713440
0.0054649    -0.9995366  -0.0000679  -0.0000187  -0.0000854   0.0000164  -0.0000018  -0.9409076   0.2714998
0.0055321    -0.9995296  -0.0001102   0.0000665  -0.0001065  -0.0000015  -0.0000112  -0.9409565   0.2716945
0.0056001    -0.9996251  -0.0001187  -0.0001795   0.0000271   0.0000146   0.0000031  -0.9411138   0.2719386
0.0056689    -0.9993981  -0.0002480   0.0001320   0.0000546  -0.0000082  -0.0000200  -0.9411273   0.2720064
0.0057386    -0.9993942   0.0000503   0.0000618  -0.0001234   0.0000036  -0.0000155  -0.9411893   0.2721200
0.0058091    -0.9997548  -0.0000428  -0.0000516  -0.0001008   0.0000022   0.0000047  -0.9411386   0.2723728
0.0058806    -0.9995956  -0.0000433  -0.0000214   0.0001151  -0.0000013  -0.0000061  -0.9411190   0.2724188
0.0059529    -0.9996497  -0.0000533  -0.0002240   0.0000360  -0.0000054  -0.0000104  -0.9412062   0.2727041
0.0060260    -0.9995112  -0.0000163  -0.0000692  -0.0001921  -0.0000053  -0.0000183  -0.9412507   0.2727098
0.0061001    -0.9995464  -0.0000463  -0.0000756  -0.0000470  -0.0000142  -0.0000055  -0.9413455   0.2729546
0.0061751    -0.9997296  -0.0000898  -0.0000618   0.0000311   0.0000003   0.0000049  -0.9413314   0.2731470
0.0062510    -0.9994869  -0.0000855  -0.0001598  -0.0000110  -0.0000030  -0.0000002  -0.9415101   0.2732916
0.0063279    -0.9995566   0.0000828  -0.0001325  -0.0000188  -0.0000043  -0.0000012  -0.9416430   0.2734560
0.0064056    -0.9994350  -0.0001251  -0.0000565   0.0000207   0.0000044  -0.0000061  -0.9416371   0.2736081
0.0064844    -0.9995110   0.0000274  -0.0001357  -0.0000450   0.0000000  -0.0000076  -0.9416977   0.2736701
0.0065641    -0.9996970  -0.0000617  -0.0002422   0.0000134  -0.0000063  -0.0000193  -0.9415242   0.2737903
0.0066448    -0.9996679   0.0000155  -0.0000721   0.0000660   0.0000005  -0.0000093  -0.9416728   0.2739591
0.0067265    -0.9995445  -0.0003177  -0.0002207  -0.0000471  -0.0000082   0.0000041  -0.9417777   0.2741424
0.0068092    -0.9994876  -0.0001605  -0.0002320   0.0000547   0.0000036   0.0000010  -0.9418365   0.2743665
0.0068929    -0.9993823   0.0000563  -0.0001463  -0.0000124   0.0000128  -0.0000086  -0.9418909   0.2744498
0.0069776    -0.9996396   0.0000210  -0.0000736   0.0001594   0.0000024  -0.0000116  -0.9420478   0.2746782
0.0070634    -0.9994320  -0.0001552  -0.0002279  -0.0002047   0.0000023  -0.0000052  -0.9419420   0.2748400
0.0071502    -0.9996073  -0.0000295  -0.0001245   0.0000778   0.0000031  -0.0000154  -0.9419125   0.2748555
0.0072381    -0.9995296  -0.0000261  -0.0001959   0.0000233  -0.0000033  -0.0000122  -0.9418756   0.2750367
0.0073271    -0.9996766   0.0000470  -0.0002211   0.0000210  -0.0000089  -0.0000030  -0.9420109   0.2752536
0.0074172    -0.9995706  -0.0000262  -0.0002155  -0.0001091   0.0000121  -0.0000083  -0.9421284   0.2753567
0.0075084    -0.9995283   0.0000493   0.0000126  -0.0002746   0.0000064  -0.0000108  -0.9421577   0.2755385
0.0076007    -0.9995347  -0.0000172  -0.0001506   0.0000868   0.0000004  -0.0000116  -0.9421461   0.2756577
0.0076941    -0.9996549   0.0000388  -0.0000763   0.0000350  -0.0000021   0.0000084  -0.9421786   0.2759126
0.0077887    -0.9995979   0.0000028  -0.0001901   0.0000035   0.0000107  -0.0000020  -0.9421820   0.2759312
0.0078844    -0.9996403  -0.0001041  -0.0001623  -0.0002092  -0.0000035  -0.0000018  -0.9422685   0.2760016
0.0079814    -0.9995432  -0.0002037  -0.0000762   0.0001053   0.0000006  -0.0000059  -0.9422404   0.2762762
0.0080795    -0.9996258  -0.0000658  -0.0002374  -0.0000194   0.0000058  -0.0000034  -0.9423989   0.2763341
0.0081788    -0.9995792   0.0000007  -0.0002399  -0.0001767  -0.0000045   0.0000043  -0.9422137   0.2765218
0.0082793    -0.9995392  -0.0001470  -0.0000885  -0.0001352  -0.0000005  -0.0000093  -0.9423942   0.2765888
0.0083811    -0.9994730  -0.0001644  -0.0001102  -0.0000995  -0.0000037   0.0000070  -0.9423573   0.2767983
0.0084842    -0.9995514  -0.0001438  -0.0000976  -0.0000050  -0.0000016   0.0000005  -0.9423313   0.2768930
0.0085885    -0.9996426  -0.0000841  -0.0002289  -0.0001078   0.0000015  -0.0000070  -0.9424398   0.2769427
0.0086940    -0.9996554  -0.0001456   0.0000846   0.0000725   0.0000127  -0.0000141  -0.9423699   0.2771411
0.0088009    -0.9997071  -0.0002104  -0.0001292   0.0000340   0.0000002   0.0000062  -0.9423860   0.2772914
0.0089091    -0.9996577  -0.0002411  -0.0001816   0.0000752   0.0000024  -0.0000112  -0.9423989   0.2774866
0.0090186    -0.9995034   0.0000521  -0.0002467  -0.0002394  -0.0000090  -0.0000046  -0.9424998   0.2774735
0.0091295    -0.9996632  -0.0001069  -0.0000899  -0.0000126   0.0000055  -0.0000005  -0.9425199   0.2777457
0.0092417    -0.9996843  -0.0000028  -0.0001242   0.0000332   0.0000093  -0.0000054  -0.9424069   0.2777833
0.0093553    -0.9995356  -0.0000705  -0.0002894   0.0000553   0.0000041  -0.0000095  -0.9424297   0.2779104
0.0094703    -0.9997541  -0.0000466  -0.0001596   0.0000777   0.0000006   0.0000108  -0.9425230   0.2779699
0.0095868    -0.9996347  -0.0001051  -0.0001087   0.0000043  -0.0000033  -0.0000074  -0.9424579   0.2781670
0.0097046    -0.9995179  -0.0001118  -0.0000761   0.0000526  -0.0000017   0.0000127  -0.9425030   0.2781965
0.0098239    -0.9996282  -0.0000073  -0.0002187   0.0000540  -0.0000008   0.0000001  -0.9425577   0.2783250
0.0099447    -0.9996116  -0.0000936  -0.0002969   0.0000270  -0.0000004  -0.0000051  -0.9425478   0.2783615
0.0100669    -0.9994695  -0.0001077  -0.0002585   0.0000179  -0.0000093  -0.0000186  -0.9425242   0.2785836
0.0101907    -0.9995629  -0.0000650  -0.0001973  -0.0000230  -0.0000033  -0.0000092  -0.9425358   0.2786114
0.0103160    -0.9995123   0.0000886  -0.0003297  -0.0000798   0.0000116  -0.0000083  -0.9425019   0.2787091
0.0104428    -0.9995092   0.0000010  -0.0002288   0.0000730  -0.0000035   0.0000003  -0.9425838   0.2789201
0.0105712    -0.9995119  -0.0001431  -0.0002516   0.0001424   0.0000088   0.0000015  -0.9425830   0.2789347
0.0107011    -0.9997070  -0.0001212  -0.0001169   0.0001103   0.0000044  -0.0000051  -0.9426090   0.2791118
0.0108327    -0.9996053   0.0000012  -0.0000364  -0.0000745   0.0000012  -0.0000062  -0.9425325   0.2791449
0.0109658    -0.9996954  -0.0000574   0.0000111   0.0001275  -0.0000070  -0.0000045  -0.9426464   0.2792784
0.0111006    -0.9997009  -0.0000663  -0.0004177  -0.0000205  -0.0000041  -0.0000068  -0.9426136   0.2795289
0.0112371    -0.9996011  -0.0000580  -0.0003292   0.0001018  -0.0000054   0.0000003  -0.9426557   0.2794251
0.0113752    -0.9996276  -0.0001266  -0.0001395   0.0001223  -0.0000107   0.0000007  -0.9425597   0.2795968
0.0115151    -0.9996910  -0.0000173  -0.0001517  -0.0000069   0.0000003  -0.0000004  -0.9427017   0.2798539
0.0116566    -0.9996333  -0.0000317  -0.0003345  -0.0000317  -0.0000025  -0.0000093  -0.9425976   0.2797545
0.0117999    -0.9995524  -0.0000628  -0.0001612   0.0001400  -0.0000078  -0.0000039  -0.9426702   0.2800117
0.0119450    -0.9996445  -0.0001955  -0.0002023  -0.0000794  -0.0000012   0.0000006  -0.9434624   0.2782170
0.0120918    -0.9995606  -0.0000576  -0.0002923  -0.0000730   0.0000006  -0.0000104  -0.9426943   0.2801527
0.0122405    -0.9995702  -0.0001432  -0.0004291  -0.0000052  -0.0000107   0.0000039  -0.9427471   0.2801706
0.0123910    -0.9995865  -0.0000594  -0.0002824  -0.0000168  -0.0000042  -0.0000100  -0.9426088   0.2804391
0.0125433    -0.9996891  -0.0000735  -0.0002151   0.0000673  -0.0000016   0.0000043  -0.9427097   0.2803775
0.0126975    -0.9995956  -0.0000880  -0.0000416   0.0000702  -0.0000036  -0.0000023  -0.9425424   0.2804387
0.0128536    -0.9996339  -0.0000803  -0.0002098   0.0000681   0.0000036  -0.0000033  -0.9426407   0.2806492
0.0130116    -0.9995450  -0.0000459  -0.0003090  -0.0000992   0.0000031   0.0000037  -0.9426215   0.2806846
0.0131716    -0.9995644   0.0001031  -0.0002133   0.0000937  -0.0000045   0.0000010  -0.9426642   0.2806807
0.0133335    -0.9996174  -0.0000628  -0.0002691   0.0000951  -0.0000017  -0.0000095  -0.9425145   0.2809397
0.0134974    -0.9996407  -0.0000803  -0.0003496   0.0000032   0.0000014  -0.0000020  -0.9425677   0.2809175
0.0136633    -0.9997146  -0.0000076  -0.0003239  -0.0000498   0.0000013  -0.0000062  -0.9426221   0.2811150
0.0138313    -0.9996373  -0.0000945  -0.0004144  -0.0000363  -0.0000014  -0.0000050  -0.9425397   0.2811490
0.0140013    -0.9995855   0.0000649   0.0001024   0.0000964  -0.0000043  -0.0000027  -0.9426175   0.2812854
0.0141734    -0.9996666  -0.0000449  -0.0000488   0.0001780  -0.0000133  -0.0000052  -0.9426482   0.2814176
0.0143477    -0.9997521   0.0000128  -0.0004872   0.0001574   0.0000019  -0.0000050  -0.9426134   0.2813920
0.0145240    -0.9997075  -0.0000127  -0.0004890   0.0001817   0.0000018   0.0000028  -0.9426510   0.2814696
0.0147026    -0.9997209  -0.0000723  -0.0004593   0.0000516   0.0000098  -0.0000082  -0.9425887   0.2815431
0.0148833    -0.9996125   0.0000651  -0.0002498  -0.0000245  -0.0000038  -0.0000085  -0.9425701   0.2817147
0.0150663    -0.9997018  -0.0000799  -0.0002594   0.0000541   0.0000025  -0.0000094  -0.9425500   0.2817628
0.0152515    -0.9995240  -0.0000684  -0.0004224   0.0001448  -0.0000064  -0.0000097  -0.9425577   0.2819218
0.0154390    -0.9996017  -0.0000317  -0.0004103   0.0000808  -0.0000151   0.0000062  -0.9425825   0.2819117
0.0156288    -0.9996648   0.0000583  -0.0002014   0.0000433  -0.0000092  -0.0000074  -0.9426634   0.2819290
0.0158209    -0.9996273   0.0000166  -0.0001158  -0.0000001  -0.0000031  -0.0000088  -0.9425187   0.2819562
0.0160154    -0.9996291   0.0000652  -0.0005552   0.0000359   0.0000012  -0.0000067  -0.9425096   0.2821765
0.0162123    -0.9995837  -0.0000932  -0.0002523   0.0001617  -0.0000041  -0.0000005  -0.9424733   0.2823458
0.0164116    -0.9997180   0.0000281  -0.0002180   0.0001048   0.0000020  -0.0000133  -0.9425390   0.2823374
0.0166134    -0.9995501  -0.0001744  -0.0002235   0.0000233   0.0000025   0.0000024  -0.9424725   0.2825105
0.0168176    -0.9997090   0.0000795  -0.0002954   0.0001342   0.0000023  -0.0000011  -0.9425681   0.2824212
0.0170243    -0.9996584  -0.0000810  -0.0003769   0.0002529  -0.0000044  -0.0000021  -0.9425075   0.2825839
0.0172336    -0.9997120  -0.0000161  -0.0004013   0.0000923   0.0000039  -0.0000065  -0.9424701   0.2825693
0.0174455    -0.9996201  -0.0000970  -0.0001941   0.0001399  -0.0000069   0.0000054  -0.9424511   0.2826684
0.0176599    -0.9995189  -0.0000700  -0.0000576   0.0000903  -0.0000030  -0.0000096  -0.9424459   0.2827776
0.0178770    -0.9996153   0.0000237  -0.0001786   0.0000712  -0.0000056   0.0000042  -0.9424224   0.2829245
0.0180968    -0.9996512  -0.0000325  -0.0003311   0.0001655  -0.0000086  -0.0000035  -0.9424302   0.2828374
0.0183193    -0.9996770  -0.0000389  -0.0000605  -0.0000098   0.0000087  -0.0000044  -0.9424509   0.2830002
0.0185445    -0.9996862  -0.0000696  -0.0002789  -0.0000859   0.0000103  -0.0000060  -0.9424455   0.2830423
0.0187724    -0.9995789  -0.0000831  -0.0001720   0.0002262   0.0000036   0.0000011  -0.9423371   0.2830841
0.0190032    -0.9996062  -0.0000005  -0.0001959   0.0007059  -0.0000030  -0.0000051  -0.9424280   0.2831313
0.0192368    -0.9996935  -0.0000764  -0.0004376   0.0010286   0.0000020   0.0000008  -0.9425254   0.2832695
0.0194733    -0.9995501  -0.0000813  -0.0001584   0.0000683   0.0000098  -0.0000044  -0.9424154   0.2833488
0.0197127    -0.9996547  -0.0001109  -0.0001655   0.0001348  -0.0000072  -0.0000149  -0.9423865   0.2834325
0.0199550    -0.9995856  -0.0000816  -0.0003784   0.0001883  -0.0000085  -0.0000115  -0.9424142   0.2834576
0.0202003    -0.9995928   0.0000089  -0.0001832   0.0002282  -0.0000027  -0.0000121  -0.9424186   0.2834956
0.0204487    -0.9995037   0.0000404  -0.0003263   0.0000864  -0.0000126  -0.0000027  -0.9423482   0.2836018
0.0207001    -0.9995711  -0.0001335  -0.0003500   0.0002825  -0.0000050  -0.0000153  -0.9422820   0.2836091
0.0209545    -0.9996421   0.0001150  -0.0002834   0.0001335  -0.0000042  -0.0000062  -0.9422991   0.2836966
0.0212121    -0.9995842  -0.0000528  -0.0002782   0.0001549   0.0000013   0.0000014  -0.9422630   0.2838958
0.0214729    -0.9996922   0.0000980  -0.0001439   0.0001842  -0.0000082  -0.0000137  -0.9423046   0.2839225
0.0217369    -0.9996791  -0.0002195  -0.0003834   0.0002846   0.0000177  -0.0000012  -0.9422967   0.2839207
0.0220041    -0.9996014   0.0000764   0.0003014   0.0002635  -0.0000034  -0.0000052  -0.9423316   0.2839710
0.0222746    -0.9995780  -0.0000272  -0.0002217   0.0002413   0.0000044  -0.0000094  -0.9421834   0.2840686
0.0225484    -0.9995862  -0.0001900  -0.0002830   0.0001857  -0.0000069   0.0000029  -0.9421589   0.2840821
0.0228256    -0.9996393  -0.0001050  -0.0001841   0.0000767  -0.0000015   0.0000000  -0.9422130   0.2841121
0.0231062    -0.9997149  -0.0000922  -0.0002234   0.0001969  -0.0000071  -0.0000067  -0.9422103   0.2841453
0.0233902    -0.9995267   0.0001762  -0.0002795   0.0002064  -0.0000062   0.0000041  -0.9421501   0.2842650
0.0236778    -0.9995368  -0.0000133  -0.0002751   0.0001775   0.0000026  -0.0000065  -0.9421274   0.2843437
0.0239689    -1.0002836   0.0003843  -0.0003655   0.0000188  -0.0000034  -0.0000028  -0.9431943   0.2849166
0.0242635    -0.9995745  -0.0000689  -0.0001929   0.0002945   0.0000020  -0.0000015  -0.9421554   0.2844378
0.0245618    -0.9996124  -0.0000207  -0.0002437   0.0001417  -0.0000175  -0.0000006  -0.9420997   0.2845678
0.0248637    -0.9995662  -0.0000670  -0.0002577   0.0001369  -0.0000010  -0.0000011  -0.9421057   0.2846436
0.0251694    -0.9995368  -0.0001484  -0.0002061   0.0001407  -0.0000045  -0.0000092  -0.9421237   0.2846718
0.0254788    -0.9994914  -0.0001293  -0.0002160   0.0002136  -0.0000051  -0.0000060  -0.9420106   0.2847303
0.0257920    -0.9997349  -0.0001099  -0.0002270   0.0000471   0.0000011  -0.0000116  -0.9420984   0.2848583
0.0261091    -0.9995463  -0.0001423  -0.0003588   0.0001046   0.0000032  -0.0000093  -0.9419308   0.2848252
0.0264301    -0.9995481  -0.0000851  -0.0002309   0.0001817   0.0000051  -0.0000114  -0.9420806   0.2849199
0.0267550    -0.9995873  -0.0000824  -0.0003306  -0.0000620  -0.0000017   0.0000036  -0.9419236   0.2849455
0.0270839    -0.9997267  -0.0001255  -0.0001532   0.0002239  -0.0000150  -0.0000070  -0.9420152   0.2849370
0.0274168    -0.9995635   0.0000384  -0.0001799   0.0002606  -0.0000071  -0.0000091  -0.9419723   0.2849874
0.0277539    -0.9997528  -0.0001085  -0.0001328   0.0002150  -0.0000055  -0.0000124  -0.9418585   0.2850718
0.0280951    -0.9996614  -0.0001612  -0.0001536   0.0001648  -0.0000084  -0.0000131  -0.9418695   0.2851680
0.0284404    -0.9995368  -0.0001558  -0.0001720   0.0001587  -0.0000050  -0.0000027  -0.9418926   0.2852433
0.0287901    -0.9996655  -0.0000217  -0.0002900   0.0000606  -0.0000104  -0.0000071  -0.9419360   0.2851845
0.0291440    -0.9995916  -0.0000867  -0.0001298   0.0001573   0.0000046  -0.0000088  -0.9418947   0.2853351
0.0295023    -0.9996365  -0.0000111  -0.0001279   0.0002040   0.0000158   0.0000033  -0.9418181   0.2853636
0.0298649    -0.9995968  -0.0000685  -0.0001362   0.0001694   0.0000090  -0.0000008  -0.9418149   0.2853996
0.0302321    -0.9996272   0.0001085  -0.0001376   0.0001619   0.0000043  -0.0000058  -0.9417208   0.2854923
0.0306037    -0.9997690  -0.0000600  -0.0000346   0.0000810  -0.0000045  -0.0000008  -0.9417143   0.2855678
0.0309799    -0.9997855  -0.0000674  -0.0001285   0.0000266  -0.0000045   0.0000013  -0.9418265   0.2855831
0.0313608    -0.9996777  -0.0001345  -0.0001898   0.0000319   0.0000041  -0.0000197  -0.9417779   0.2856653
0.0317463    -0.9997902  -0.0000833  -0.0001071   0.0001135  -0.0000047   0.0000050  -0.9416988   0.2857371
0.0321366    -0.9995815  -0.0000221  -0.0001855   0.0001246   0.0000041  -0.0000031  -0.9417880   0.2857474
0.0325316    -0.9996152  -0.0001420  -0.0002076   0.0000862   0.0000030  -0.0000159  -0.9416747   0.2858300
0.0329316    -0.9996350  -0.0000361  -0.0001818   0.0001823   0.0000071  -0.0000175  -0.9416642   0.2859160
0.0333364    -0.9995381  -0.0001376   0.0000428   0.0001832   0.0000033  -0.0000037  -0.9416956   0.2859965
0.0337462    -0.9996180  -0.0000730   0.0000109   0.0001050   0.0000003   0.0000066  -0.9415459   0.2858363
0.0341610    -0.9996135  -0.0000017  -0.0000690   0.0001958   0.0000031  -0.0000018  -0.9415890   0.2860550
0.0345810    -0.9997670  -0.0000420  -0.0001561   0.0001232   0.0000025  -0.0000054  -0.9415994   0.2860402
0.0350061    -0.9996157  -0.0000212  -0.0000615   0.0002116   0.0000041   0.0000028  -0.9416480   0.2861025
0.0354365    -0.9996271   0.0000098  -0.0000727   0.0000517   0.0000008  -0.0000113  -0.9415532   0.2862356
0.0358721    -0.9995938  -0.0000014  -0.0001361   0.0002404   0.0000027   0.0000040  -0.9415274   0.2861881
0.0363131    -0.9996369  -0.0000576  -0.0002207   0.0002013  -0.0000035  -0.0000022  -0.9415787   0.2862180
0.0367595    -0.9995989  -0.0001078  -0.0002688   0.0001378  -0.0000029  -0.0000134  -0.9414277   0.2863980
0.0372114    -0.9996150  -0.0000083  -0.0001670  -0.0000019   0.0000021  -0.0000147  -0.9414660   0.2864445
0.0376688    -0.9996190  -0.0000724  -0.0003092   0.0001084  -0.0000015  -0.0000004  -0.9414265   0.2864517
0.0381319    -0.9996492  -0.0002143  -0.0000511   0.0000304  -0.0000009  -0.0000148  -0.9414994   0.2864761
0.0386006    -0.9996375   0.0000221   0.0000201   0.0001879  -0.0000001  -0.0000062  -0.9414738   0.2866139
0.0390752    -0.9996618  -0.0000199  -0.0002960   0.0002432   0.0000058  -0.0000044  -0.9413666   0.2865701
0.0395555    -0.9995820  -0.0001522  -0.0002941   0.0001083  -0.0000018  -0.0000008  -0.9413887   0.2866159
0.0400418    -0.9996099  -0.0001000  -0.0001308   0.0001562  -0.0000059  -0.0000090  -0.9414225   0.2867169
0.0405340    -0.9995894  -0.0000824  -0.0001552   0.0001753   0.0000032  -0.0000083  -0.9413678   0.2866962
0.0410323    -0.9996207  -0.0001501  -0.0001908   0.0001355   0.0000113  -0.0000063  -0.9412536   0.2867964
0.0415368    -0.9995049  -0.0001832  -0.0001597   0.0002010  -0.0000101   0.0000046  -0.9413906   0.2868516
0.0420474    -0.9996221  -0.0001094  -0.0000854   0.0000142  -0.0000032  -0.0000059  -0.9413047   0.2867908
0.0425643    -0.9996095  -0.0000987  -0.0002023   0.0002029   0.0000041  -0.0000041  -0.9412317   0.2868349
0.0430875    -0.9995277  -0.0001082  -0.0001136   0.0002125   0.0000041  -0.0000004  -0.9413051   0.2869693
0.0436172    -0.9997279   0.0000155  -0.0000797   0.0002103  -0.0000077  -0.0000074  -0.9412355   0.2870156
0.0441534    -0.9996487  -0.0000828  -0.0000494   0.0001910   0.0000004  -0.0000073  -0.9411886   0.2871031
0.0446962    -0.9997240  -0.0001020  -0.0001582   0.0002070  -0.0000045  -0.0000057  -0.9411981   0.2871376
0.0452457    -0.9996505  -0.0001315  -0.0000810   0.0001672   0.0000028  -0.0000074  -0.9411458   0.2871384
0.0458019    -0.9995997  -0.0000131  -0.0000713   0.0001755   0.0000017  -0.0000085  -0.9411226   0.2871739
0.0463649    -0.9996878  -0.0001089  -0.0001026   0.0001781   0.0000098   0.0000013  -0.9410879   0.2872438
0.0469349    -0.9996669  -0.0001114  -0.0001439   0.0002243  -0.0000076  -0.0000056  -0.9410962   0.2873527
0.0475119    -0.9996391  -0.0001600  -0.0000452   0.0002108   0.0000017  -0.0000071  -0.9410704   0.2873649
0.0480960    -0.9995343  -0.0000354  -0.0001014   0.0001820  -0.0000044  -0.0000019  -0.9409973   0.2874680
0.0486872    -0.9996177  -0.0000434  -0.0001997   0.0002586  -0.0000129  -0.0000110  -0.9409651   0.2874875
0.0492857    -0.9996151  -0.0000898  -0.0000533   0.0002029  -0.0000002  -0.0000042  -0.9409461   0.2875644
0.0498916    -0.9996224  -0.0001631  -0.0000148   0.0001538  -0.0000045  -0.0000018  -0.9408737   0.2876173
0.0505050    -0.9996017  -0.0000940  -0.0000585   0.0002529  -0.0000103  -0.0000166  -0.9409469   0.2876108
0.0511258    -0.9994840  -0.0000817  -0.0000913   0.0002366  -0.0000017  -0.0000074  -0.9409396   0.2877756
0.0517543    -0.9997101  -0.0000861  -0.0001559   0.0002305  -0.0000078  -0.0000062  -0.9409543   0.2877150
0.0523906    -0.9996789  -0.0001720  -0.0001500   0.0000499   0.0000057  -0.0000072  -0.9408638   0.2877875
0.0530346    -0.9995931  -0.0000111  -0.0001070   0.0001206   0.0000032  -0.0000115  -0.9408033   0.2878187
0.0536866    -0.9996340  -0.0001632  -0.0001412   0.0001635  -0.0000095  -0.0000167  -0.9408350   0.2878571
0.0543466    -0.9996404  -0.0001668  -0.0000493   0.0001333  -0.0000052  -0.0000006  -0.9407425   0.2878680
0.0550146    -0.9996244  -0.0000645  -0.0000648   0.0002592  -0.0000055  -0.0000045  -0.9407686   0.2879192
0.0556910    -0.9996779  -0.0001840  -0.0000134   0.0001002  -0.0000121  -0.0000102  -0.9406990   0.2879734
0.0563756    -0.9995353  -0.0001542  -0.0000974   0.0001649   0.0000018  -0.0000108  -0.9407175   0.2881117
0.0570686    -0.9996887  -0.0000887  -0.0000569   0.0001915   0.0000006  -0.0000166  -0.9406780   0.2881488
0.0577702    -0.9996618  -0.0002427  -0.0000797   0.0001752  -0.0000013  -0.0000054  -0.9406106   0.2882546
0.0584804    -0.9996413  -0.0000980  -0.0001109   0.0002119   0.0000011  -0.0000075  -0.9405687   0.2881916
0.0591993    -0.9994723  -0.0002684  -0.0001703   0.0001703   0.0000087   0.0000003  -0.9405477   0.2882490
0.0599270    -0.9996063  -0.0001610  -0.0001250   0.0001317   0.0000084  -0.0000020  -0.9406534   0.2883762
0.0606637    -0.9995849  -0.0000783  -0.0000219   0.0001443  -0.0000008  -0.0000084  -0.9404613   0.2883609
0.0614095    -0.9997654  -0.0000202  -0.0000689   0.0001931  -0.0000130   0.0000009  -0.9405219   0.2883972
0.0621644    -0.9996062  -0.0001283  -0.0001019   0.0001538  -0.0000010  -0.0000074  -0.9405535   0.2885076
0.0629286    -0.9996135  -0.0001337  -0.0000883   0.0001625  -0.0000052  -0.0000012  -0.9404398   0.2884878
0.0637022    -0.9995475  -0.0000640  -0.0000196   0.0001776   0.0000020  -0.0000046  -0.9403573   0.2886245
0.0644853    -0.9996887  -0.0001204  -0.0000308   0.0001669  -0.0000014  -0.0000039  -0.9404157   0.2886764
0.0652780    -0.9996691  -0.0002035  -0.0000930   0.0001846   0.0000039  -0.0000084  -0.9403190   0.2886986
0.0660805    -0.9996797  -0.0000646  -0.0000688   0.0001144  -0.0000050  -0.0000067  -0.9402917   0.2888275
0.0668928    -0.9995578  -0.0001232  -0.0000334   0.0001370  -0.0000128  -0.0000122  -0.9402203   0.2888212
0.0677152    -0.9995892  -0.0000306  -0.0000870   0.0001316   0.0000000  -0.0000112  -0.9402024   0.2888230
0.0685476    -0.9996489  -0.0002256  -0.0000863   0.0001411  -0.0000072  -0.0000117  -0.9401862   0.2888922
0.0693903    -0.9996226  -0.0001864  -0.0001261   0.0000956  -0.0000004  -0.0000041  -0.9401122   0.2890172
0.0702433    -0.9995049  -0.0002064  -0.0001352   0.0001127  -0.0000029   0.0000041  -0.9401311   0.2890242
0.0711068    -0.9996611  -0.0001958  -0.0000626   0.0001010   0.0000037  -0.0000059  -0.9400895   0.2890692
0.0719810    -0.9994895  -0.0001577  -0.0000986   0.0001954  -0.0000091   0.0000050  -0.9400307   0.2890734
0.0728659    -0.9995675  -0.0000955  -0.0001657   0.0001629   0.0000052  -0.0000014  -0.9399982   0.2891921
0.0737616    -0.9997066  -0.0001835  -0.0001243   0.0001384  -0.0000012   0.0000004  -0.9399166   0.2892475
0.0746684    -0.9996632  -0.0001511  -0.0001562   0.0002215   0.0000073  -0.0000086  -0.9399425   0.2892933
0.0755863    -0.9996642  -0.0001488  -0.0001639   0.0002125  -0.0000051  -0.0000018  -0.9398644   0.2893296
0.0765155    -0.9995556  -0.0001690  -0.0000802   0.0002062  -0.0000040  -0.0000102  -0.9398543   0.2893451
0.0774561    -0.9996576  -0.0001712  -0.0000573   0.0001521   0.0000021  -0.0000132  -0.9397228   0.2894283
0.0784083    -0.9996306  -0.0000249  -0.0001476   0.0002010   0.0000033   0.0000006  -0.9396576   0.2894038
0.0793722    -0.9996066  -0.0001831  -0.0001176   0.0001665  -0.0000042  -0.0000104  -0.9396161   0.2895158
0.0803479    -0.9997045  -0.0002264  -0.0001210   0.0000721   0.0000014  -0.0000099  -0.9396115   0.2895176
0.0813357    -0.9996261  -0.0001670  -0.0001123   0.0001118  -0.0000006  -0.0000007  -0.9394970   0.2895606
0.0823356    -0.9996237  -0.0001601  -0.0001507   0.0001895  -0.0000053  -0.0000076  -0.9394075   0.2896695
0.0833477    -0.9994907  -0.0001694  -0.0001509   0.0001605   0.0000061  -0.0000029  -0.9393761   0.2896456
0.0843723    -0.9996459  -0.0002170  -0.0001971   0.0001461   0.0000086  -0.0000037  -0.9393115   0.2897923
0.0854095    -0.9996104  -0.0001956  -0.0001168   0.0001432  -0.0000026  -0.0000074  -0.9392051   0.2896720
0.0864595    -0.9996781  -0.0002605  -0.0001699   0.0001630  -0.0000029   0.0000073  -0.9391912   0.2898053
0.0875224    -0.9995900  -0.0001254  -0.0001702   0.0002051   0.0000034  -0.0000104  -0.9391330   0.2897833
0.0885983    -0.9995940  -0.0001580  -0.0001708   0.0002730  -0.0000022  -0.0000038  -0.9390844   0.2898074
0.0896875    -0.9997113  -0.0001492  -0.0001464   0.0002019   0.0000089  -0.0000091  -0.9389901   0.2898603
0.0907900    -0.9996337  -0.0000418  -0.0001637   0.0002012  -0.0000058  -0.0000009  -0.9389029   0.2897670
0.0919061    -0.9994733  -0.0002246  -0.0001431   0.0003000   0.0000026   0.0000009  -0.9387465   0.2898359
0.0930359    -0.9998000  -0.0002265  -0.0000735   0.0003093   0.0000012   0.0000016  -0.9387368   0.2897206
0.0941797    -0.9996362  -0.0001930  -0.0001657   0.0002383   0.0000025   0.0000095  -0.9386642   0.2897788
0.0953374    -0.9996189  -0.0002110  -0.0001213   0.0002491  -0.0000047   0.0000036  -0.9386589   0.2896874
0.0965094    -0.9995864  -0.0001873  -0.0001527   0.0003414   0.0000008  -0.0000022  -0.9385277   0.2897067
0.0976959    -0.9996925  -0.0002334  -0.0000241   0.0003200   0.0000064  -0.0000051  -0.9385353   0.2896980
0.0988969    -0.9995721  -0.0001434  -0.0001614   0.0001536  -0.0000068  -0.0000015  -0.9384663   0.2896201
0.1001126    -0.9995855  -0.0001817  -0.0001667   0.0002020  -0.0000042  -0.0000113  -0.9384273   0.2896009
0.1013433    -0.9996580  -0.0002510  -0.0001722   0.0004183  -0.0000066  -0.0000005  -0.9384162   0.2895283
0.1025892    -0.9996140  -0.0004340  -0.0003008   0.0004610  -0.0000089  -0.0000156  -0.9383242   0.2894642
0.1038503    -0.9996264  -0.0002069  -0.0001554   0.0002416  -0.0000061   0.0000026  -0.9383898   0.2893628
0.1051270    -0.9996652  -0.0002290  -0.0001567   0.0003502  -0.0000042   0.0000032  -0.9384645   0.2893710
0.1064193    -0.9996015  -0.0001787  -0.0000360   0.0002428  -0.0000009  -0.0000043  -0.9385210   0.2892712
0.1077276    -0.9995902  -0.0002384  -0.0002338   0.0003075  -0.0000010   0.0000042  -0.9385561   0.2893075
0.1090519    -0.9995900  -0.0003558  -0.0002533   0.0003380   0.0000081   0.0000023  -0.9386699   0.2891948
0.1103925    -0.9995768  -0.0002705  -0.0001660   0.0002578  -0.0000053  -0.0000082  -0.9386504   0.2892372
0.1117496    -0.9995753  -0.0003106  -0.0001201   0.0003383   0.0000070  -0.0000009  -0.9387449   0.2892651
0.1131233    -0.9996058  -0.0002413  -0.0001187   0.0003222  -0.0000109  -0.0000063  -0.9388706   0.2892237
0.1145140    -0.9995912  -0.0003222  -0.0002378   0.0004083  -0.0000020  -0.0000139  -0.9389367   0.2893050
0.1159217    -0.9995788  -0.0001869  -0.0002237   0.0002739  -0.0000058  -0.0000006  -0.9389502   0.2893045
0.1173468    -0.9996894  -0.0001784  -0.0001846   0.0003334   0.0000043  -0.0000100  -0.9390159   0.2893834
0.1187893    -0.9996861  -0.0002364  -0.0001815   0.0002975  -0.0000015  -0.0000112  -0.9391408   0.2894386
0.1202497    -0.9996282  -0.0002943  -0.0001347   0.0002326  -0.0000076  -0.0000202  -0.9391425   0.2894774
0.1217279    -0.9997393  -0.0002507  -0.0002883   0.0002043   0.0000047   0.0000067  -0.9391774   0.2895602
0.1232243    -0.9996266  -0.0002753  -0.0002140   0.0002703  -0.0000059  -0.0000097  -0.9393238   0.2897100
0.1247392    -0.9995178  -0.0003086  -0.0002601   0.0003218  -0.0000005  -0.0000021  -0.9393441   0.2897610
0.1262726    -0.9995399  -0.0002264  -0.0002225   0.0003212  -0.0000082  -0.0000107  -0.9393835   0.2898578
0.1278249    -0.9997167  -0.0001634  -0.0002393   0.0003729  -0.0000011  -0.0000062  -0.9393711   0.2899272
0.1293963    -0.9995751  -0.0003203  -0.0002163   0.0002791  -0.0000038  -0.0000042  -0.9394349   0.2900448
0.1309870    -0.9995214  -0.0002296  -0.0002260   0.0002391   0.0000004  -0.0000140  -0.9394403   0.2901690
0.1325973    -0.9996602  -0.0002594  -0.0002368   0.0002539  -0.0000006   0.0000020  -0.9394429   0.2901727
0.1342273    -0.9996993  -0.0002819  -0.0002330   0.0002857  -0.0000030  -0.0000066  -0.9395119   0.2902830
0.1358774    -0.9996151  -0.0001989  -0.0001621   0.0003275  -0.0000045   0.0000028  -0.9394840   0.2904587
0.1375478    -0.9996055  -0.0003230  -0.0001069   0.0002749   0.0000041  -0.0000011  -0.9395102   0.2904983
0.1392387    -0.9997157  -0.0002373  -0.0001721   0.0003409  -0.0000016  -0.0000030  -0.9394896   0.2906542
0.1409504    -0.9996758  -0.0003073  -0.0001582   0.0002781  -0.0000098  -0.0000030  -0.9395416   0.2907525
0.1426831    -0.9995729  -0.0002642  -0.0002504   0.0003350  -0.0000051  -0.0000032  -0.9395182   0.2907696
0.1444371    -0.9996482  -0.0003152  -0.0001592   0.0003241   0.0000040  -0.0000025  -0.9394529   0.2909111
0.1462127    -0.9995303  -0.0002469  -0.0002073   0.0003168   0.0000011  -0.0000080  -0.9395321   0.2910522
0.1480102    -0.9995805  -0.0003277  -0.0001530   0.0003616  -0.0000016  -0.0000117  -0.9394888   0.2911476
0.1498297    -0.9995319  -0.0003224  -0.0001918   0.0003222  -0.0000046   0.0000006  -0.9394295   0.2911965
0.1516716    -0.9995021  -0.0003571  -0.0002135   0.0003749  -0.0000031   0.0000037  -0.9394114   0.2913293
0.1535361    -0.9996914  -0.0003349  -0.0002341   0.0003082  -0.0000056  -0.0000089  -0.9394468   0.2914228
0.1554236    -0.9996099  -0.0003649  -0.0002500   0.0003518   0.0000006   0.0000022  -0.9394299   0.2915906
0.1573342    -0.9995920  -0.0003856  -0.0002618   0.0004104  -0.0000109  -0.0000090  -0.9393141   0.2916879
0.1592684    -0.9997136  -0.0002857  -0.0001900   0.0003706   0.0000048   0.0000032  -0.9394186   0.2917255
0.1612263    -0.9996009  -0.0003680  -0.0002351   0.0003785   0.0000049  -0.0000010  -0.9393069   0.2918717
0.1632083    -0.9996152  -0.0003716  -0.0002174   0.0005018   0.0000052  -0.0000046  -0.9393931   0.2919294
0.1652147    -0.9996551  -0.0003744  -0.0002327   0.0004308  -0.0000054   0.0000015  -0.9392935   0.2920767
0.1672457    -0.9995826  -0.0003657  -0.0002077   0.0003500   0.0000058  -0.0000092  -0.9392819   0.2921465
0.1693017    -0.9996754  -0.0003733  -0.0001577   0.0004343  -0.0000093  -0.0000026  -0.9392562   0.2921591
0.1713829    -0.9996257  -0.0003032  -0.0001645   0.0004148  -0.0000062  -0.0000029  -0.9392212   0.2923577
0.1734898    -0.9996702  -0.0002745  -0.0002525   0.0004194  -0.0000008   0.0000005  -0.9391912   0.2923584
0.1756225    -0.9997163  -0.0004023  -0.0002404   0.0004262   0.0000067  -0.0000024  -0.9391699   0.2925539
0.1777815    -0.9996265  -0.0003286  -0.0001554   0.0004849  -0.0000031  -0.0000086  -0.9390592   0.2925714
0.1799670    -0.9996388  -0.0003186  -0.0002214   0.0003616  -0.0000053  -0.0000102  -0.9390654   0.2927581
0.1821794    -0.9996210  -0.0004152  -0.0002364   0.0004619   0.0000027  -0.0000042  -0.9390483   0.2928551
0.1844190    -0.9994402  -0.0003432  -0.0002112   0.0004596  -0.0000014  -0.0000113  -0.9391059   0.2929285
0.1866861    -0.9996172  -0.0003608  -0.0002655   0.0004901  -0.0000025  -0.0000085  -0.9389236   0.2930493
0.1889811    -0.9995779  -0.0004292  -0.0001472   0.0004479  -0.0000052  -0.0000045  -0.9389341   0.2931909
0.1913043    -0.9995529  -0.0004177  -0.0002083   0.0004574  -0.0000022  -0.0000077  -0.9389398   0.2931881
0.1936560    -0.9996937  -0.0003661  -0.0002048   0.0004140  -0.0000029   0.0000011  -0.9388743   0.2934055
0.1960367    -0.9996902  -0.0003426  -0.0001886   0.0005266  -0.0000034  -0.0000113  -0.9388666   0.2935421
0.1984466    -0.9996219  -0.0004558  -0.0002867   0.0004812  -0.0000069  -0.0000007  -0.9388003   0.2935264
0.2008861    -0.9997026  -0.0004166  -0.0002460   0.0004963  -0.0000035  -0.0000135  -0.9388468   0.2937072
0.2033557    -0.9996702  -0.0003269  -0.0001952   0.0005080  -0.0000017  -0.0000072  -0.9388149   0.2937507
0.2058556    -0.9996645  -0.0004199  -0.0002432   0.0005472   0.0000063  -0.0000012  -0.9386165   0.2938308
0.2083862    -0.9996596  -0.0003471  -0.0002354   0.0005366  -0.0000007  -0.0000098  -0.9386430   0.2939738
0.2109480    -0.9996167  -0.0004966  -0.0002488   0.0005595  -0.0000041   0.0000037  -0.9386125   0.2940661
0.2135412    -0.9996045  -0.0004049  -0.0001617   0.0005577   0.0000026  -0.0000099  -0.9385548   0.2941996
0.2161663    -0.9995640  -0.0004712  -0.0001402   0.0004605   0.0000069  -0.0000061  -0.9385860   0.2942747
0.2188237    -0.9995829  -0.0003870  -0.0001201   0.0004721  -0.0000015  -0.0000051  -0.9385893   0.2944157
0.2215137    -0.9996396  -0.0003632  -0.0001634   0.0005204  -0.0000176  -0.0000081  -0.9384733   0.2944849
0.2242369    -0.9996170  -0.0004813  -0.0000894   0.0005185  -0.0000093  -0.0000156  -0.9383799   0.2946712
0.2269935    -0.9996023  -0.0003929  -0.0001580   0.0005045  -0.0000070  -0.0000102  -0.9383557   0.2947396
0.2297839    -0.9996907  -0.0004886  -0.0001495   0.0004760   0.0000008  -0.0000095  -0.9383288   0.2948782
0.2326087    -0.9996475  -0.0005008  -0.0001785   0.0005425  -0.0000072  -0.0000042  -0.9383012   0.2949777
0.2354682    -0.9996040  -0.0005103  -0.0001398   0.0004733   0.0000062  -0.0000025  -0.9382314   0.2950852
0.2383629    -0.9996499  -0.0005475  -0.0001486   0.0004900   0.0000095  -0.0000077  -0.9382402   0.2951383
0.2412932    -0.9997214  -0.0005205  -0.0001288   0.0005275  -0.0000204  -0.0000146  -0.9381400   0.2952565
0.2442594    -0.9996577  -0.0005237  -0.0001633   0.0005047  -0.0000093   0.0000065  -0.9381314   0.2954319
0.2472622    -0.9995833  -0.0004708  -0.0001373   0.0005640  -0.0000034  -0.0000044  -0.9381191   0.2955686
0.2503018    -0.9996067  -0.0004797  -0.0001422   0.0005449  -0.0000125  -0.0000093  -0.9379876   0.2957517
0.2533788    -0.9996908  -0.0005540  -0.0002003   0.0005709  -0.0000040   0.0000031  -0.9379655   0.2957465
0.2564937    -0.9996728  -0.0004479  -0.0001569   0.0006150  -0.0000017  -0.0000116  -0.9379517   0.2958429
0.2596468    -0.9996235  -0.0005747  -0.0001079   0.0006123  -0.0000103  -0.0000019  -0.9378675   0.2960615
0.2628387    -0.9996950  -0.0005180  -0.0001510   0.0006317   0.0000019   0.0000031  -0.9378421   0.2962113
0.2660699    -0.9995832  -0.0004835  -0.0001293   0.0006169   0.0000030  -0.0000001  -0.9377637   0.2962477
0.2693407    -0.9995891  -0.0005914  -0.0001799   0.0006464   0.0000029   0.0000017  -0.9376920   0.2964796
0.2726518    -0.9995634  -0.0006326  -0.0001249   0.0006435   0.0000098  -0.0000065  -0.9376563   0.2965318
0.2760036    -0.9996775  -0.0005563  -0.0001095   0.0006135  -0.0000009  -0.0000004  -0.9376370   0.2967253
0.2793966    -0.9996181  -0.0004941  -0.0001533   0.0006809   0.0000015  -0.0000069  -0.9375655   0.2967840
0.2828312    -0.9995993  -0.0005322  -0.0001510   0.0007035  -0.0000054  -0.0000065  -0.9375553   0.2969881
0.2863082    -0.9996710  -0.0006346  -0.0000999   0.0006694  -0.0000069  -0.0000156  -0.9374514   0.2970842
0.2898278    -0.9995923  -0.0006141  -0.0002064   0.0007060   0.0000011  -0.0000148  -0.9373987   0.2972562
0.2933907    -0.9996307  -0.0005247  -0.0001294   0.0006954  -0.0000071  -0.0000110  -0.9374491   0.2973166
0.2969975    -0.9997005  -0.0006263  -0.0001600   0.0007256   0.0000025  -0.0000002  -0.9373918   0.2974570
0.3006485    -0.9995938  -0.0006746  -0.0000937   0.0007401  -0.0000037  -0.0000003  -0.9372446   0.2976492
0.3043445    -0.9996363  -0.0006408  -0.0001140   0.0007865   0.0000030  -0.0000090  -0.9372233   0.2977212
0.3080858    -0.9996578  -0.0006132  -0.0001416   0.0006782   0.0000008  -0.0000047  -0.9371217   0.2978439
0.3118732    -0.9996163  -0.0005899  -0.0001106   0.0006921  -0.0000029  -0.0000037  -0.9370846   0.2981255
0.3157071    -0.9996142  -0.0006187  -0.0001170   0.0007360   0.0000001  -0.0000051  -0.9369519   0.2981806
0.3195882    -0.9996750  -0.0005876  -0.0001548   0.0007019  -0.0000056  -0.0000075  -0.9369621   0.2983713
0.3235170    -0.9995498  -0.0006881  -0.0001062   0.0007240   0.0000005  -0.0000101  -0.9368877   0.2985743
0.3274941    -0.9995381  -0.0007454  -0.0001274   0.0006683  -0.0000171  -0.0000030  -0.9368245   0.2986018
0.3315200    -0.9996849  -0.0007203  -0.0001076   0.0007267  -0.0000011  -0.0000002  -0.9366881   0.2987612
0.3355955    -0.9997012  -0.0006777  -0.0001116   0.0007092   0.0000024  -0.0000098  -0.9367534   0.2988743
0.3397210    -0.9996801  -0.0006322  -0.0001403   0.0007562  -0.0000033  -0.0000140  -0.9366286   0.2991156
0.3438973    -0.9996349  -0.0006804  -0.0001313   0.0007973   0.0000025  -0.0000018  -0.9365542   0.2991742
0.3481249    -0.9996039  -0.0006525  -0.0000810   0.0007980  -0.0000090  -0.0000003  -0.9365513   0.2993079
0.3524045    -0.9996336  -0.0006438  -0.0001103   0.0008167   0.0000071  -0.0000049  -0.9364981   0.2994654
0.3567367    -0.9997006  -0.0007277  -0.0001183   0.0008236   0.0000048  -0.0000006  -0.9364733   0.2996630
0.3611221    -0.9995742  -0.0006966  -0.0000994   0.0008236  -0.0000009  -0.0000053  -0.9363157   0.2998125
0.3655615    -0.9996083  -0.0006644  -0.0001278   0.0008412   0.0000008   0.0000035  -0.9362350   0.2999891
0.3700554    -0.9996586  -0.0007001  -0.0001596   0.0008269  -0.0000078   0.0000013  -0.9361766   0.3001423
0.3746046    -0.9997117  -0.0007206  -0.0001397   0.0008325  -0.0000074   0.0000052  -0.9360952   0.3002810
0.3792097    -0.9996965  -0.0007029  -0.0000964   0.0008408   0.0000027  -0.0000014  -0.9360310   0.3005167
0.3838714    -0.9996047  -0.0008759  -0.0001510   0.0008467  -0.0000147   0.0000006  -0.9360487   0.3006684
0.3885905    -0.9995858  -0.0007309  -0.0000734   0.0008844   0.0000014  -0.0000025  -0.9359445   0.3008066
0.3933675    -0.9996400  -0.0007538  -0.0001001   0.0009150  -0.0000064  -0.0000079  -0.9358374   0.3010662
0.3982033    -0.9997195  -0.0007626  -0.0001051   0.0007933   0.0000045  -0.0000028  -0.9357388   0.3011775
0.4030985    -0.9994639  -0.0008025  -0.0001171   0.0008422  -0.0000013  -0.0000019  -0.9356822   0.3013380
0.4080538    -0.9996269  -0.0008889  -0.0000979   0.0009363   0.0000088  -0.0000011  -0.9356213   0.3015114
0.4130701    -0.9996101  -0.0008736  -0.0001104   0.0009013  -0.0000030  -0.0000011  -0.9354990   0.3017008
0.4181481    -0.9995930  -0.0007674  -0.0001149   0.0008909  -0.0000217  -0.0000123  -0.9354835   0.3019167
0.4232885    -0.9996707  -0.0009146  -0.0001310   0.0009078   0.0000013  -0.0000042  -0.9353929   0.3020374
0.4284921    -0.9997603  -0.0008914  -0.0001794   0.0008488   0.0000050  -0.0000019  -0.9353126   0.3021829
0.4337597    -0.9996385  -0.0009110  -0.0000751   0.0009345  -0.0000025  -0.0000129  -0.9351899   0.3024178
0.4390920    -0.9996056  -0.0008651  -0.0000985   0.0009712   0.0000014  -0.0000040  -0.9351455   0.3026475
0.4444898    -0.9996384  -0.0008700  -0.0001672   0.0009602   0.0000003  -0.0000071  -0.9350953   0.3028394
0.4499541    -0.9997392  -0.0009130  -0.0000960   0.0009505   0.0000018   0.0000071  -0.9349420   0.3029515
0.4554854    -0.9996747  -0.0009002  -0.0000976   0.0010171  -0.0000024   0.0000004  -0.9349191   0.3031716
0.4610848    -0.9996011  -0.0008557  -0.0001318   0.0009964   0.0000036  -0.0000010  -0.9347462   0.3034583
0.4667531    -0.9997072  -0.0009372  -0.0000936   0.0010202  -0.0000048  -0.0000122  -0.9347264   0.3035858
0.4724910    -0.9996678  -0.0009902  -0.0000975   0.0010050   0.0000114  -0.0000039  -0.9345766   0.3037551
0.4782994    -0.9996846  -0.0009074  -0.0000951   0.0010297  -0.0000062  -0.0000052  -0.9345650   0.3040264
0.4841793    -0.9997037  -0.0009704  -0.0001468   0.0009735   0.0000106   0.0000023  -0.9344129   0.3041643
0.4901314    -0.9997421  -0.0009803  -0.0000988   0.0010463   0.0000062  -0.0000086  -0.9344641   0.3044346
0.4961567    -0.9997474  -0.0010654  -0.0000597   0.0010909  -0.0000058  -0.0000014  -0.9343045   0.3046205
0.5022561    -0.9997616  -0.0009860  -0.0001257   0.0010337  -0.0000017  -0.0000053  -0.9341865   0.3048411
0.5084304    -0.9995620  -0.0010936  -0.0000959   0.0011282  -0.0000013  -0.0000019  -0.9340425   0.3051119
0.5146807    -0.9996329  -0.0009964  -0.0001172   0.0011173  -0.0000092  -0.0000063  -0.9339961   0.3052493
0.5210078    -0.9996674  -0.0010533  -0.0001103   0.0011328   0.0000043  -0.0000041  -0.9338725   0.3054744
0.5274126    -0.9996102  -0.0010295  -0.0000747   0.0011099  -0.0000064  -0.0000075  -0.9338402   0.3057256
0.5338963    -0.9995825  -0.0010940  -0.0001200   0.0011024   0.0000003   0.0000057  -0.9337405   0.3059158
0.5404596    -0.9996101  -0.0009893  -0.0000720   0.0012062  -0.0000084   0.0000050  -0.9336710   0.3062319
0.5471036    -0.9996633  -0.0010372  -0.0000781   0.0011804  -0.0000094  -0.0000065  -0.9335276   0.3063257
0.5538292    -0.9996594  -0.0011301  -0.0000649   0.0011734   0.0000020  -0.0000054  -0.9334165   0.3066357
0.5606376    -0.9996098  -0.0010840  -0.0000352   0.0011762  -0.0000026  -0.0000073  -0.9332411   0.3068205
0.5675297    -0.9997313  -0.0011314  -0.0000716   0.0012112  -0.0000022  -0.0000028  -0.9331879   0.3071370
0.5745064    -0.9995536  -0.0011107  -0.0000864   0.0012183   0.0000018   0.0000011  -0.9330557   0.3073340
0.5815690    -0.9996796  -0.0011433  -0.0000401   0.0012188   0.0000020   0.0000047  -0.9330523   0.3075216
0.5887183    -0.9996270  -0.0011780  -0.0000207   0.0012490  -0.0000109  -0.0000114  -0.9328489   0.3077647
0.5959556    -0.9997302  -0.0012607  -0.0000157   0.0013003  -0.0000057  -0.0000093  -0.9327533   0.3080503
0.6032818    -0.9995685  -0.0012152  -0.0000371   0.0012793  -0.0000051  -0.0000031  -0.9326622   0.3083318
0.6106981    -0.9996256  -0.0011127   0.0000258   0.0012774   0.0000033  -0.0000101  -0.9325332   0.3086434
0.6182056    -0.9996120  -0.0013398  -0.0000092   0.0012654   0.0000045  -0.0000047  -0.9324797   0.3087512
0.6258053    -0.9997170  -0.0012277  -0.0000362   0.0013249  -0.0000036   0.0000009  -0.9323100   0.3090988
0.6334985    -0.9997429  -0.0011962  -0.0000961   0.0013149   0.0000043  -0.0000057  -0.9322906   0.3093580
0.6412862    -0.9996593  -0.0012539  -0.0000438   0.0013052  -0.0000087  -0.0000039  -0.9320162   0.3096498
0.6491697    -0.9996725  -0.0012580  -0.0000403   0.0013780  -0.0000025   0.0000017  -0.9320639   0.3099768
0.6571501    -0.9996813  -0.0013107  -0.0000165   0.0013560  -0.0000156  -0.0000076  -0.9318527   0.3101546
0.6652286    -0.9997029  -0.0012873  -0.0000699   0.0013757   0.0000013  -0.0000025  -0.9317385   0.3105023
0.6734064    -0.9996489  -0.0012718  -0.0000027   0.0013783  -0.0000007  -0.0000128  -0.9316249   0.3107810
0.6816848    -0.9996295  -0.0013849  -0.0000241   0.0014277  -0.0000108  -0.0000052  -0.9314518   0.3109770
0.6900649    -0.9996978  -0.0013543  -0.0000021   0.0014172  -0.0000001  -0.0000024  -0.9313558   0.3112493
0.6985480    -0.9997982  -0.0013745  -0.0000308   0.0014503  -0.0000011  -0.0000022  -0.9312130   0.3116300
0.7071355    -0.9996374  -0.0013771  -0.0000052   0.0014896   0.0000024  -0.0000047  -0.9311384   0.3119213
0.7158284    -0.9996903  -0.0014211  -0.0000081   0.0014831   0.0000018  -0.0000044  -0.9310515   0.3121998
0.7246283    -0.9998232  -0.0014085  -0.0000186   0.0015283  -0.0000065  -0.0000022  -0.9308397   0.3124587
0.7335363    -0.9996115  -0.0014670  -0.0000393   0.0015791   0.0000072  -0.0000030  -0.9308036   0.3127722
0.7425539    -0.9997642  -0.0013835  -0.0000851   0.0014998  -0.0000014  -0.0000051  -0.9306783   0.3131388
0.7516822    -0.9997518  -0.0015012  -0.0000228   0.0015608  -0.0000061   0.0000039  -0.9304417   0.3133883
0.7609229    -0.9997994  -0.0015874  -0.0000154   0.0015622  -0.0000108  -0.0000073  -0.9302693   0.3136903
0.7702771    -0.9996717  -0.0014603  -0.0000912   0.0015767   0.0000060  -0.0000118  -0.9301103   0.3139566
0.7797463    -0.9996746  -0.0015631   0.0000442   0.0016237  -0.0000053  -0.0000039  -0.9299867   0.3143409
0.7893319    -0.9998427  -0.0017079   0.0000168   0.0015946  -0.0000011  -0.0000039  -0.9298566   0.3146606
0.7990353    -0.9996549  -0.0014910   0.0000477   0.0015239   0.0000108   0.0000006  -0.9297423   0.3149845
0.8088580    -0.9996610  -0.0016543   0.0000106   0.0016841  -0.0000011  -0.0000043  -0.9295781   0.3153214
0.8188015    -0.9997440  -0.0015876  -0.0000212   0.0016651  -0.0000041  -0.0000032  -0.9294537   0.3156519
0.8288673    -0.9996698  -0.0016135   0.0000566   0.0017269  -0.0000032  -0.0000065  -0.9292674   0.3159989
0.8390567    -0.9997526  -0.0016852  -0.0000046   0.0017188   0.0000029  -0.0000167  -0.9291964   0.3163791
0.8493714    -0.9996544  -0.0016312   0.0000227   0.0017797   0.0000081  -0.0000012  -0.9290133   0.3166715
0.8598130    -0.9997222  -0.0016411   0.0000599   0.0017285   0.0000073  -0.0000083  -0.9288463   0.3170546
0.8703829    -0.9997409  -0.0017095   0.0000203   0.0017670   0.0000037  -0.0000044  -0.9286617   0.3173866
0.8810827    -0.9997661  -0.0017241   0.0000692   0.0018156  -0.0000029  -0.0000054  -0.9285109   0.3178376
0.8919140    -0.9997015  -0.0016855  -0.0000293   0.0018812   0.0000023  -0.0000108  -0.9283561   0.3181357
0.9028786    -0.9997912  -0.0017924   0.0000597   0.0018667  -0.0000092   0.0000004  -0.9281942   0.3185210
0.9139779    -0.9997810  -0.0017885   0.0000384   0.0020150  -0.0000026  -0.0000067  -0.9280326   0.3189216
0.9252136    -0.9997215  -0.0018608   0.0000251   0.0018948  -0.0000001  -0.0000139  -0.9278553   0.3192816
0.9365875    -0.9996823  -0.0017447   0.0000574   0.0019023  -0.0000034   0.0000006  -0.9276938   0.3196557
0.9481012    -0.9996455  -0.0018573   0.0000931   0.0019354  -0.0000017  -0.0000055  -0.9275186   0.3200543
0.9597564    -0.9997595  -0.0017961   0.0000339   0.0019348  -0.0000017  -0.0000023  -0.9273121   0.3204456
0.9715549    -0.9996629  -0.0017377   0.0000365   0.0018970  -0.0000036  -0.0000012  -0.9271461   0.3208858
0.9834985    -0.9998283  -0.0020023   0.0000619   0.0020139  -0.0000065  -0.0000013  -0.9270109   0.3212321
0.9955889    -0.9998267  -0.0019799   0.0000911   0.0020300  -0.0000032  -0.0000050  -0.9268638   0.3216050
1.0078279    -0.9997819  -0.0018877   0.0000809   0.0020592   0.0000107  -0.0000079  -0.9265545   0.3220619
1.0202173    -0.9998237  -0.0019903   0.0000473   0.0020721   0.0000011  -0.0000053  -0.9264578   0.3224213
1.0327591    -0.9996381  -0.0019619   0.0000571   0.0020407  -0.0000039  -0.0000004  -0.9262505   0.3229331
1.0454551    -0.9997693  -0.0020419   0.0000649   0.0020602   0.0000008  -0.0000101  -0.9260666   0.3233381
1.0583071    -0.9997377  -0.0020330   0.0000322   0.0020855  -0.0000013   0.0000049  -0.9258682   0.3237213
1.0713171    -0.9997340  -0.0020214   0.0000564   0.0021419  -0.0000064   0.0000018  -0.9255917   0.3241481
1.0844871    -0.9997771  -0.0020384   0.0000764   0.0021456  -0.0000048   0.0000027  -0.9254617   0.3245377
1.0978189    -0.9997332  -0.0020511   0.0000721   0.0021198   0.0000007   0.0000068  -0.9252756   0.3250599
1.1113147    -0.9998444  -0.0022067   0.0001377   0.0022088  -0.0000006  -0.0000055  -0.9250334   0.3254274
1.1249763    -0.9997605  -0.0022188   0.0000568   0.0022103  -0.0000013  -0.0000018  -0.9248774   0.3259905
1.1388059    -0.9996716  -0.0020723   0.0000755   0.0023009  -0.0000019  -0.0000060  -0.9247198   0.3264517
1.1528056    -0.9997440  -0.0021808   0.0000826   0.0022461  -0.0000044  -0.0000036  -0.9244583   0.3268988
1.1669773    -0.9997717  -0.0021837   0.0000745   0.0022458  -0.0000009  -0.0000082  -0.9242727   0.3273953
1.1813232    -0.9997335  -0.0023324   0.0000808   0.0022900  -0.0000031  -0.0000048  -0.9240773   0.3278585
1.1958455    -0.9996475  -0.0022344   0.0001285   0.0023931   0.0000009   0.0000004  -0.9238039   0.3283554
1.2105463    -0.9997070  -0.0023187   0.0000403   0.0023528  -0.0000031  -0.0000085  -0.9236208   0.3288517
1.2254278    -0.9997047  -0.0024355   0.0000933   0.0023759  -0.0000064   0.0000002  -0.9233540   0.3293477
1.2404923    -0.9997047  -0.0023500   0.0000957   0.0024070   0.0000005  -0.0000006  -0.9232183   0.3298264
1.2557420    -0.9997467  -0.0023654   0.0001410   0.0024417   0.0000060  -0.0000034  -0.9229541   0.3303611
1.2711791    -0.9997671  -0.0022962   0.0000764   0.0024398   0.0000058   0.0000032  -0.9226769   0.3308420
1.2868060    -0.9997465  -0.0024689   0.0000427   0.0024288  -0.0000086   0.0000018  -0.9224299   0.3313969
1.3026251    -0.9997280  -0.0025289   0.0000949   0.0025258   0.0000010  -0.0000178  -0.9221532   0.3319239
1.3186385    -0.9998807  -0.0025507   0.0000521   0.0025314  -0.0000032  -0.0000001  -0.9219294   0.3324706
1.3348489    -0.9997651  -0.0026104   0.0000894   0.0025469  -0.0000022  -0.0000067  -0.9217568   0.3330027
1.3512585    -0.9999070  -0.0025239   0.0000780   0.0025339  -0.0000067  -0.0000152  -0.9214508   0.3335168
1.3678698    -0.9998019  -0.0024853   0.0000463   0.0026564  -0.0000091  -0.0000157  -0.9212825   0.3340755
1.3846854    -0.9999755  -0.0025161   0.0000716   0.0026061   0.0000027  -0.0000135  -0.9210106   0.3347380
1.4017077    -0.9997366  -0.0026165   0.0000599   0.0026570   0.0000041   0.0000045  -0.9207423   0.3352204
1.4189392    -0.9997360  -0.0026601   0.0000593   0.0026846   0.0000006   0.0000001  -0.9205003   0.3357456
1.4363825    -0.9999147  -0.0027064   0.0001032   0.0026956  -0.0000072  -0.0000012  -0.9202484   0.3363581
1.4540403    -0.9997391  -0.0028104   0.0000357   0.0027446  -0.0000064  -0.0000011  -0.9199559   0.3369570
1.4719152    -0.9997010  -0.0027813   0.0000948   0.0028372   0.0000078   0.0000075  -0.9197156   0.3376479
1.4900098    -0.9997456  -0.0027534   0.0000879   0.0027945   0.0000059  -0.0000025  -0.9193985   0.3381595
1.5083269    -0.9997398  -0.0028465   0.0000784   0.0028616  -0.0000053   0.0000013  -0.9191216   0.3387463
1.5268691    -0.9996623  -0.0028301   0.0001003   0.0029141   0.0000075  -0.0000016  -0.9188447   0.3393919
1.5456392    -0.9998068  -0.0028586   0.0001094   0.0029152  -0.0000034  -0.0000016  -0.9186352   0.3399954
1.5646402    -0.9998351  -0.0029004   0.0000839   0.0029425   0.0000027  -0.0000022  -0.9183255   0.3407034
1.5838747    -0.9998016  -0.0030056   0.0001079   0.0030061  -0.0000058   0.0000018  -0.9180071   0.3413056
1.6033456    -0.9997499  -0.0029727   0.0001589   0.0030168  -0.0000038   0.0000005  -0.9178175   0.3419714
1.6230559    -0.9998405  -0.0030674   0.0000755   0.0030610   0.0000040  -0.0000088  -0.9174998   0.3426997
1.6430085    -0.9996977  -0.0030598   0.0000936   0.0030955  -0.0000092  -0.0000087  -0.9171685   0.3433497
1.6632064    -0.9998495  -0.0031739   0.0000965   0.0031539  -0.0000108  -0.0000073  -0.9168588   0.3440620
1.6836526    -0.9997668  -0.0032116   0.0001055   0.0031817   0.0000037  -0.0000099  -0.9166106   0.3447857
1.7043502    -0.9997941  -0.0031570   0.0000921   0.0032091   0.0000002  -0.0000113  -0.9161800   0.3455200
1.7253021    -0.9997419  -0.0032048   0.0001050   0.0032360  -0.0000079  -0.0000040  -0.9159925   0.3461715
1.7465117    -0.9997706  -0.0033633   0.0000700   0.0033121   0.0000025  -0.0000055  -0.9157903   0.3469968
1.7679820    -0.9997202  -0.0033376   0.0001097   0.0033168  -0.0000045   0.0000031  -0.9154066   0.3477171
1.7897162    -0.9997726  -0.0033187   0.0001151   0.0033857  -0.0000016  -0.0000074  -0.9151174   0.3484560
1.8117176    -0.9997728  -0.0034081   0.0001103   0.0034146  -0.0000088  -0.0000035  -0.9147761   0.3493066
1.8339895    -0.9997649  -0.0034327   0.0001249   0.0034539  -0.0000118  -0.0000034  -0.9144893   0.3500739
1.8565352    -0.9997940  -0.0034384   0.0001372   0.0035063  -0.0000061  -0.0000007  -0.9141587   0.3508992
1.8793580    -0.9997763  -0.0034678   0.0001269   0.0035375   0.0000050  -0.0000067  -0.9138773   0.3516445
1.9024614    -0.9997323  -0.0036352   0.0001244   0.0036038   0.0000034   0.0000019  -0.9136433   0.3524820
1.9258488    -0.9998325  -0.0035390   0.0001582   0.0036503  -0.0000040  -0.0000066  -0.9132013   0.3533232
1.9495237    -0.9998220  -0.0035737   0.0000917   0.0036710  -0.0000036  -0.0000086  -0.9128573   0.3542622
1.9734897    -0.9997903  -0.0036777   0.0001160   0.0036799  -0.0000027  -0.0000027  -0.9124967   0.3551210
1.9977503    -0.9998638  -0.0037120   0.0001278   0.0037343  -0.0000022  -0.0000100  -0.9121862   0.3560367
2.0223091    -0.9997795  -0.0037273   0.0001424   0.0037908   0.0000036  -0.0000066  -0.9117146   0.3569520
2.0471698    -0.9997226  -0.0038770   0.0001374   0.0038372   0.0000021  -0.0000058  -0.9112576   0.3578717
2.0723362    -0.9998088  -0.0038032   0.0001265   0.0038862  -0.0000052  -0.0000109  -0.9108508   0.3587810
2.0978119    -0.9996936  -0.0038993   0.0001598   0.0038974  -0.0000046  -0.0000081  -0.9103719   0.3597379
2.1236008    -0.9999303  -0.0040409   0.0001229   0.0039999  -0.0000093  -0.0000004  -0.9098752   0.3606545
2.1497067    -0.9997896  -0.0039158   0.0001373   0.0040177  -0.0000046  -0.0000022  -0.9093895   0.3616367
2.1761336    -0.9998143  -0.0041142   0.0001956   0.0040956  -0.0000068  -0.0000094  -0.9089004   0.3624516
2.2028853    -0.9999651  -0.0041657   0.0001437   0.0041403  -0.0000069  -0.0000036  -0.9082573   0.3634525
2.2299659    -0.9999490  -0.0041772   0.0001586   0.0041783  -0.0000041  -0.0000103  -0.9079217   0.3643863
2.2573794    -0.9998329  -0.0042549   0.0001783   0.0042052  -0.0000005   0.0000045  -0.9073349   0.3653268
2.2851299    -0.9999247  -0.0042562   0.0001676   0.0042853  -0.0000203  -0.0000078  -0.9067572   0.3662666
2.3132216    -0.9998533  -0.0043273   0.0001208   0.0043366  -0.0000061  -0.0000051  -0.9062437   0.3671181
2.3416586    -0.9998343  -0.0042659   0.0001472   0.0044061   0.0000013  -0.0000147  -0.9056892   0.3680784
2.3704451    -0.9998680  -0.0043760   0.0001643   0.0044299  -0.0000051  -0.0000091  -0.9051684   0.3691096
2.3995856    -0.9998770  -0.0043756   0.0001830   0.0045207  -0.0000066  -0.0000082  -0.9045189   0.3700807
2.4290843    -0.9998324  -0.0045565   0.0001467   0.0045720  -0.0000003  -0.0000136  -0.9041214   0.3709168
2.4589456    -0.9997283  -0.0044823   0.0001602   0.0045788  -0.0000015  -0.0000055  -0.9035454   0.3719175
2.4891740    -0.9999028  -0.0045199   0.0002114   0.0046614   0.0000065   0.0000046  -0.9030067   0.3729132
2.5197740    -0.9998680  -0.0047552   0.0001773   0.0047216  -0.0000101  -0.0000049  -0.9025121   0.3739415
2.5507502    -0.9998117  -0.0047387   0.0000778   0.0047807  -0.0000041   0.0000006  -0.9019500   0.3748543
2.5821072    -0.9998076  -0.0047777   0.0002126   0.0047683   0.0000005  -0.0000009  -0.9013914   0.3758758
2.6138496    -0.9998148  -0.0048961   0.0001534   0.0049459  -0.0000073  -0.0000027  -0.9007222   0.3768633
2.6459823    -0.9999079  -0.0049530   0.0001984   0.0049639  -0.0000029   0.0000048  -0.9001987   0.3779199
2.6785100    -0.9999079  -0.0049433   0.0002076   0.0049519  -0.0000082  -0.0000121  -0.8996597   0.3790409
2.7114376    -0.9997684  -0.0049822   0.0001953   0.0051012  -0.0000063  -0.0000062  -0.8990225   0.3800620
2.7447699    -0.9999279  -0.0051230   0.0001772   0.0051355   0.0000017  -0.0000063  -0.8984440   0.3810689
2.7785120    -0.9998815  -0.0051517   0.0001891   0.0051763  -0.0000026  -0.0000068  -0.8978285   0.3821643
2.8126689    -0.9998733  -0.0051382   0.0002126   0.0052442  -0.0000122   0.0000035  -0.8973122   0.3833147
2.8472457    -0.9999202  -0.0052360   0.0002085   0.0053464  -0.0000035  -0.0000070  -0.8967607   0.3844286
2.8822476    -0.9999541  -0.0053198   0.0002252   0.0053913   0.0000060   0.0000022  -0.8961782   0.3855124
2.9176798    -0.9998985  -0.0053985   0.0002320   0.0054416  -0.0000007  -0.0000141  -0.8955195   0.3866086
2.9535475    -0.9999126  -0.0054906   0.0001929   0.0055397  -0.0000058  -0.0000054  -0.8949483   0.3878070
2.9898562    -0.9998374  -0.0053864   0.0002353   0.0055861  -0.0000028  -0.0000049  -0.8942470   0.3890268
3.0266112    -0.9998948  -0.0055493   0.0002467   0.0056486  -0.0000014  -0.0000102  -0.8936296   0.3901293
3.0638180    -0.9999021  -0.0055902   0.0002309   0.0057163  -0.0000027  -0.0000106  -0.8929854   0.3913348
3.1014823    -0.9999344  -0.0056590   0.0002405   0.0057565   0.0000122   0.0000001  -0.8923790   0.3926033
3.1396096    -0.9998355  -0.0057475   0.0002479   0.0058419   0.0000007  -0.0000151  -0.8916534   0.3937399
3.1782055    -0.9998140  -0.0057769   0.0002564   0.0059112  -0.0000052  -0.0000060  -0.8910269   0.3950064
3.2172760    -0.9999137  -0.0059450   0.0002663   0.0059116  -0.0000021  -0.0000025  -0.8903442   0.3962763
3.2568267    -0.9998497  -0.0060217   0.0002821   0.0060794   0.0000000   0.0000010  -0.8897056   0.3975141
3.2968637    -0.9999976  -0.0060696   0.0002478   0.0061531   0.0000079  -0.0000071  -0.8889123   0.3988380
3.3373928    -0.9999283  -0.0060039   0.0002572   0.0061708  -0.0000055  -0.0000043  -0.8882090   0.4000991
3.3784202    -0.9998196  -0.0061999   0.0002384   0.0062375   0.0000017  -0.0000115  -0.8874257   0.4014749
3.4199519    -0.9999936  -0.0062384   0.0002794   0.0063395  -0.0000018  -0.0000072  -0.8867184   0.4027799
3.4619942    -0.9999217  -0.0063362   0.0002888   0.0063912   0.0000094  -0.0000015  -0.8859021   0.4040620
3.5045533    -0.9998828  -0.0063857   0.0003295   0.0064875  -0.0000130  -0.0000043  -0.8851955   0.4055343
3.5476356    -0.9998746  -0.0065037   0.0002562   0.0065247  -0.0000032  -0.0000072  -0.8844131   0.4068135
3.5912475    -0.9999515  -0.0065755   0.0002744   0.0066117   0.0000050  -0.0000068  -0.8835820   0.4081858
3.6353956    -0.9999252  -0.0066858   0.0002957   0.0066649  -0.0000033   0.0000033  -0.8828196   0.4096963
3.6800864    -0.9997629  -0.0067052   0.0002968   0.0067727  -0.0000019  -0.0000012  -0.8820544   0.4111741
3.7253266    -0.9999537  -0.0068456   0.0002921   0.0068521  -0.0000012   0.0000029  -0.8812237   0.4125975
3.7711229    -0.9999606  -0.0068296   0.0003214   0.0069548   0.0000036  -0.0000073  -0.8804596   0.4140384
3.8174822    -0.9998717  -0.0069799   0.0003245   0.0070454   0.0000054  -0.0000037  -0.8795996   0.4154965
3.8644115    -0.9999456  -0.0069986   0.0003103   0.0071306  -0.0000027  -0.0000005  -0.8788628   0.4170898
3.9119176    -0.9998881  -0.0070896   0.0003135   0.0071436   0.0000050  -0.0000047  -0.8780034   0.4186069
3.9600077    -1.0000147  -0.0072235   0.0003434   0.0072890  -0.0000003  -0.0000106  -0.8772529   0.4201030
4.0086890    -0.9999153  -0.0072598   0.0003666   0.0073808  -0.0000001  -0.0000011  -0.8762245   0.4216955
4.0579688    -0.9999003  -0.0072718   0.0003056   0.0074508   0.0000105  -0.0000087  -0.8753939   0.4232443
4.1078544    -0.9999343  -0.0074359   0.0003374   0.0075435   0.0000009  -0.0000062  -0.8745147   0.4247613
4.1583532    -0.9999916  -0.0076515   0.0003308   0.0076279  -0.0000076  -0.0000134  -0.8735491   0.4263804
4.2094729    -0.9999598  -0.0077249   0.0003804   0.0077193  -0.0000130  -0.0000085  -0.8727399   0.4279787
4.2612209    -0.9998697  -0.0077452   0.0003613   0.0078057   0.0000049  -0.0000003  -0.8717528   0.4295703
4.3136051    -0.9998997  -0.0078133   0.0003025   0.0078907   0.0000094  -0.0000038  -0.8707551   0.4312195
4.3666333    -0.9998707  -0.0079332   0.0003252   0.0079979  -0.0000042  -0.0000094  -0.8698497   0.4329018
4.4203134    -0.9999516  -0.0080280   0.0004044   0.0081041  -0.0000094  -0.0000055  -0.8687537   0.4345216
4.4746534    -0.9999632  -0.0080226   0.0003859   0.0082069  -0.0000100  -0.0000040  -0.8676684   0.4362446
4.5296613    -0.9999029  -0.0081370   0.0003873   0.0082879  -0.0000140  -0.0000062  -0.8666960   0.4379928
4.5853455    -0.9998616  -0.0083291   0.0004121   0.0084050   0.0000126  -0.0000056  -0.8655878   0.4397037
4.6417143    -0.9999348  -0.0084721   0.0004207   0.0085044   0.0000038  -0.0000010  -0.8644354   0.4412928
4.6987760    -0.9999298  -0.0084548   0.0004546   0.0086277  -0.0000146  -0.0000077  -0.8633619   0.4429503
4.7565392    -0.9999358  -0.0086122   0.0004241   0.0087005  -0.0000048  -0.0000118  -0.8622112   0.4446939
4.8150125    -0.9999716  -0.0086595   0.0004267   0.0088151   0.0000012  -0.0000054  -0.8610678   0.4463435
4.8742045    -1.0000011  -0.0088591   0.0003943   0.0089245   0.0000013  -0.0000100  -0.8598778   0.4479819
4.9341243    -1.0000765  -0.0090324   0.0004195   0.0090253  -0.0000079  -0.0000109  -0.8588102   0.4494953
4.9947807    -0.9999588  -0.0091337   0.0004499   0.0091324  -0.0000006  -0.0000013  -0.8578174   0.4510817
5.0561827    -0.9999081  -0.0090679   0.0004416   0.0092079  -0.0000007  -0.0000055  -0.8568059   0.4527803
5.1183396    -0.9999899  -0.0093581   0.0004386   0.0093312   0.0000014  -0.0000067  -0.8558557   0.4544847
5.1812606    -1.0000485  -0.0093436   0.0004599   0.0094521   0.0000041   0.0000007  -0.8549632   0.4562606
5.2449550    -1.0000264  -0.0094434   0.0004492   0.0095490  -0.0000038  -0.0000165  -0.8540537   0.4582926
5.3094325    -1.0000587  -0.0095538   0.0004325   0.0096950  -0.0000002  -0.0000129  -0.8530595   0.4601084
5.3747026    -1.0000755  -0.0096133   0.0004631   0.0097870  -0.0000032  -0.0000010  -0.8520304   0.4623129
5.4407751    -1.0000226  -0.0097911   0.0004406   0.0098983   0.0000050  -0.0000045  -0.8508710   0.4642557
5.5076599    -0.9999598  -0.0098816   0.0004688   0.0100295  -0.0000117  -0.0000096  -0.8497691   0.4663224
5.5753669    -1.0000312  -0.0101267   0.0004603   0.0101263   0.0000046  -0.0000046  -0.8485973   0.4684798
5.6439062    -0.9999501  -0.0102011   0.0004718   0.0102776   0.0000020  -0.0000020  -0.8474325   0.4705647
5.7132881    -0.9999783  -0.0103552   0.0004802   0.0103549  -0.0000053  -0.0000021  -0.8461542   0.4727491
5.7835229    -1.0000102  -0.0104215   0.0005250   0.0105085   0.0000120  -0.0000015  -0.8448744   0.4749231
5.8546211    -1.0000196  -0.0104867   0.0005347   0.0106674   0.0000019  -0.0000059  -0.8436650   0.4771559
5.9265934    -0.9999206  -0.0106949   0.0005208   0.0107741   0.0000031  -0.0000032  -0.8422969   0.4793258
5.9994504    -0.9999765  -0.0107373   0.0005291   0.0108870  -0.0000047  -0.0000054  -0.8409209   0.4814409
6.0732031    -1.0000506  -0.0110125   0.0005640   0.0110316  -0.0000113  -0.0000100  -0.8395623   0.4836481
6.1478624    -0.9999841  -0.0110135   0.0005288   0.0111514   0.0000063  -0.0000045  -0.8381859   0.4858738
6.2234396    -1.0000951  -0.0111760   0.0005625   0.0112399  -0.0000013  -0.0000036  -0.8366054   0.4881844
6.2999458    -1.0000042  -0.0113818   0.0005466   0.0113795  -0.0000015  -0.0000074  -0.8352632   0.4904485
6.3773925    -1.0000884  -0.0114188   0.0006142   0.0115186  -0.0000065  -0.0000109  -0.8337530   0.4927246
6.4557914    -0.9999589  -0.0115229   0.0006268   0.0116616   0.0000019  -0.0000044  -0.8322471   0.4949631
6.5351539    -1.0001190  -0.0117712   0.0006040   0.0117935  -0.0000016   0.0000001  -0.8307492   0.4973691
6.6154922    -1.0000652  -0.0119015   0.0006385   0.0119385   0.0000017  -0.0000067  -0.8291662   0.4997310
6.6968180    -1.0000844  -0.0120263   0.0006571   0.0121156  -0.0000013  -0.0000054  -0.8275994   0.5021189
6.7791436    -1.0001018  -0.0121462   0.0006053   0.0122213  -0.0000036  -0.0000061  -0.8260330   0.5044637
6.8624812    -1.0001282  -0.0123557   0.0006798   0.0123574  -0.0000017  -0.0000108  -0.8244187   0.5069328
6.9468433    -0.9999796  -0.0124425   0.0006697   0.0124865  -0.0000075   0.0000006  -0.8228260   0.5093485
7.0322425    -1.0000101  -0.0125718   0.0006563   0.0126759  -0.0000001  -0.0000017  -0.8211146   0.5118158
7.1186916    -1.0000616  -0.0128265   0.0007081   0.0128228   0.0000055  -0.0000068  -0.8194095   0.5143454
7.2062034    -1.0000250  -0.0128879   0.0006858   0.0129666  -0.0000054  -0.0000028  -0.8176992   0.5169044
7.2947909    -0.9999725  -0.0130286   0.0006664   0.0131459  -0.0000060  -0.0000003  -0.8159561   0.5194736
7.3844675    -1.0000388  -0.0132159   0.0007106   0.0132947  -0.0000109  -0.0000018  -0.8142863   0.5220747
7.4752466    -1.0001406  -0.0133938   0.0007169   0.0134224   0.0000062  -0.0000064  -0.8124937   0.5246904
7.5671416    -0.9999671  -0.0135293   0.0007047   0.0135928  -0.0000101   0.0000033  -0.8107805   0.5273408
7.6601662    -0.9999677  -0.0137385   0.0007443   0.0137793  -0.0000032  -0.0000058  -0.8089321   0.5300260
7.7543345    -1.0000781  -0.0138122   0.0007353   0.0139230  -0.0000011  -0.0000027  -0.8070409   0.5328550
7.8496604    -1.0001068  -0.0140207   0.0007713   0.0141152  -0.0000081  -0.0000079  -0.8052010   0.5356596
7.9461581    -1.0000241  -0.0143422   0.0007803   0.0142650  -0.0000041  -0.0000001  -0.8031845   0.5385086
8.0438422    -1.0001082  -0.0143300   0.0007516   0.0144284  -0.0000019   0.0000034  -0.8012046   0.5413537
8.1427270    -1.0001013  -0.0145746   0.0007898   0.0145765   0.0000042   0.0000010  -0.7990345   0.5443276
8.2428275    -1.0000367  -0.0147667   0.0008023   0.0147644   0.0000016   0.0000028  -0.7968067   0.5471867
8.3441586    -1.0001307  -0.0149268   0.0008151   0.0149588  -0.0000017   0.0000017  -0.7946318   0.5499687
8.4467353    -1.0000865  -0.0151558   0.0008159   0.0150949   0.0000085  -0.0000037  -0.7923743   0.5529673
8.5505731    -1.0001108  -0.0152311   0.0008306   0.0152971   0.0000036  -0.0000037  -0.7900742   0.5557386
8.6556873    -1.0000218  -0.0155383   0.0008846   0.0155732   0.0000022  -0.0000069  -0.7877981   0.5586649
8.7620937    -1.0000827  -0.0157096   0.0008558   0.0156751  -0.0000146  -0.0000022  -0.7855033   0.5615264
8.8698082    -1.0000413  -0.0159219   0.0008352   0.0158592   0.0000006  -0.0000076  -0.7831491   0.5644380
8.9788469    -1.0000216  -0.0160627   0.0008300   0.0160137   0.0000057  -0.0000060  -0.7808526   0.5673655
9.0892260    -1.0000022  -0.0161374   0.0008928   0.0162014  -0.0000017  -0.0000065  -0.7784899   0.5703176
9.2009621    -1.0000978  -0.0164233   0.0009028   0.0164152  -0.0000012  -0.0000011  -0.7759998   0.5733714
9.3140717    -1.0001898  -0.0166762   0.0008643   0.0166401   0.0000038   0.0000058  -0.7735743   0.5763568
9.4285718    -1.0001563  -0.0168660   0.0009033   0.0168050  -0.0000053  -0.0000121  -0.7711036   0.5794398
9.5444795    -1.0001453  -0.0170414   0.0009518   0.0169962  -0.0000082   0.0000062  -0.7685506   0.5825374
9.6618121    -1.0000937  -0.0172627   0.0009436   0.0172105   0.0000018  -0.0000043  -0.7660223   0.5856292
9.7805870    -1.0001184  -0.0174353   0.0009584   0.0173914   0.0000009   0.0000032  -0.7634060   0.5888029
9.9008221    -1.0000976  -0.0176649   0.0009939   0.0175922   0.0000039  -0.0000012  -0.7607542   0.5920226
10.0225353   -1.0000676  -0.0178650   0.0009902   0.0177854  -0.0000049  -0.0000083  -0.7581033   0.5951324
10.1457447   -0.9999569  -0.0180600   0.0010091   0.0180171  -0.0000039  -0.0000058  -0.7553612   0.5984296
10.2704688   -1.0000046  -0.0182962   0.0010235   0.0182342  -0.0000041  -0.0000085  -0.7526769   0.6017045
10.3967261   -1.0000909  -0.0185355   0.0010224   0.0184574  -0.0000061  -0.0000066  -0.7498397   0.6050384
10.5245356   -1.0001173  -0.0187118   0.0010582   0.0186659  -0.0000079  -0.0000076  -0.7469667   0.6082174
10.6539162   -1.0000440  -0.0189340   0.0010296   0.0188883   0.0000029   0.0000029  -0.7440703   0.6115378
10.7848873   -1.0001029  -0.0191225   0.0010562   0.0190955   0.0000005  -0.0000063  -0.7411368   0.6149778
10.9174685   -1.0000252  -0.0194282   0.0010879   0.0193307  -0.0000070  -0.0000035  -0.7381281   0.6183689
11.0516796   -1.0000095  -0.0196155   0.0011134   0.0195577  -0.0000045   0.0000037  -0.7349763   0.6217995
11.1875405   -1.0001365  -0.0199163   0.0011043   0.0198142   0.0000009  -0.0000076  -0.7319551   0.6253218
11.3250716   -1.0002093  -0.0201399   0.0011117   0.0200378  -0.0000013  -0.0000002  -0.7288001   0.6287838
11.4642934   -1.0001336  -0.0203787   0.0011479   0.0203332  -0.0000070  -0.0000020  -0.7255736   0.6322627
11.6052267   -1.0000674  -0.0206961   0.0011359   0.0205111  -0.0000104  -0.0000051  -0.7223402   0.6358978
11.7478926   -0.9999854  -0.0208717   0.0011589   0.0207688  -0.0000036   0.0000009  -0.7190147   0.6394037
11.8923122   -1.0001003  -0.0211656   0.0011904   0.0210055   0.0000007   0.0000002  -0.7156511   0.6429700
12.0385073   -1.0000796  -0.0214250   0.0012108   0.0212377  -0.0000075  -0.0000003  -0.7121713   0.6466395
12.1864995   -1.0001647  -0.0215922   0.0011849   0.0215018  -0.0000044  -0.0000095  -0.7086981   0.6502674
12.3363111   -1.0000770  -0.0219223   0.0012588   0.0217982  -0.0000098  -0.0000015  -0.7052440   0.6539590
12.4879643   -1.0001041  -0.0220765   0.0012548   0.0220280  -0.0000047  -0.0000026  -0.7015574   0.6576797
12.6414818   -1.0001400  -0.0224174   0.0012252   0.0222965   0.0000050  -0.0000068  -0.6978449   0.6613944
12.7968866   -1.0001372  -0.0227072   0.0012746   0.0225484   0.0000019  -0.0000131  -0.6941116   0.6651428
12.9542018   -1.0001726  -0.0229077   0.0012851   0.0228114   0.0000027   0.0000004  -0.6903715   0.6689079
13.1134509   -1.0001237  -0.0232015   0.0012912   0.0230617  -0.0000100  -0.0000035  -0.6864955   0.6727020
13.2746577   -1.0001403  -0.0235410   0.0013113   0.0233439  -0.0000033  -0.0000037  -0.6825288   0.6765492
13.4378462   -1.0000898  -0.0238400   0.0013147   0.0236511   0.0000116  -0.0000093  -0.6785797   0.6805044
13.6030409   -1.0000569  -0.0240299   0.0013427   0.0239150   0.0000024  -0.0000091  -0.6744924   0.6843455
13.7702663   -1.0000913  -0.0244076   0.0013925   0.0241799  -0.0000078   0.0000053  -0.6703140   0.6882447
13.9395475   -1.0001177  -0.0246504   0.0013938   0.0245100  -0.0000009  -0.0000010  -0.6661352   0.6921232
14.1109097   -1.0001007  -0.0249201   0.0014141   0.0247562  -0.0000038  -0.0000051  -0.6618006   0.6961022
14.2843785   -1.0000734  -0.0252996   0.0013945   0.0250519   0.0000052   0.0000030  -0.6574447   0.7000021
14.4599797   -1.0000441  -0.0255054   0.0014462   0.0253255   0.0000036  -0.0000067  -0.6530176   0.7040575
14.6377397   -1.0001018  -0.0258132   0.0014657   0.0256508  -0.0000093  -0.0000076  -0.6485291   0.7080584
14.8176850   -1.0000460  -0.0261828   0.0014993   0.0259897  -0.0000131   0.0000027  -0.6439510   0.7120446
14.9998423   -1.0001192  -0.0265306   0.0015078   0.0262934  -0.0000022  -0.0000131  -0.6392536   0.7161155
15.1842390   -1.0001202  -0.0268196   0.0015165   0.0266144  -0.0000130   0.0000049  -0.6344815   0.7202062
15.3709024   -1.0000647  -0.0271647   0.0015204   0.0269189  -0.0000048   0.0000017  -0.6297241   0.7242485
15.5598606   -1.0000937  -0.0274883   0.0015528   0.0272212  -0.0000054  -0.0000108  -0.6248621   0.7283607
15.7511417   -1.0000318  -0.0279018   0.0015493   0.0275482   0.0000019  -0.0000063  -0.6198680   0.7325479
15.9447743   -1.0001134  -0.0281567   0.0015936   0.0279011   0.0000020  -0.0000005  -0.6148227   0.7366409
16.1407872   -1.0000867  -0.0284785   0.0016199   0.0282253  -0.0000153  -0.0000110  -0.6095775   0.7408179
16.3392097   -1.0000847  -0.0288707   0.0016114   0.0285575  -0.0000056   0.0000011  -0.6043237   0.7450111
16.5400716   -1.0000868  -0.0292440   0.0016716   0.0289113  -0.0000077   0.0000002  -0.5990279   0.7492048
16.7434026   -0.9999571  -0.0295080   0.0016598   0.0292652  -0.0000112  -0.0000024  -0.5935454   0.7533613
16.9492333   -1.0000498  -0.0298964   0.0016840   0.0296192   0.0000049   0.0000022  -0.5880423   0.7577115
17.1575942   -1.0000034  -0.0302391   0.0016930   0.0299649  -0.0000039   0.0000064  -0.5824226   0.7618352
17.3685166   -1.0000929  -0.0306668   0.0017610   0.0302818  -0.0000002   0.0000013  -0.5767305   0.7661086
17.5820320   -0.9999840  -0.0310455   0.0017606   0.0306525  -0.0000036  -0.0000010  -0.5708657   0.7702965
17.7981721   -1.0000788  -0.0314114   0.0017627   0.0310098  -0.0000008  -0.0000063  -0.5649477   0.7746078
18.0169693   -1.0000409  -0.0318075   0.0017760   0.0313774  -0.0000148   0.0000015  -0.5589829   0.7788677
18.2384562   -1.0000313  -0.0321535   0.0018260   0.0317920  -0.0000088  -0.0000066  -0.5528978   0.7832294
18.4626659   -1.0000780  -0.0324994   0.0018422   0.0321423   0.0000017  -0.0000043  -0.5466180   0.7874117
18.6896319   -1.0000497  -0.0329153   0.0018154   0.0325565  -0.0000066   0.0000047  -0.5403799   0.7916946
18.9193880   -1.0000105  -0.0332232   0.0018052   0.0329319  -0.0000040  -0.0000020  -0.5338648   0.7960754
19.1519686   -0.9999906  -0.0336431   0.0018850   0.0333542   0.0000009  -0.0000067  -0.5272533   0.8003731
19.3874083   -1.0000671  -0.0340777   0.0019592   0.0338255  -0.0000090  -0.0000072  -0.5205907   0.8046701
19.6257423   -0.9999876  -0.0345512   0.0020133   0.0342217  -0.0000034  -0.0000054  -0.5139282   0.8090026
19.8670063   -1.0000335  -0.0349197   0.0019673   0.0346165  -0.0000003  -0.0000053  -0.5070653   0.8132444
20.1112361   -0.9999555  -0.0353960   0.0020390   0.0350363   0.0000014   0.0000039  -0.5000667   0.8175503
20.3584684   -0.9999747  -0.0358556   0.0020163   0.0354329  -0.0000109  -0.0000031  -0.4928451   0.8218131
20.6087399   -0.9998561  -0.0363018   0.0021558   0.0358827   0.0000064  -0.0000074  -0.4856078   0.8260492
20.8620881   -0.9999204  -0.0366938   0.0021680   0.0362387  -0.0000070   0.0000015  -0.4781752   0.8303917
21.1185507   -0.9999335  -0.0371009   0.0021918   0.0367369  -0.0000055   0.0000029  -0.4706816   0.8346281
21.3781661   -0.9999003  -0.0376592   0.0022169   0.0371675  -0.0000035  -0.0000010  -0.4630449   0.8387695
21.6409730   -0.9999585  -0.0379512   0.0022578   0.0376140  -0.0000039  -0.0000078  -0.4552968   0.8429882
21.9070107   -1.0000128  -0.0384443   0.0022550   0.0380734  -0.0000070   0.0000040  -0.4474480   0.8472129
22.1763188   -0.9999254  -0.0389585   0.0022741   0.0384731  -0.0000040   0.0000040  -0.4393970   0.8514093
22.4489376   -0.9999820  -0.0394468   0.0022903   0.0389392  -0.0000043  -0.0000038  -0.4312338   0.8556008
22.7249077   -0.9998792  -0.0398547   0.0023694   0.0394406  -0.0000006  -0.0000028  -0.4229033   0.8597198
23.0042705   -0.9998837  -0.0404038   0.0023614   0.0399007  -0.0000025   0.0000032  -0.4144679   0.8638397
23.2870675   -0.9999589  -0.0407765   0.0024194   0.0404290  -0.0000063   0.0000051  -0.4059703   0.8679089
23.5733409   -0.9998154  -0.0413613   0.0024760   0.0408891  -0.0000101  -0.0000119  -0.3971808   0.8719871
23.8631337   -0.9998206  -0.0418915   0.0025059   0.0413999  -0.0000095   0.0000009  -0.3882574   0.8759217
24.1564889   -0.9998292  -0.0423843   0.0025807   0.0418829  -0.0000145   0.0000020  -0.3793041   0.8799030
24.4534504   -0.9997265  -0.0428967   0.0025426   0.0423281  -0.0000039  -0.0000033  -0.3701540   0.8837846
24.7540625   -0.9997629  -0.0434339   0.0027015   0.0428719  -0.0000011  -0.0000056  -0.3608652   0.8877116
25.0583701   -0.9997485  -0.0439565   0.0027158   0.0433681   0.0000015  -0.0000007  -0.3513553   0.8915770
25.3664186   -0.9997093  -0.0444816   0.0027064   0.0439657  -0.0000058  -0.0000061  -0.3416299   0.8953736
25.6782541   -0.9997319  -0.0449156   0.0028264   0.0444924   0.0000039  -0.0000031  -0.3318719   0.8991532
25.9939230   -0.9997380  -0.0455559   0.0027938   0.0449819  -0.0000041  -0.0000050  -0.3219447   0.9027781
26.3134725   -0.9996668  -0.0461023   0.0029317   0.0456145   0.0000036  -0.0000035  -0.3118192   0.9063520
26.6369503   -0.9996076  -0.0466332   0.0029471   0.0460764  -0.0000030  -0.0000139  -0.3015927   0.9099376
26.9644047   -0.9997072  -0.0472614   0.0029756   0.0466227   0.0000019   0.0000037  -0.2911556   0.9134289
27.2958846   -0.9997067  -0.0477757   0.0030516   0.0472204  -0.0000076   0.0000021  -0.2805167   0.9167797
27.6314394   -0.9995778  -0.0483342   0.0030245   0.0477602  -0.0000017  -0.0000051  -0.2698048   0.9201340
27.9711193   -0.9995177  -0.0489621   0.0031377   0.0483528   0.0000071  -0.0000031  -0.2588429   0.9232956
28.3149750   -0.9996111  -0.0495565   0.0031100   0.0489219   0.0000039  -0.0000051  -0.2477763   0.9264440
28.6630578   -0.9995987  -0.0500908   0.0031405   0.0495156  -0.0000087  -0.0000003  -0.2365017   0.9294491
29.0154196   -0.9995824  -0.0507760   0.0031950   0.0501876  -0.0000064  -0.0000030  -0.2250419   0.9323611
29.3721131   -0.9995107  -0.0512889   0.0031785   0.0507795   0.0000014  -0.0000039  -0.2134533   0.9351741
29.7331915   -0.9995100  -0.0519900   0.0032947   0.0514208  -0.0000054  -0.0000036  -0.2016027   0.9379710
30.0987087   -0.9994693  -0.0526953   0.0033044   0.0521073  -0.0000033   0.0000123  -0.1897006   0.9405994
30.4687194   -0.9994906  -0.0532633   0.0034032   0.0527619  -0.0000021  -0.0000058  -0.1775500   0.9431766
30.8432786   -0.9993931  -0.0538766   0.0035906   0.0533957  -0.0000102   0.0000030  -0.1652043   0.9454509
31.2224424   -0.9994207  -0.0545432   0.0036349   0.0540964   0.0000061   0.0000027  -0.1527992   0.9476807
31.6062674   -0.9993370  -0.0552074   0.0038560   0.0547120  -0.0000091  -0.0000072  -0.1400337   0.9498177
31.9948108   -0.9993437  -0.0558886   0.0038951   0.0553035   0.0000000   0.0000043  -0.1271896   0.9518871
32.3881306   -0.9993069  -0.0565634   0.0040073   0.0558666  -0.0000007  -0.0000042  -0.1141830   0.9537462
32.7862857   -0.9992982  -0.0573005   0.0040763   0.0564735  -0.0000070  -0.0000062  -0.1009629   0.9553778
33.1893353   -0.9992344  -0.0579385   0.0041237   0.0571490  -0.0000018  -0.0000006  -0.0875903   0.9570247
33.5973398   -0.9992651  -0.0586887   0.0042018   0.0577251   0.0000037  -0.0000116  -0.0740442   0.9583378
34.0103599   -0.9991665  -0.0594685   0.0041146   0.0582949  -0.0000011   0.0000036  -0.0602129   0.9594876
34.4284574   -0.9991526  -0.0600691   0.0039788   0.0589129  -0.0000075  -0.0000028  -0.0465159   0.9606917
34.8516946   -0.9990705  -0.0608411   0.0038281   0.0596094  -0.0000053   0.0000028  -0.0322434   0.9616950
35.2801349   -0.9990252  -0.0616316   0.0036132   0.0606630  -0.0000032  -0.0000036  -0.0177784   0.9624635
35.7138420   -0.9991114  -0.0622771   0.0037393   0.0616915  -0.0000069  -0.0000060  -0.0032039   0.9628964
36.1528808   -0.9989554  -0.0630641   0.0038237   0.0627839  -0.0000086  -0.0000063   0.0115347   0.9632563
36.5973168   -0.9990366  -0.0638609   0.0041486   0.0638065   0.0000000  -0.0000055   0.0264333   0.9633738
37.0472164   -0.9989191  -0.0646229   0.0045888   0.0644734  -0.0000010  -0.0000025   0.0415912   0.9631242
37.5026467   -0.9987377  -0.0653303   0.0048062   0.0653717   0.0000005  -0.0000051   0.0569194   0.9628974
37.9636757   -0.9988242  -0.0661453   0.0051694   0.0659659  -0.0000025  -0.0000048   0.0726387   0.9619464
38.4303722   -0.9988002  -0.0669614   0.0053284   0.0667098   0.0000012  -0.0000023   0.0881824   0.9611452
38.9028060   -0.9988118  -0.0678219   0.0055045   0.0674010   0.0000032   0.0000041   0.1040381   0.9599848
39.3810475   -0.9986450  -0.0685915   0.0056451   0.0680297  -0.0000019   0.0000034   0.1201362   0.9586652
39.8651681   -0.9986497  -0.0694879   0.0057611   0.0688494  -0.0000008   0.0000047   0.1362896   0.9569852
40.3552402   -0.9985628  -0.0703707   0.0058490   0.0694636   0.0000052   0.0000025   0.1527017   0.9550329
40.8513368   -0.9984620  -0.0710998   0.0060295   0.0702836  -0.0000009  -0.0000083   0.1693457   0.9526915
41.3535320   -0.9984952  -0.0720011   0.0061136   0.0709852  -0.0000069  -0.0000035   0.1860114   0.9501695
41.8619009   -0.9984793  -0.0728034   0.0062162   0.0716178  -0.0000012   0.0000013   0.2030277   0.9472720
42.3765193   -0.9984144  -0.0737215   0.0063275   0.0725684   0.0000010  -0.0000008   0.2201222   0.9440599
42.8974639   -0.9983155  -0.0746791   0.0063385   0.0733891  -0.0000026   0.0000052   0.2373514   0.9404513
43.4248127   -0.9982621  -0.0754560   0.0064656   0.0741989   0.0000010  -0.0000060   0.2547651   0.9366341
43.9586443   -0.9982094  -0.0764338   0.0065158   0.0750402   0.0000045  -0.0000092   0.2723270   0.9323410
44.4990385   -0.9981057  -0.0773584   0.0065486   0.0757735  -0.0000060   0.0000010   0.2900678   0.9276746
45.0460758   -0.9980735  -0.0782865   0.0066400   0.0766916   0.0000030   0.0000042   0.3079234   0.9226692
45.5998380   -0.9980755  -0.0792653   0.0066878   0.0774915  -0.0000014  -0.0000026   0.3258964   0.9172927
46.1604077   -0.9979048  -0.0801387   0.0067874   0.0783357  -0.0000057  -0.0000096   0.3439905   0.9114112
46.7278686   -0.9978396  -0.0810431   0.0068461   0.0791865  -0.0000078  -0.0000061   0.3622095   0.9051561
47.3023055   -0.9977833  -0.0820770   0.0067518   0.0797972  -0.0000035   0.0000063   0.3805383   0.8984954
47.8838040   -0.9976778  -0.0831451   0.0066781   0.0807287   0.0000035  -0.0000116   0.3990787   0.8913030
48.4724511   -0.9975772  -0.0841903   0.0062849   0.0815323  -0.0000043   0.0000037   0.4175483   0.8837820
49.0683345   -0.9975223  -0.0851819   0.0059849   0.0827545  -0.0000065   0.0000016   0.4362200   0.8757527
49.6715433   -0.9974020  -0.0862046   0.0059490   0.0840182  -0.0000056  -0.0000091   0.4548566   0.8672616
50.2821675   -0.9974751  -0.0872736   0.0058264   0.0849677  -0.0000049  -0.0000026   0.4737366   0.8581977
50.9002982   -0.9973334  -0.0882294   0.0056805   0.0860698  -0.0000001  -0.0000023   0.4925113   0.8486204
51.5260277   -0.9971476  -0.0892738   0.0048836   0.0873050   0.0000016  -0.0000145   0.5114078   0.8386844
52.1594495   -0.9970170  -0.0904732   0.0043672   0.0891700   0.0000007  -0.0000111   0.5302185   0.8281260
52.8006581   -0.9970249  -0.0915504   0.0044788   0.0913485   0.0000019  -0.0000070   0.5491565   0.8169084
53.4497492   -0.9968379  -0.0926612   0.0049490   0.0936424   0.0000038  -0.0000035   0.5682259   0.8053365
54.1068198   -0.9967552  -0.0938756   0.0062102   0.0952266   0.0000014  -0.0000070   0.5870810   0.7931806
54.7719678   -0.9966527  -0.0949592   0.0070294   0.0962898  -0.0000080  -0.0000108   0.6059003   0.7804755
55.4452927   -0.9965889  -0.0961660   0.0072776   0.0969710  -0.0000031   0.0000036   0.6248029   0.7668483
56.1268950   -0.9965168  -0.0971728   0.0071653   0.0982407  -0.0000012  -0.0000006   0.6436129   0.7528409
56.8168763   -0.9962655  -0.0984015   0.0074472   0.1002078  -0.0000113  -0.0000002   0.6623330   0.7382715
57.5153398   -0.9962978  -0.0996697   0.0083623   0.1016542  -0.0000006  -0.0000099   0.6809259   0.7230836
58.2223896   -0.9961500  -0.1008502   0.0092185   0.1027372   0.0000062  -0.0000063   0.6993919   0.7071741
58.9381314   -0.9960778  -0.1019755   0.0097902   0.1033412   0.0000077  -0.0000018   0.7177304   0.6906869
59.6626719   -0.9958899  -0.1033363   0.0097938   0.1041559   0.0000018  -0.0000044   0.7358872   0.6734457
60.3961194   -0.9957918  -0.1045359   0.0095568   0.1054838  -0.0000076  -0.0000076   0.7539451   0.6555725
61.1385834   -0.9957086  -0.1058139   0.0096146   0.1068526   0.0000077  -0.0000151   0.7717916   0.6369847
61.8901746   -0.9955564  -0.1071517   0.0098568   0.1086532  -0.0000007  -0.0000055   0.7892939   0.6177425
62.6510053   -0.9954208  -0.1083651   0.0102873   0.1099067  -0.0000042  -0.0000129   0.8065969   0.5978861
63.4211891   -0.9951774  -0.1096616   0.0101219   0.1112779  -0.0000005   0.0000010   0.8236544   0.5771804
64.2008409   -0.9951104  -0.1110762   0.0105069   0.1134107  -0.0000013  -0.0000071   0.8403290   0.5559154
64.9900772   -0.9949978  -0.1123022   0.0108980   0.1154531   0.0000060  -0.0000039   0.8567017   0.5338548
65.7890158   -0.9948784  -0.1137496   0.0123127   0.1170784   0.0000066  -0.0000067   0.8726612   0.5111127
66.5977759   -0.9947157  -0.1152252   0.0129836   0.1180254  -0.0000110   0.0000004   0.8881822   0.4875516
67.4164783   -0.9945330  -0.1165753   0.0134199   0.1194336   0.0000024  -0.0000098   0.9034119   0.4632958
68.2452452   -0.9944455  -0.1179314   0.0142630   0.1205736  -0.0000016  -0.0000030   0.9180764   0.4384124
69.0842003   -0.9942237  -0.1193073   0.0146312   0.1217712  -0.0000021  -0.0000152   0.9322427   0.4127304
69.9334689   -0.9940884  -0.1209178   0.0152332   0.1231357  -0.0000106  -0.0000085   0.9455765   0.3863505
70.7931778   -0.9937780  -0.1222522   0.0158267   0.1241384   0.0000082  -0.0000021   0.9591080   0.3591561
71.6634552   -0.9936115  -0.1236403   0.0156079   0.1251493  -0.0000035  -0.0000070   0.9716677   0.3310241
72.5444312   -0.9933250  -0.1252299   0.0154960   0.1265575   0.0000123   0.0000005   0.9836817   0.3023485
73.4362373   -0.9932281  -0.1267242   0.0151855   0.1284245  -0.0000012  -0.0000107   0.9948434   0.2729349
74.3390065   -0.9931707  -0.1281898   0.0155937   0.1306467   0.0000080  -0.0000129   1.0046945   0.2431284
75.2528737   -0.9929514  -0.1297536   0.0160371   0.1327477  -0.0000040  -0.0000102   1.0143737   0.2123149
76.1779753   -0.9926780  -0.1314139   0.0170375   0.1348216  -0.0000051  -0.0000124   1.0232854   0.1808396
77.1144493   -0.9925046  -0.1328460   0.0179999   0.1363793  -0.0000026  -0.0000045   1.0313023   0.1486103
78.0624357   -0.9923770  -0.1345366   0.0188162   0.1381776  -0.0000029  -0.0000080   1.0384154   0.1157628
79.0220759   -0.9921081  -0.1360995   0.0197208   0.1392818   0.0000002  -0.0000036   1.0445212   0.0821697
79.9935132   -0.9918012  -0.1378358   0.0200465   0.1404436   0.0000041  -0.0000131   1.0496229   0.0480313
80.9768926   -0.9915715  -0.1394757   0.0199946   0.1420756  -0.0000064  -0.0000116   1.0537186   0.0132410
81.9723609   -0.9913297  -0.1411225   0.0201264   0.1440300   0.0000053  -0.0000071   1.0567157  -0.0222640
82.9800667   -0.9910772  -0.1429232   0.0206246   0.1463200  -0.0000016  -0.0000180   1.0586042  -0.0582525
84.0001605   -0.9908177  -0.1445973   0.0213630   0.1487787   0.0000053  -0.0000160   1.0593000  -0.0947391
85.0327946   -0.9906225  -0.1464049   0.0226630   0.1509658   0.0000022  -0.0000081   1.0586965  -0.1319093
86.0781231   -0.9904102  -0.1481167   0.0238672   0.1528442   0.0000029  -0.0000101   1.0568105  -0.1694968
87.1363020   -0.9900731  -0.1498931   0.0251228   0.1541912   0.0000048  -0.0000041   1.0536046  -0.2074041
88.2074894   -0.9898284  -0.1516936   0.0261185   0.1556657  -0.0000051  -0.0000155   1.0489040  -0.2458368
89.2918452   -0.9894781  -0.1534993   0.0268787   0.1570763  -0.0000005  -0.0000021   1.0430306  -0.2849234
90.3895312   -0.9892989  -0.1553958   0.0275697   0.1583321  -0.0000024  -0.0000180   1.0355088  -0.3237174
91.5007114   -0.9890166  -0.1572611   0.0283314   0.1598456  -0.0000084  -0.0000163   1.0264270  -0.3630294
92.6255515   -0.9886183  -0.1590786   0.0285749   0.1610833  -0.0000034  -0.0000041   1.0155656  -0.4024850
93.7642195   -0.9883438  -0.1610156   0.0287597   0.1630205  -0.0000052  -0.0000188   1.0031624  -0.4420937
94.9168855   -0.9879235  -0.1630280   0.0292205   0.1649913  -0.0000125  -0.0000104   0.9892346  -0.4818269
96.0837215   -0.9877028  -0.1648687   0.0303186   0.1670988  -0.0000039  -0.0000178   0.9734644  -0.5215695
97.2649017   -0.9873313  -0.1669696   0.0309225   0.1686910  -0.0000004  -0.0000104   0.9559370  -0.5609835
98.4606024   -0.9868484  -0.1689585   0.0313047   0.1703038  -0.0000038  -0.0000064   0.9365502  -0.6005025
99.6710021   -0.9865755  -0.1708936   0.0312756   0.1720736  -0.0000145  -0.0000062   0.9153443  -0.6396754
100.8962816  -0.9863015  -0.1729577   0.0311605   0.1742930  -0.0000102  -0.0000124   0.8922365  -0.6784421
102.1366237  -0.9857945  -0.1750296   0.0310357   0.1773691   0.0000052  -0.0000179   0.8671283  -0.7166929
103.3922136  -0.9852385  -0.1771440   0.0321308   0.1813151  -0.0000096  -0.0000112   0.8401955  -0.7544722
104.6632389  -0.9848849  -0.1792551   0.0341499   0.1839813  -0.0000105  -0.0000055   0.8113415  -0.7912682
105.9498891  -0.9841930  -0.1813410   0.0366641   0.1852136  -0.0000069  -0.0000089   0.7803574  -0.8250929
107.2523564  -0.9844190  -0.1837185   0.0384557   0.1879312  -0.0000016  -0.0000085   0.7458400  -0.8653272
108.5708353  -0.9840007  -0.1858629   0.0397037   0.1895784  -0.0000106  -0.0000041   0.7121824  -0.8993932
109.9055225  -0.9827833  -0.1878169   0.0405273   0.1892506   0.0000076  -0.0000064   0.6774515  -0.9319120
111.2566174  -0.9827808  -0.1901118   0.0408699   0.1919588  -0.0000017  -0.0000120   0.6366632  -0.9623526
112.6243216  -0.9823618  -0.1924802   0.0416973   0.1936334   0.0000017  -0.0000150   0.5956314  -0.9930429
114.0088393  -0.9819577  -0.1947272   0.0423622   0.1957894  -0.0000127  -0.0000032   0.5528684  -1.0220177
115.4103773  -0.9815358  -0.1971301   0.0427359   0.1975419  -0.0000076  -0.0000214   0.5080600  -1.0493846
116.8291446  -0.9809584  -0.1993450   0.0429583   0.1995981   0.0000125  -0.0000049   0.4616156  -1.0748125
118.2653533  -0.9804386  -0.2017359   0.0429283   0.2014882  -0.0000004  -0.0000118   0.4131618  -1.0983546
119.7192175  -0.9799234  -0.2041186   0.0428254   0.2038546  -0.0000147  -0.0000006   0.3630310  -1.1198741
121.1909545  -0.9792076  -0.2065761   0.0425598   0.2067652  -0.0000096  -0.0000137   0.3112472  -1.1389094
122.6807839  -0.9786975  -0.2090248   0.0420820   0.2097440  -0.0000186  -0.0000183   0.2578829  -1.1556283
124.1889281  -0.9779096  -0.2114622   0.0416133   0.2132287   0.0000025  -0.0000021   0.2030196  -1.1697805
125.7156123  -0.9774442  -0.2142045   0.0416421   0.2186934  -0.0000108  -0.0000053   0.1468018  -1.1813263
127.2610644  -0.9768376  -0.2167018   0.0426128   0.2231009  -0.0000061  -0.0000096   0.0899457  -1.1898236
128.8255151  -0.9760515  -0.2192357   0.0435910   0.2287408  -0.0000125  -0.0000101   0.0310541  -1.1954536
130.4091980  -0.9755815  -0.2220609   0.0465203   0.2341191  -0.0000132  -0.0000125  -0.0282397  -1.1979713
132.0123495  -0.9747937  -0.2245243   0.0490766   0.2389409  -0.0000062  -0.0000027  -0.0885005  -1.1971293
133.6352088  -0.9742332  -0.2275385   0.0531702   0.2429412  -0.0000239  -0.0000059  -0.1491135  -1.1931309
135.2780184  -0.9735275  -0.2302529   0.0566860   0.2473980  -0.0000031  -0.0000057  -0.2103454  -1.1854267
136.9410235  -0.9729791  -0.2329282   0.0611981   0.2502030  -0.0000093  -0.0000137  -0.2717939  -1.1740384
138.6244722  -0.9722768  -0.2357170   0.0650007   0.2523436  -0.0000096  -0.0000023  -0.3330388  -1.1591738
140.3286160  -0.9716320  -0.2384427   0.0685408   0.2543978  -0.0000127  -0.0000127  -0.3943408  -1.1406394
142.0537093  -0.9710013  -0.2412489   0.0711450   0.2558709  -0.0000183  -0.0000196  -0.4577303  -1.1193078
143.8000095  -0.9698411  -0.2442059   0.0741980   0.2581706  -0.0000058   0.0000000  -0.5114804  -1.0920313
145.5677774  -0.9695149  -0.2468983   0.0772537   0.2605635   0.0000058  -0.0000122  -0.5686752  -1.0596310
147.3572769  -0.9687892  -0.2500972   0.0794904   0.2623225  -0.0000021  -0.0000169  -0.6296031  -1.0274029
149.1687752  -0.9677783  -0.2528616   0.0822550   0.2641656   0.0000015  -0.0000091  -0.6842854  -0.9897038
151.0025426  -0.9671819  -0.2559437   0.0841616   0.2659564  -0.0000053  -0.0000193  -0.7376444  -0.9478988
152.8588530  -0.9662021  -0.2590571   0.0865468   0.2683136  -0.0000013  -0.0000092  -0.7884430  -0.9023780
154.7379834  -0.9654023  -0.2619540   0.0888040   0.2706221  -0.0000086  -0.0000110  -0.8368112  -0.8532143
156.6402144  -0.9645659  -0.2650704   0.0908934   0.2726532  -0.0000084  -0.0000061  -0.8822036  -0.8005717
158.5658301  -0.9636137  -0.2681044   0.0932274   0.2742761  -0.0000037   0.0000147  -0.9241073  -0.7445390
160.5151177  -0.9626089  -0.2711109   0.0956053   0.2775375   0.0000014  -0.0000065  -0.9630209  -0.6849737
162.4883685  -0.9613936  -0.2753034   0.0978123   0.2806885   0.0000013  -0.0000028  -0.9967976  -0.6237559
164.4858769  -0.9606620  -0.2774811   0.1000078   0.2818712   0.0000046  -0.0000033  -1.0278789  -0.5582318
166.5079411  -0.9597014  -0.2809824   0.1022571   0.2845221  -0.0000070  -0.0000102  -1.0539276  -0.4910024
168.5548630  -0.9584943  -0.2842590   0.1040666   0.2867836  -0.0000107   0.0000016  -1.0755896  -0.4214285
170.6269483  -0.9574841  -0.2873831   0.1058217   0.2893333  -0.0000006  -0.0000172  -1.0920161  -0.3500769
172.7245062  -0.9562773  -0.2908530   0.1079634   0.2927472   0.0000046  -0.0000030  -1.1035268  -0.2774294
174.8478498  -0.9551238  -0.2943997   0.1097749   0.2958620   0.0000061  -0.0000036  -1.1094082  -0.2032648
176.9972963  -0.9541097  -0.2976723   0.1118343   0.2992428   0.0000235  -0.0000062  -1.1102204  -0.1277967
179.1731664  -0.9522045  -0.3033026   0.1138604   0.3050753  -0.0000187  -0.0000088  -1.1019377  -0.0580540
181.3757850  -0.9523437  -0.3051349   0.1168424   0.3068228  -0.0000020  -0.0000058  -1.0923748   0.0172629
183.6054809  -0.9504055  -0.3084907   0.1189518   0.3112399  -0.0000115  -0.0000014  -1.0773858   0.0954521
185.8625870  -0.9492264  -0.3119418   0.1219465   0.3157728  -0.0000271  -0.0000083  -1.0548059   0.1676861
188.1474402  -0.9479247  -0.3157197   0.1257737   0.3203040  -0.0000045  -0.0000041  -1.0266452   0.2388777
190.4603817  -0.9465093  -0.3195420   0.1304018   0.3249021  -0.0000241  -0.0000166  -0.9928692   0.3077410
192.8017567  -0.9455330  -0.3236256   0.1354498   0.3284145   0.0000113  -0.0000080  -0.9528826   0.3737659
195.1719148  -0.9440514  -0.3273363   0.1403152   0.3318363  -0.0000411   0.0000164  -0.9079903   0.4365081
197.5712099  -0.9432202  -0.3310150   0.1450556   0.3341267   0.0000064  -0.0000064  -0.8584258   0.4960860
200.0000000  -0.9414030  -0.3352723   0.1496434   0.3371343  -0.0000129  -0.0000066  -0.8026131   0.5505821
