! ListType=Log
# MHZ S RI R 50
0.0010000    -0.9998514   0.0003753  -0.0005620   0.0000243  -0.0000115  -0.0000299  -0.9088780   0.2599563
0.0010123    -1.0001726  -0.0013604  -0.0004868   0.0011035   0.0000121  -0.0000287  -0.9094622   0.2603417
0.0010247    -0.9984495   0.0007840  -0.0000602   0.0002015  -0.0000157   0.0000266  -0.9095897   0.2591301
0.0010373    -0.9997328  -0.0000895  -0.0002295   0.0001301  -0.0000085  -0.0000056  -0.9097936   0.2598523
0.0010501    -1.0004264   0.0011313  -0.0009261   0.0002258  -0.0000136  -0.0000118  -0.9091506   0.2596915
0.0010630    -1.0001702  -0.0005994  -0.0010483   0.0004405   0.0000229   0.0000125  -0.9105505   0.2595735
0.0010761    -0.9987275   0.0005052   0.0048970   0.0102788  -0.0000149   0.0000095  -0.9107037   0.2587981
0.0010893    -1.0005814  -0.0009911  -0.0002519   0.0000050   0.0000198  -0.0000037  -0.9110865   0.2599258
0.0011027    -0.9996030  -0.0002823  -0.0004559   0.0005754   0.0000030  -0.0000187  -0.9110775   0.2587990
0.0011162    -0.9983207  -0.0004018  -0.0005022   0.0003808  -0.0000056   0.0000030  -0.9120701   0.2584382
0.0011300    -0.9993258   0.0008465  -0.0001748   0.0003384  -0.0000259  -0.0000173  -0.9112969   0.2587179
0.0011439    -0.9997679  -0.0006223  -0.0001021   0.0004702   0.0000190  -0.0000020  -0.9120502   0.2590832
0.0011579    -0.9988864   0.0009220  -0.0000942   0.0005633  -0.0000080   0.0000011  -0.9120575   0.2578675
0.0011721    -0.9999826  -0.0002364  -0.0001566   0.0003591   0.0000114  -0.0000118  -0.9124015   0.2585311
0.0011866    -0.9998933   0.0014503  -0.0001402   0.0000901  -0.0000454  -0.0000152  -0.9122040   0.2582435
0.0012011    -0.9997044  -0.0002448  -0.0001612   0.0005800  -0.0000151   0.0000003  -0.9128818   0.2582597
0.0012159    -0.9996707  -0.0015760  -0.0017810  -0.0000951   0.0000208   0.0000031  -0.9136437   0.2584854
0.0012309    -0.9991199   0.0002187   0.0001046   0.0013366   0.0000094   0.0000109  -0.9137401   0.2577885
0.0012460    -1.0002789   0.0007043  -0.0002329   0.0002525  -0.0000062  -0.0000060  -0.9134154   0.2581256
0.0012613    -0.9998196  -0.0008157  -0.0003764   0.0004577   0.0000269  -0.0000021  -0.9147353   0.2579363
0.0012768    -0.9992544   0.0004532   0.0004278   0.0002943  -0.0000207   0.0000053  -0.9141770   0.2576231
0.0012925    -1.0000929  -0.0007465  -0.0002384   0.0008180   0.0000140   0.0000076  -0.9151106   0.2580592
0.0013084    -0.9994703   0.0003321  -0.0000481   0.0006282  -0.0000049   0.0000097  -0.9149123   0.2575421
0.0013245    -1.0000609  -0.0008674   0.0002172   0.0002249   0.0000181  -0.0000016  -0.9155488   0.2580240
0.0013408    -0.9995501   0.0003571  -0.0001068  -0.0002824   0.0000024  -0.0000096  -0.9153819   0.2572752
0.0013572    -0.9994560  -0.0009081   0.0000470   0.0002899   0.0000187   0.0000077  -0.9163567   0.2576933
0.0013739    -0.9996887   0.0005471   0.0001995   0.0002803   0.0000133   0.0000164  -0.9162218   0.2575399
0.0013908    -0.9992268  -0.0008359  -0.0001739   0.0002547   0.0000136   0.0000045  -0.9169530   0.2576089
0.0014079    -0.9995433   0.0005639  -0.0004174   0.0007660  -0.0000214  -0.0000005  -0.9167295   0.2573538
0.0014252    -0.9995280  -0.0007310  -0.0052686  -0.0007625   0.0000186   0.0000247  -0.9176592   0.2572531
0.0014427    -0.9996390   0.0005864  -0.0079603  -0.0046155  -0.0000097  -0.0000156  -0.9173659   0.2571991
0.0014605    -0.9995196  -0.0005582  -0.0002183   0.0001924   0.0000009  -0.0000180  -0.9180822   0.2573986
0.0014784    -0.9995464   0.0007734   0.0002000   0.0003109  -0.0000049   0.0000082  -0.9178605   0.2569127
0.0014966    -0.9999414  -0.0000984  -0.0004387   0.0004940   0.0000002  -0.0000287  -0.9186111   0.2574162
0.0015150    -0.9991915  -0.0007052   0.0003126   0.0007314   0.0000270   0.0000241  -0.9189818   0.2573396
0.0015336    -0.9992876   0.0002186   0.0000310   0.0002542  -0.0000074  -0.0000028  -0.9190102   0.2570696
0.0015525    -1.0003122   0.0006866   0.0002250   0.0003502  -0.0000076  -0.0000167  -0.9190290   0.2573496
0.0015716    -0.9995875   0.0001570   0.0000305   0.0003047   0.0000126  -0.0000211  -0.9196280   0.2571869
0.0015909    -1.0000893  -0.0001409  -0.0022861  -0.0039301   0.0000100  -0.0000345  -0.9199847   0.2575694
0.0016104    -0.9991374   0.0000676  -0.0003619   0.0002968  -0.0000243   0.0000094  -0.9203199   0.2569523
0.0016302    -1.0001737   0.0004865  -0.0007255   0.0005737   0.0000135  -0.0000063  -0.9203642   0.2573044
0.0016503    -0.9996049  -0.0005980   0.0001729   0.0002115   0.0000088  -0.0000100  -0.9213751   0.2574882
0.0016706    -0.9995576  -0.0001670  -0.0001877   0.0001108   0.0000033  -0.0000045  -0.9211996   0.2574022
0.0016911    -0.9987152   0.0001228   0.0001672   0.0003652  -0.0000210  -0.0000159  -0.9218180   0.2570958
0.0017119    -0.9998831   0.0002147  -0.0002873   0.0000394  -0.0000161  -0.0000298  -0.9218589   0.2574357
0.0017329    -0.9994682  -0.0002430  -0.0005345   0.0003640  -0.0000031   0.0000134  -0.9220861   0.2573962
0.0017542    -0.9989243  -0.0001578   0.0001316   0.0003303   0.0000071   0.0000175  -0.9225671   0.2571541
0.0017758    -0.9997879  -0.0001281  -0.0001521   0.0004180  -0.0000018  -0.0000029  -0.9227763   0.2574617
0.0017976    -0.9990568  -0.0002072  -0.0000968  -0.0004399   0.0000059  -0.0000063  -0.9233452   0.2574793
0.0018197    -0.9995736   0.0005782   0.0002356  -0.0002500  -0.0000150  -0.0000040  -0.9231438   0.2573279
0.0018421    -0.9996316  -0.0002447  -0.0003261  -0.0000261   0.0000151  -0.0000070  -0.9238326   0.2577191
0.0018648    -0.9991515   0.0002512  -0.0001185   0.0000472  -0.0000028   0.0000040  -0.9239003   0.2574820
0.0018877    -1.0000484   0.0003561  -0.0000167   0.0003009  -0.0000105  -0.0000158  -0.9239804   0.2577066
0.0019109    -0.9992102  -0.0001525   0.0001009   0.0002587  -0.0000036   0.0000066  -0.9248491   0.2579357
0.0019344    -0.9996239   0.0000333  -0.0002284   0.0008939  -0.0000050  -0.0000064  -0.9247153   0.2577397
0.0019582    -0.9999338   0.0002697  -0.0003938   0.0003068   0.0000018  -0.0000051  -0.9248236   0.2579512
0.0019822    -0.9996573  -0.0002833  -0.0012008   0.0004520   0.0000061   0.0000007  -0.9256894   0.2580907
0.0020066    -0.9997102  -0.0001115  -0.0008589  -0.0004860   0.0000030   0.0000010  -0.9257598   0.2582423
0.0020313    -0.9995728  -0.0003594   0.0005517   0.0001796   0.0000072   0.0000076  -0.9261621   0.2581689
0.0020562    -0.9990027   0.0001187  -0.0000584   0.0001031  -0.0000161  -0.0000018  -0.9265384   0.2580705
0.0020815    -1.0000393  -0.0000364  -0.0018757   0.0017393   0.0000003  -0.0000015  -0.9265952   0.2584793
0.0021071    -0.9995714   0.0000398  -0.0071302   0.0022401  -0.0000104  -0.0000033  -0.9270215   0.2585237
0.0021330    -0.9997705  -0.0000274   0.0023954  -0.0009073  -0.0000010  -0.0000229  -0.9272019   0.2587586
0.0021592    -0.9997589  -0.0002688  -0.0005070  -0.0000977  -0.0000025  -0.0000190  -0.9277383   0.2588852
0.0021858    -0.9990971  -0.0001933  -0.0015128  -0.0014816  -0.0000026  -0.0000044  -0.9279115   0.2586740
0.0022126    -0.9998835  -0.0000814   0.0020352   0.0159133  -0.0000054  -0.0000144  -0.9280733   0.2590422
0.0022398    -0.9995266   0.0000636   0.0000009   0.0005223  -0.0000122   0.0000062  -0.9283379   0.2590142
0.0022674    -0.9997933  -0.0001437  -0.0000551   0.0002848   0.0000047  -0.0000181  -0.9287816   0.2593020
0.0022953    -0.9997351  -0.0004085   0.0002167   0.0003687   0.0000060  -0.0000025  -0.9290308   0.2594769
0.0023235    -0.9991616  -0.0003927   0.0000212  -0.0000084  -0.0000061  -0.0000002  -0.9294341   0.2594680
0.0023520    -1.0000532   0.0003495  -0.0001940  -0.0000044  -0.0000078  -0.0000054  -0.9292532   0.2594361
0.0023809    -0.9994988  -0.0002805  -0.0000310   0.0000371  -0.0000079   0.0000077  -0.9299422   0.2596373
0.0024102    -0.9997496   0.0001058   0.0005368   0.0003043   0.0000131   0.0000064  -0.9298942   0.2598229
0.0024398    -0.9995315  -0.0000352  -0.0002032   0.0000923   0.0000033   0.0000032  -0.9303333   0.2599209
0.0024698    -0.9995600  -0.0000512   0.0000163   0.0004580   0.0000079  -0.0000170  -0.9305707   0.2602177
0.0025002    -0.9998527  -0.0002284  -0.0000107  -0.0002161  -0.0000013  -0.0000042  -0.9307198   0.2603729
0.0025309    -0.9998659  -0.0001546  -0.0002150   0.0002029  -0.0000087  -0.0000112  -0.9309336   0.2606611
0.0025621    -0.9999333  -0.0002967  -0.0000321   0.0002317   0.0000070  -0.0000087  -0.9313972   0.2606534
0.0025935    -0.9994066  -0.0002610  -0.0001130  -0.0000228  -0.0000057  -0.0000035  -0.9316742   0.2605261
0.0026254    -0.9991042   0.0000462  -0.0001669   0.0001138  -0.0000042  -0.0000026  -0.9317934   0.2605545
0.0026577    -0.9995021   0.0004290   0.0000043   0.0001904  -0.0000107  -0.0000105  -0.9319015   0.2609742
0.0026904    -0.9999537  -0.0002572   0.0004400   0.0001230  -0.0000128  -0.0000062  -0.9320964   0.2613407
0.0027235    -0.9994005  -0.0003601   0.0001251  -0.0001580  -0.0000013  -0.0000137  -0.9327563   0.2611832
0.0027569    -0.9993857   0.0002449  -0.0004738  -0.0000557  -0.0000088  -0.0000033  -0.9327095   0.2612955
0.0027908    -0.9999173   0.0001382  -0.0001490   0.0001265   0.0000059  -0.0000083  -0.9327881   0.2617246
0.0028251    -0.9997182  -0.0004009  -0.0000441  -0.0000792   0.0000069   0.0000018  -0.9332618   0.2618815
0.0028599    -0.9993049  -0.0001532   0.0000645  -0.0000176  -0.0000022   0.0000010  -0.9334185   0.2618729
0.0028950    -0.9995233   0.0001399  -0.0000261  -0.0000023   0.0000031   0.0000025  -0.9336124   0.2618484
0.0029306    -0.9995847   0.0004401   0.0002287  -0.0000197  -0.0000042  -0.0000190  -0.9337557   0.2620064
0.0029666    -0.9995534   0.0004248   0.0004693  -0.0006200   0.0000131  -0.0000065  -0.9339990   0.2622600
0.0030031    -0.9997337   0.0002739  -0.0006267   0.0012035  -0.0000049   0.0000133  -0.9341076   0.2625548
0.0030400    -0.9995380  -0.0000235  -0.0001129   0.0002157  -0.0000027  -0.0000165  -0.9343379   0.2628196
0.0030774    -0.9998072   0.0000177  -0.0000329   0.0000088  -0.0000097  -0.0000045  -0.9345217   0.2629743
0.0031152    -0.9995996  -0.0002269  -0.0003150  -0.0002276   0.0000102   0.0000018  -0.9348862   0.2629809
0.0031535    -0.9998859  -0.0000582  -0.0000380   0.0001081  -0.0000035  -0.0000120  -0.9349260   0.2633534
0.0031923    -0.9996085  -0.0003569   0.0000437  -0.0000623   0.0000126  -0.0000124  -0.9353236   0.2634966
0.0032315    -0.9994704  -0.0002214  -0.0003045  -0.0000147  -0.0000004  -0.0000064  -0.9355121   0.2636469
0.0032713    -0.9994923  -0.0001586  -0.0001455   0.0001517   0.0000023  -0.0000089  -0.9356770   0.2636865
0.0033115    -0.9994974   0.0000042  -0.0003002   0.0000314   0.0000084  -0.0000006  -0.9357024   0.2639999
0.0033522    -0.9995719  -0.0001588  -0.0000217   0.0001757  -0.0000109  -0.0000057  -0.9360229   0.2644064
0.0033934    -0.9994627  -0.0000781  -0.0000757   0.0000468   0.0000014   0.0000021  -0.9362628   0.2642656
0.0034351    -0.9996218  -0.0002474  -0.0000944   0.0000407  -0.0000013   0.0000084  -0.9364516   0.2645556
0.0034773    -0.9996602   0.0000601  -0.0001577  -0.0000605   0.0000084  -0.0000086  -0.9364323   0.2647053
0.0035201    -0.9995215  -0.0002287  -0.0002502   0.0001907   0.0000056  -0.0000029  -0.9367876   0.2648143
0.0035634    -0.9994572  -0.0001479   0.0000262   0.0000090   0.0000070  -0.0000048  -0.9368663   0.2649771
0.0036072    -0.9995684  -0.0001292  -0.0001076   0.0002515  -0.0000008  -0.0000046  -0.9369396   0.2652301
0.0036515    -0.9993210  -0.0000074  -0.0003547   0.0000935  -0.0000051   0.0000044  -0.9372120   0.2655556
0.0036964    -0.9996124  -0.0000777  -0.0002151  -0.0000237  -0.0000114   0.0000007  -0.9371598   0.2658447
0.0037418    -0.9996485   0.0001120   0.0000126   0.0000225   0.0000014  -0.0000077  -0.9373776   0.2659021
0.0037878    -0.9998320   0.0001291  -0.0002777  -0.0000294   0.0000009  -0.0000191  -0.9374859   0.2660117
0.0038344    -0.9997873  -0.0001970  -0.0000416   0.0000300   0.0000059  -0.0000063  -0.9376847   0.2663411
0.0038815    -0.9995397  -0.0001700  -0.0001209   0.0001917  -0.0000009   0.0000041  -0.9378065   0.2664228
0.0039293    -0.9996251   0.0002335  -0.0002286  -0.0000061   0.0000049  -0.0000071  -0.9379777   0.2663981
0.0039776    -0.9995326  -0.0001031  -0.0010831   0.0011231  -0.0000018  -0.0000120  -0.9381920   0.2668196
0.0040265    -0.9994967   0.0001187  -0.0004408   0.0009036   0.0000000   0.0000014  -0.9383100   0.2667670
0.0040759    -0.9996045  -0.0001311  -0.0001674  -0.0001357  -0.0000007   0.0000008  -0.9384242   0.2671272
0.0041261    -0.9994439   0.0000275  -0.0001492  -0.0000521   0.0000015  -0.0000048  -0.9385339   0.2672093
0.0041768    -0.9995682  -0.0001243  -0.0000893  -0.0002000  -0.0000009   0.0000009  -0.9387328   0.2675105
0.0042281    -0.9994515  -0.0000863  -0.0002171   0.0000117   0.0000064  -0.0000054  -0.9388509   0.2677209
0.0042801    -0.9996409   0.0001457  -0.0001223  -0.0001145   0.0000041  -0.0000002  -0.9389324   0.2679158
0.0043327    -0.9997189  -0.0001352  -0.0001559   0.0000358  -0.0000035  -0.0000042  -0.9390299   0.2683019
0.0043860    -0.9994112  -0.0001732  -0.0002480   0.0001610  -0.0000025   0.0000091  -0.9392749   0.2683077
0.0044399    -0.9994226  -0.0000795  -0.0004198   0.0000460   0.0000007  -0.0000043  -0.9393379   0.2684832
0.0044945    -0.9992184  -0.0001484   0.0000224  -0.0002396  -0.0000065  -0.0000034  -0.9394909   0.2686169
0.0045497    -0.9997714   0.0001824   0.0000898  -0.0002154  -0.0000109  -0.0000034  -0.9394766   0.2688047
0.0046057    -0.9998476   0.0001875  -0.0000230  -0.0000151  -0.0000053   0.0000049  -0.9395575   0.2689400
0.0046623    -0.9995513   0.0000118  -0.0003075   0.0000348   0.0000035  -0.0000071  -0.9395089   0.2692334
0.0047196    -0.9995929  -0.0001742  -0.0001114  -0.0000072  -0.0000083  -0.0000009  -0.9398293   0.2694102
0.0047776    -0.9995775  -0.0001881  -0.0001698   0.0001416   0.0000065  -0.0000104  -0.9398891   0.2695281
0.0048363    -0.9997001  -0.0000519  -0.0000731  -0.0000557   0.0000003  -0.0000094  -0.9399332   0.2697804
0.0048958    -0.9998409  -0.0000730  -0.0001295   0.0000138  -0.0000047  -0.0000137  -0.9400721   0.2700554
0.0049560    -0.9995123   0.0000205  -0.0002529  -0.0000538  -0.0000099  -0.0000067  -0.9402632   0.2701632
0.0050169    -0.9997559  -0.0000164   0.0003584  -0.0001722  -0.0000178   0.0000051  -0.9403351   0.2701639
0.0050786    -0.9995167  -0.0000226  -0.0000978  -0.0001014   0.0000062   0.0000011  -0.9403187   0.2703988
0.0051410    -0.9995400   0.0001997  -0.0002336   0.0002624  -0.0000039  -0.0000105  -0.9404152   0.2706001
0.0052042    -0.9995606  -0.0001948  -0.0002644   0.0001241   0.0000035  -0.0000032  -0.9405021   0.2708001
0.0052682    -0.9996197  -0.0002964  -0.0002454   0.0002197   0.0000060  -0.0000054  -0.9406327   0.2710467
0.0053330    -0.9997060  -0.0001633  -0.0000736  -0.0000277  -0.0000089  -0.0000088  -0.9406896   0.2711812
0.0053985    -0.9995256  -0.0000935  -0.0001376  -0.0000522  -0.0000131  -0.0000073  -0.9407775   0.2713440
0.0054649    -0.9996347  -0.0001046  -0.0001861   0.0000943   0.0000164  -0.0000018  -0.9409076   0.2714998
0.0055321    -0.9996114  -0.0001233  -0.0002908   0.0001124  -0.0000015  -0.0000112  -0.9409565   0.2716945
0.0056001    -0.9995713  -0.0002435  -0.0001832   0.0001136   0.0000146   0.0000031  -0.9411138   0.2719386
0.0056689    -0.9994213  -0.0003447  -0.0002998   0.0000433  -0.0000082  -0.0000200  -0.9411273   0.2720064
0.0057386    -0.9996966  -0.0000697  -0.0000946  -0.0002864   0.0000036  -0.0000155  -0.9411893   0.2721200
0.0058091    -0.9998523  -0.0000068  -0.0000875   0.0001370   0.0000022   0.0000047  -0.9411386   0.2723728
0.0058806    -0.9995699   0.0000215  -0.0001547  -0.0001126  -0.0000013  -0.0000061  -0.9411190   0.2724188
0.0059529    -0.9995790  -0.0000277  -0.0003551  -0.0000744  -0.0000054  -0.0000104  -0.9412062   0.2727041
0.0060260    -0.9995922  -0.0000414   0.0000510  -0.0000926  -0.0000053  -0.0000183  -0.9412507   0.2727098
0.0061001    -0.9997132  -0.0001744  -0.0001144   0.0001064  -0.0000142  -0.0000055  -0.9413455   0.2729546
0.0061751    -0.9997724  -0.0000364  -0.0002595   0.0000534   0.0000003   0.0000049  -0.9413314   0.2731470
0.0062510    -0.9995775  -0.0000707  -0.0000933   0.0000190  -0.0000030  -0.0000002  -0.9415101   0.2732916
0.0063279    -0.9996408  -0.0001134  -0.0001346   0.0000280  -0.0000043  -0.0000012  -0.9416430   0.2734560
0.0064056    -0.9995659  -0.0003546  -0.0002033  -0.0000304   0.0000044  -0.0000061  -0.9416371   0.2736081
0.0064844    -0.9995081   0.0000178  -0.0002030  -0.0000200   0.0000000  -0.0000076  -0.9416977   0.2736701
0.0065641    -0.9994708   0.0001195  -0.0001936   0.0001038  -0.0000063  -0.0000193  -0.9415242   0.2737903
0.0066448    -0.9996308   0.0000670  -0.0002040   0.0000704   0.0000005  -0.0000093  -0.9416728   0.2739591
0.0067265    -0.9994906  -0.0000628  -0.0001794   0.0001436  -0.0000082   0.0000041  -0.9417777   0.2741424
0.0068092    -0.9995909  -0.0000448  -0.0000976   0.0000464   0.0000036   0.0000010  -0.9418365   0.2743665
0.0068929    -0.9994783   0.0000255  -0.0003844   0.0000748   0.0000128  -0.0000086  -0.9418909   0.2744498
0.0069776    -0.9995945   0.0000076   0.0000101  -0.0000851   0.0000024  -0.0000116  -0.9420478   0.2746782
0.0070634    -0.9994741  -0.0001172  -0.0002052   0.0000007   0.0000023  -0.0000052  -0.9419420   0.2748400
0.0071502    -0.9998152   0.0000524  -0.0002441   0.0001438   0.0000031  -0.0000154  -0.9419125   0.2748555
0.0072381    -0.9994741   0.0000557  -0.0002221  -0.0001020  -0.0000033  -0.0000122  -0.9418756   0.2750367
0.0073271    -0.9996266   0.0001155  -0.0002334   0.0000150  -0.0000089  -0.0000030  -0.9420109   0.2752536
0.0074172    -0.9994548   0.0000104  -0.0002776   0.0000509   0.0000121  -0.0000083  -0.9421284   0.2753567
0.0075084    -0.9994850  -0.0001393  -0.0002034  -0.0000024   0.0000064  -0.0000108  -0.9421577   0.2755385
0.0076007    -0.9996160  -0.0000454  -0.0001612   0.0000330   0.0000004  -0.0000116  -0.9421461   0.2756577
0.0076941    -0.9995703   0.0000351  -0.0001297   0.0002140  -0.0000021   0.0000084  -0.9421786   0.2759126
0.0077887    -0.9996534  -0.0000115  -0.0002233   0.0000112   0.0000107  -0.0000020  -0.9421820   0.2759312
0.0078844    -0.9996330  -0.0001041  -0.0001222   0.0001467  -0.0000035  -0.0000018  -0.9422685   0.2760016
0.0079814    -0.9995699  -0.0002530  -0.0000854  -0.0001418   0.0000006  -0.0000059  -0.9422404   0.2762762
0.0080795    -0.9995684  -0.0000108  -0.0002079   0.0000524   0.0000058  -0.0000034  -0.9423989   0.2763341
0.0081788    -0.9995518  -0.0001305  -0.0002988  -0.0000395  -0.0000045   0.0000043  -0.9422137   0.2765218
0.0082793    -0.9995232   0.0001109  -0.0003238   0.0000616  -0.0000005  -0.0000093  -0.9423942   0.2765888
0.0083811    -0.9994851  -0.0002063  -0.0002501   0.0000225  -0.0000037   0.0000070  -0.9423573   0.2767983
0.0084842    -0.9995747   0.0000297  -0.0002707  -0.0001010  -0.0000016   0.0000005  -0.9423313   0.2768930
0.0085885    -0.9995388   0.0000276  -0.0003376  -0.0000392   0.0000015  -0.0000070  -0.9424398   0.2769427
0.0086940    -0.9996957  -0.0000513  -0.0002595   0.0000602   0.0000127  -0.0000141  -0.9423699   0.2771411
0.0088009    -0.9997481  -0.0001833  -0.0002093  -0.0000311   0.0000002   0.0000062  -0.9423860   0.2772914
0.0089091    -0.9997549  -0.0002229  -0.0002645  -0.0000116   0.0000024  -0.0000112  -0.9423989   0.2774866
0.0090186    -0.9995167   0.0000719  -0.0003771  -0.0002289  -0.0000090  -0.0000046  -0.9424998   0.2774735
0.0091295    -0.9995774  -0.0001529  -0.0001701   0.0000944   0.0000055  -0.0000005  -0.9425199   0.2777457
0.0092417    -0.9994826  -0.0001190  -0.0002618   0.0001140   0.0000093  -0.0000054  -0.9424069   0.2777833
0.0093553    -0.9995485   0.0001690  -0.0002699   0.0000537   0.0000041  -0.0000095  -0.9424297   0.2779104
0.0094703    -0.9996159  -0.0000132  -0.0002640   0.0000264   0.0000006   0.0000108  -0.9425230   0.2779699
0.0095868    -0.9996325   0.0000487  -0.0003019   0.0000278  -0.0000033  -0.0000074  -0.9424579   0.2781670
0.0097046    -0.9996038   0.0001423  -0.0002502   0.0000536  -0.0000017   0.0000127  -0.9425030   0.2781965
0.0098239    -0.9996554  -0.0000876  -0.0003907  -0.0000121  -0.0000008   0.0000001  -0.9425577   0.2783250
0.0099447    -0.9995712   0.0001640  -0.0001664  -0.0000118  -0.0000004  -0.0000051  -0.9425478   0.2783615
0.0100669    -0.9995298  -0.0000863  -0.0003394   0.0000097  -0.0000093  -0.0000186  -0.9425242   0.2785836
0.0101907    -0.9996400   0.0001392  -0.0003145   0.0000393  -0.0000033  -0.0000092  -0.9425358   0.2786114
0.0103160    -0.9994699   0.0000120  -0.0002055   0.0000279   0.0000116  -0.0000083  -0.9425019   0.2787091
0.0104428    -0.9996275  -0.0000340  -0.0003402   0.0001378  -0.0000035   0.0000003  -0.9425838   0.2789201
0.0105712    -0.9996667   0.0000455  -0.0002339   0.0000399   0.0000088   0.0000015  -0.9425830   0.2789347
0.0107011    -0.9995450  -0.0000237  -0.0003430   0.0000239   0.0000044  -0.0000051  -0.9426090   0.2791118
0.0108327    -0.9996757   0.0000000  -0.0002704   0.0001140   0.0000012  -0.0000062  -0.9425325   0.2791449
0.0109658    -0.9995854  -0.0000036  -0.0002875   0.0000295  -0.0000070  -0.0000045  -0.9426464   0.2792784
0.0111006    -0.9996346   0.0000548  -0.0004082   0.0000971  -0.0000041  -0.0000068  -0.9426136   0.2795289
0.0112371    -0.9995939  -0.0000476  -0.0002507   0.0001515  -0.0000054   0.0000003  -0.9426557   0.2794251
0.0113752    -0.9995866  -0.0000683  -0.0003756   0.0000663  -0.0000107   0.0000007  -0.9425597   0.2795968
0.0115151    -0.9997893  -0.0002551  -0.0003166   0.0000346   0.0000003  -0.0000004  -0.9427017   0.2798539
0.0116566    -0.9995408   0.0001305  -0.0002833   0.0000571  -0.0000025  -0.0000093  -0.9425976   0.2797545
0.0117999    -0.9995902  -0.0001162  -0.0003052   0.0000646  -0.0000078  -0.0000039  -0.9426702   0.2800117
0.0119450    -0.9962855   0.0003525  -0.0001838   0.0000475  -0.0000012   0.0000006  -0.9434624   0.2782170
0.0120918    -0.9996093  -0.0000038  -0.0003037   0.0000749   0.0000006  -0.0000104  -0.9426943   0.2801527
0.0122405    -0.9994624  -0.0001174  -0.0002231   0.0000628  -0.0000107   0.0000039  -0.9427471   0.2801706
0.0123910    -0.9998023   0.0000111  -0.0003151   0.0000118  -0.0000042  -0.0000100  -0.9426088   0.2804391
0.0125433    -0.9995531  -0.0001522  -0.0003167   0.0001311  -0.0000016   0.0000043  -0.9427097   0.2803775
0.0126975    -0.9996842  -0.0000773  -0.0002006   0.0000098  -0.0000036  -0.0000023  -0.9425424   0.2804387
0.0128536    -0.9996661  -0.0001234  -0.0003506   0.0001098   0.0000036  -0.0000033  -0.9426407   0.2806492
0.0130116    -0.9995335  -0.0000588  -0.0002027   0.0002117   0.0000031   0.0000037  -0.9426215   0.2806846
0.0131716    -0.9996106  -0.0000121  -0.0002722   0.0001680  -0.0000045   0.0000010  -0.9426642   0.2806807
0.0133335    -0.9996011  -0.0000250  -0.0001840   0.0000857  -0.0000017  -0.0000095  -0.9425145   0.2809397
0.0134974    -0.9996448  -0.0001226  -0.0003702   0.0001299   0.0000014  -0.0000020  -0.9425677   0.2809175
0.0136633    -0.9997503   0.0000767  -0.0003109   0.0001592   0.0000013  -0.0000062  -0.9426221   0.2811150
0.0138313    -0.9997254  -0.0000496  -0.0001864   0.0002176  -0.0000014  -0.0000050  -0.9425397   0.2811490
0.0140013    -0.9996746   0.0000284  -0.0003621   0.0001453  -0.0000043  -0.0000027  -0.9426175   0.2812854
0.0141734    -0.9996055  -0.0000134  -0.0005512  -0.0004637  -0.0000133  -0.0000052  -0.9426482   0.2814176
0.0143477    -0.9996564  -0.0000593  -0.0004674   0.0001632   0.0000019  -0.0000050  -0.9426134   0.2813920
0.0145240    -0.9996740  -0.0000519  -0.0002613   0.0001567   0.0000018   0.0000028  -0.9426510   0.2814696
0.0147026    -0.9997307  -0.0000365  -0.0002901   0.0001425   0.0000098  -0.0000082  -0.9425887   0.2815431
0.0148833    -0.9996156   0.0000401  -0.0003731   0.0002662  -0.0000038  -0.0000085  -0.9425701   0.2817147
0.0150663    -0.9996700  -0.0001232  -0.0002433   0.0003118   0.0000025  -0.0000094  -0.9425500   0.2817628
0.0152515    -0.9996063  -0.0000020  -0.0002822   0.0002207  -0.0000064  -0.0000097  -0.9425577   0.2819218
0.0154390    -0.9996752   0.0000397  -0.0002663   0.0001456  -0.0000151   0.0000062  -0.9425825   0.2819117
0.0156288    -0.9997136   0.0000066  -0.0002528   0.0001040  -0.0000092  -0.0000074  -0.9426634   0.2819290
0.0158209    -0.9995330  -0.0000170  -0.0003064   0.0002190  -0.0000031  -0.0000088  -0.9425187   0.2819562
0.0160154    -0.9996083  -0.0001154  -0.0004776   0.0000973   0.0000012  -0.0000067  -0.9425096   0.2821765
0.0162123    -0.9996116  -0.0000123  -0.0001918   0.0002319  -0.0000041  -0.0000005  -0.9424733   0.2823458
0.0164116    -0.9997611   0.0000303  -0.0002432   0.0002017   0.0000020  -0.0000133  -0.9425390   0.2823374
0.0166134    -0.9995745  -0.0002118  -0.0001838   0.0001937   0.0000025   0.0000024  -0.9424725   0.2825105
0.0168176    -0.9996010   0.0000096  -0.0002611   0.0003489   0.0000023  -0.0000011  -0.9425681   0.2824212
0.0170243    -0.9996524  -0.0000241  -0.0002198   0.0000291  -0.0000044  -0.0000021  -0.9425075   0.2825839
0.0172336    -0.9997910  -0.0000478  -0.0003017   0.0001744   0.0000039  -0.0000065  -0.9424701   0.2825693
0.0174455    -0.9995990  -0.0001193  -0.0001139   0.0000959  -0.0000069   0.0000054  -0.9424511   0.2826684
0.0176599    -0.9996015  -0.0000380  -0.0002274   0.0001846  -0.0000030  -0.0000096  -0.9424459   0.2827776
0.0178770    -0.9996207  -0.0000170  -0.0001841   0.0001829  -0.0000056   0.0000042  -0.9424224   0.2829245
0.0180968    -0.9996302   0.0000022  -0.0000912   0.0000925  -0.0000086  -0.0000035  -0.9424302   0.2828374
0.0183193    -0.9995845  -0.0000718   0.0000479   0.0002215   0.0000087  -0.0000044  -0.9424509   0.2830002
0.0185445    -0.9997041   0.0000256  -0.0002053   0.0000232   0.0000103  -0.0000060  -0.9424455   0.2830423
0.0187724    -0.9995215  -0.0001481  -0.0001729   0.0000826   0.0000036   0.0000011  -0.9423371   0.2830841
0.0190032    -0.9995138   0.0000015  -0.0006136   0.0003778  -0.0000030  -0.0000051  -0.9424280   0.2831313
0.0192368    -0.9996411   0.0000490  -0.0000873   0.0002684   0.0000020   0.0000008  -0.9425254   0.2832695
0.0194733    -0.9996140  -0.0001145  -0.0002522   0.0000900   0.0000098  -0.0000044  -0.9424154   0.2833488
0.0197127    -0.9996612  -0.0000858  -0.0002137   0.0001207  -0.0000072  -0.0000149  -0.9423865   0.2834325
0.0199550    -0.9995778  -0.0000594  -0.0000679   0.0003405  -0.0000085  -0.0000115  -0.9424142   0.2834576
0.0202003    -0.9995926  -0.0000953  -0.0002179   0.0001852  -0.0000027  -0.0000121  -0.9424186   0.2834956
0.0204487    -0.9995736   0.0000206  -0.0000687   0.0000328  -0.0000126  -0.0000027  -0.9423482   0.2836018
0.0207001    -0.9996068  -0.0000422  -0.0000991   0.0001338  -0.0000050  -0.0000153  -0.9422820   0.2836091
0.0209545    -0.9996615  -0.0000055  -0.0001714   0.0001775  -0.0000042  -0.0000062  -0.9422991   0.2836966
0.0212121    -0.9994757  -0.0001159  -0.0002774   0.0002813   0.0000013   0.0000014  -0.9422630   0.2838958
0.0214729    -0.9996005  -0.0000311  -0.0002352   0.0001994  -0.0000082  -0.0000137  -0.9423046   0.2839225
0.0217369    -0.9996128  -0.0001474  -0.0001757   0.0001591   0.0000177  -0.0000012  -0.9422967   0.2839207
0.0220041    -0.9995710  -0.0000617   0.0002249   0.0005386  -0.0000034  -0.0000052  -0.9423316   0.2839710
0.0222746    -0.9996132  -0.0000665  -0.0002177   0.0002353   0.0000044  -0.0000094  -0.9421834   0.2840686
0.0225484    -0.9996192  -0.0001164  -0.0002214   0.0001841  -0.0000069   0.0000029  -0.9421589   0.2840821
0.0228256    -0.9996027  -0.0001873  -0.0001787   0.0001408  -0.0000015   0.0000000  -0.9422130   0.2841121
0.0231062    -0.9996847  -0.0001269  -0.0000720   0.0001793  -0.0000071  -0.0000067  -0.9422103   0.2841453
0.0233902    -0.9995751  -0.0000105  -0.0000770   0.0002211  -0.0000062   0.0000041  -0.9421501   0.2842650
0.0236778    -0.9995321  -0.0000317  -0.0001119   0.0001889   0.0000026  -0.0000065  -0.9421274   0.2843437
0.0239689    -0.9996380  -0.0014364  -0.0001793   0.0001195  -0.0000034  -0.0000028  -0.9431943   0.2849166
0.0242635    -0.9994773  -0.0000703  -0.0001353   0.0001597   0.0000020  -0.0000015  -0.9421554   0.2844378
0.0245618    -0.9995942   0.0000290  -0.0001208   0.0001933  -0.0000175  -0.0000006  -0.9420997   0.2845678
0.0248637    -0.9995527  -0.0000320  -0.0001105   0.0001977  -0.0000010  -0.0000011  -0.9421057   0.2846436
0.0251694    -0.9995790  -0.0002127  -0.0001243   0.0001679  -0.0000045  -0.0000092  -0.9421237   0.2846718
0.0254788    -0.9994313  -0.0000006  -0.0000767   0.0001728  -0.0000051  -0.0000060  -0.9420106   0.2847303
0.0257920    -0.9996660  -0.0000784  -0.0001257   0.0001871   0.0000011  -0.0000116  -0.9420984   0.2848583
0.0261091    -0.9995547  -0.0000850  -0.0001869   0.0001760   0.0000032  -0.0000093  -0.9419308   0.2848252
0.0264301    -0.9995794  -0.0000804  -0.0001058   0.0001995   0.0000051  -0.0000114  -0.9420806   0.2849199
0.0267550    -0.9996087   0.0000213  -0.0001117   0.0001558  -0.0000017   0.0000036  -0.9419236   0.2849455
0.0270839    -0.9996067  -0.0001118  -0.0001489   0.0001628  -0.0000150  -0.0000070  -0.9420152   0.2849370
0.0274168    -0.9995500   0.0000601  -0.0001434   0.0001678  -0.0000071  -0.0000091  -0.9419723   0.2849874
0.0277539    -0.9995775  -0.0001399  -0.0001685   0.0001793  -0.0000055  -0.0000124  -0.9418585   0.2850718
0.0280951    -0.9995358  -0.0001372  -0.0000494   0.0001669  -0.0000084  -0.0000131  -0.9418695   0.2851680
0.0284404    -0.9996220  -0.0001483  -0.0000241   0.0001997  -0.0000050  -0.0000027  -0.9418926   0.2852433
0.0287901    -0.9997133  -0.0000338  -0.0001982   0.0002235  -0.0000104  -0.0000071  -0.9419360   0.2851845
0.0291440    -0.9995124   0.0000114  -0.0000446   0.0001750   0.0000046  -0.0000088  -0.9418947   0.2853351
0.0295023    -0.9995820  -0.0000356  -0.0001824   0.0001590   0.0000158   0.0000033  -0.9418181   0.2853636
0.0298649    -0.9996150  -0.0000525  -0.0001761   0.0002350   0.0000090  -0.0000008  -0.9418149   0.2853996
0.0302321    -0.9996749  -0.0001658  -0.0001459   0.0001212   0.0000043  -0.0000058  -0.9417208   0.2854923
0.0306037    -0.9996869  -0.0000748  -0.0000921   0.0002053  -0.0000045  -0.0000008  -0.9417143   0.2855678
0.0309799    -0.9996275  -0.0000206   0.0000228   0.0001655  -0.0000045   0.0000013  -0.9418265   0.2855831
0.0313608    -0.9996091  -0.0002315  -0.0001650   0.0000466   0.0000041  -0.0000197  -0.9417779   0.2856653
0.0317463    -0.9997297  -0.0002082  -0.0000962   0.0001458  -0.0000047   0.0000050  -0.9416988   0.2857371
0.0321366    -0.9996045  -0.0000671  -0.0001047   0.0000435   0.0000041  -0.0000031  -0.9417880   0.2857474
0.0325316    -0.9996174  -0.0000232  -0.0000651   0.0001596   0.0000030  -0.0000159  -0.9416747   0.2858300
0.0329316    -0.9996271   0.0000276  -0.0001010   0.0000913   0.0000071  -0.0000175  -0.9416642   0.2859160
0.0333364    -0.9996685  -0.0000418  -0.0001706   0.0001881   0.0000033  -0.0000037  -0.9416956   0.2859965
0.0337462    -0.9996971  -0.0001654  -0.0001044   0.0000382   0.0000003   0.0000066  -0.9415459   0.2858363
0.0341610    -0.9996236  -0.0000673   0.0000447   0.0001197   0.0000031  -0.0000018  -0.9415890   0.2860550
0.0345810    -0.9997099  -0.0000660  -0.0000568   0.0001068   0.0000025  -0.0000054  -0.9415994   0.2860402
0.0350061    -0.9995855  -0.0000797  -0.0001726   0.0000343   0.0000041   0.0000028  -0.9416480   0.2861025
0.0354365    -0.9996743  -0.0000497  -0.0000315   0.0000837   0.0000008  -0.0000113  -0.9415532   0.2862356
0.0358721    -0.9995025  -0.0000778  -0.0000646   0.0000948   0.0000027   0.0000040  -0.9415274   0.2861881
0.0363131    -0.9995420  -0.0000321   0.0000007   0.0000687  -0.0000035  -0.0000022  -0.9415787   0.2862180
0.0367595    -0.9995845  -0.0000950  -0.0001831   0.0000382  -0.0000029  -0.0000134  -0.9414277   0.2863980
0.0372114    -0.9996274  -0.0000347  -0.0001246   0.0002162   0.0000021  -0.0000147  -0.9414660   0.2864445
0.0376688    -0.9995345  -0.0000841  -0.0000355   0.0000971  -0.0000015  -0.0000004  -0.9414265   0.2864517
0.0381319    -0.9996718  -0.0001153  -0.0003580   0.0003079  -0.0000009  -0.0000148  -0.9414994   0.2864761
0.0386006    -0.9996498  -0.0000214   0.0000391  -0.0000068  -0.0000001  -0.0000062  -0.9414738   0.2866139
0.0390752    -0.9995814  -0.0001000  -0.0000808   0.0001074   0.0000058  -0.0000044  -0.9413666   0.2865701
0.0395555    -0.9995186  -0.0001502   0.0000243   0.0001784  -0.0000018  -0.0000008  -0.9413887   0.2866159
0.0400418    -0.9995982  -0.0000470  -0.0001185   0.0000956  -0.0000059  -0.0000090  -0.9414225   0.2867169
0.0405340    -0.9995721  -0.0000650  -0.0000644   0.0001294   0.0000032  -0.0000083  -0.9413678   0.2866962
0.0410323    -0.9994795  -0.0000318  -0.0000751   0.0000968   0.0000113  -0.0000063  -0.9412536   0.2867964
0.0415368    -0.9996083  -0.0001794  -0.0001095   0.0001112  -0.0000101   0.0000046  -0.9413906   0.2868516
0.0420474    -0.9996573   0.0000189  -0.0001775   0.0000156  -0.0000032  -0.0000059  -0.9413047   0.2867908
0.0425643    -0.9996529  -0.0001082  -0.0000716   0.0001268   0.0000041  -0.0000041  -0.9412317   0.2868349
0.0430875    -0.9995002  -0.0001132  -0.0000532   0.0001097   0.0000041  -0.0000004  -0.9413051   0.2869693
0.0436172    -0.9996663  -0.0000867  -0.0001896   0.0000651  -0.0000077  -0.0000074  -0.9412355   0.2870156
0.0441534    -0.9996910   0.0000437  -0.0000551   0.0001334   0.0000004  -0.0000073  -0.9411886   0.2871031
0.0446962    -0.9997070  -0.0000597  -0.0000561   0.0001129  -0.0000045  -0.0000057  -0.9411981   0.2871376
0.0452457    -0.9997161  -0.0001934  -0.0000592   0.0000513   0.0000028  -0.0000074  -0.9411458   0.2871384
0.0458019    -0.9996104  -0.0001086  -0.0000218   0.0000687   0.0000017  -0.0000085  -0.9411226   0.2871739
0.0463649    -0.9996823  -0.0000584  -0.0001174   0.0001479   0.0000098   0.0000013  -0.9410879   0.2872438
0.0469349    -0.9995605  -0.0000472  -0.0001648   0.0000692  -0.0000076  -0.0000056  -0.9410962   0.2873527
0.0475119    -0.9996213  -0.0001484  -0.0000878   0.0000327   0.0000017  -0.0000071  -0.9410704   0.2873649
0.0480960    -0.9995075  -0.0000146  -0.0001206   0.0001636  -0.0000044  -0.0000019  -0.9409973   0.2874680
0.0486872    -0.9996565  -0.0001002  -0.0000694   0.0001585  -0.0000129  -0.0000110  -0.9409651   0.2874875
0.0492857    -0.9996103  -0.0001752  -0.0001463   0.0001155  -0.0000002  -0.0000042  -0.9409461   0.2875644
0.0498916    -0.9995930  -0.0000574  -0.0001678   0.0001148  -0.0000045  -0.0000018  -0.9408737   0.2876173
0.0505050    -0.9996371  -0.0000359  -0.0000958   0.0001167  -0.0000103  -0.0000166  -0.9409469   0.2876108
0.0511258    -0.9995902  -0.0000876  -0.0000875   0.0000785  -0.0000017  -0.0000074  -0.9409396   0.2877756
0.0517543    -0.9996721  -0.0000571  -0.0001139   0.0001237  -0.0000078  -0.0000062  -0.9409543   0.2877150
0.0523906    -0.9996272  -0.0001474  -0.0001701   0.0000482   0.0000057  -0.0000072  -0.9408638   0.2877875
0.0530346    -0.9996231  -0.0001309  -0.0000796   0.0000739   0.0000032  -0.0000115  -0.9408033   0.2878187
0.0536866    -0.9996316  -0.0002116  -0.0001591   0.0001311  -0.0000095  -0.0000167  -0.9408350   0.2878571
0.0543466    -0.9996290  -0.0000776  -0.0001767   0.0000561  -0.0000052  -0.0000006  -0.9407425   0.2878680
0.0550146    -0.9994352   0.0000178  -0.0001828   0.0000744  -0.0000055  -0.0000045  -0.9407686   0.2879192
0.0556910    -0.9995955  -0.0001142  -0.0001035   0.0000552  -0.0000121  -0.0000102  -0.9406990   0.2879734
0.0563756    -0.9995249  -0.0000221  -0.0001461   0.0000392   0.0000018  -0.0000108  -0.9407175   0.2881117
0.0570686    -0.9996476  -0.0001989  -0.0001725   0.0000367   0.0000006  -0.0000166  -0.9406780   0.2881488
0.0577702    -0.9996200  -0.0001458  -0.0001560   0.0000727  -0.0000013  -0.0000054  -0.9406106   0.2882546
0.0584804    -0.9995794  -0.0001274  -0.0001324  -0.0000023   0.0000011  -0.0000075  -0.9405687   0.2881916
0.0591993    -0.9995833  -0.0002488  -0.0001341   0.0001030   0.0000087   0.0000003  -0.9405477   0.2882490
0.0599270    -0.9996092  -0.0001764  -0.0001733   0.0001149   0.0000084  -0.0000020  -0.9406534   0.2883762
0.0606637    -0.9997317  -0.0002205  -0.0001566   0.0001556  -0.0000008  -0.0000084  -0.9404613   0.2883609
0.0614095    -0.9996605   0.0000089  -0.0001512   0.0000579  -0.0000130   0.0000009  -0.9405219   0.2883972
0.0621644    -0.9996017  -0.0000790  -0.0001864   0.0000935  -0.0000010  -0.0000074  -0.9405535   0.2885076
0.0629286    -0.9996614  -0.0001198  -0.0001438   0.0001241  -0.0000052  -0.0000012  -0.9404398   0.2884878
0.0637022    -0.9995405  -0.0001308  -0.0001090  -0.0000181   0.0000020  -0.0000046  -0.9403573   0.2886245
0.0644853    -0.9997191  -0.0001053  -0.0001985   0.0000431  -0.0000014  -0.0000039  -0.9404157   0.2886764
0.0652780    -0.9997212  -0.0001596  -0.0001878   0.0001402   0.0000039  -0.0000084  -0.9403190   0.2886986
0.0660805    -0.9997504  -0.0000945  -0.0001985   0.0000717  -0.0000050  -0.0000067  -0.9402917   0.2888275
0.0668928    -0.9996364  -0.0000602  -0.0001699   0.0000736  -0.0000128  -0.0000122  -0.9402203   0.2888212
0.0677152    -0.9995930  -0.0000461  -0.0002045   0.0000821   0.0000000  -0.0000112  -0.9402024   0.2888230
0.0685476    -0.9996388  -0.0001346  -0.0001167   0.0001481  -0.0000072  -0.0000117  -0.9401862   0.2888922
0.0693903    -0.9997427  -0.0002546  -0.0002438   0.0001174  -0.0000004  -0.0000041  -0.9401122   0.2890172
0.0702433    -0.9995778  -0.0001665  -0.0001989   0.0000950  -0.0000029   0.0000041  -0.9401311   0.2890242
0.0711068    -0.9995670  -0.0001709  -0.0001009   0.0002137   0.0000037  -0.0000059  -0.9400895   0.2890692
0.0719810    -0.9995649  -0.0001259  -0.0001248   0.0001977  -0.0000091   0.0000050  -0.9400307   0.2890734
0.0728659    -0.9996278  -0.0001193  -0.0001852   0.0001841   0.0000052  -0.0000014  -0.9399982   0.2891921
0.0737616    -0.9996981  -0.0001773  -0.0001798   0.0001566  -0.0000012   0.0000004  -0.9399166   0.2892475
0.0746684    -0.9995776  -0.0002266  -0.0001743   0.0000948   0.0000073  -0.0000086  -0.9399425   0.2892933
0.0755863    -0.9997106  -0.0001724  -0.0001455   0.0002011  -0.0000051  -0.0000018  -0.9398644   0.2893296
0.0765155    -0.9996138  -0.0001560  -0.0001988   0.0001579  -0.0000040  -0.0000102  -0.9398543   0.2893451
0.0774561    -0.9996001  -0.0001627  -0.0001164   0.0002196   0.0000021  -0.0000132  -0.9397228   0.2894283
0.0784083    -0.9996066  -0.0000707  -0.0002373   0.0001169   0.0000033   0.0000006  -0.9396576   0.2894038
0.0793722    -0.9996253  -0.0001472  -0.0002600   0.0001072  -0.0000042  -0.0000104  -0.9396161   0.2895158
0.0803479    -0.9995685  -0.0002167  -0.0002329   0.0001171   0.0000014  -0.0000099  -0.9396115   0.2895176
0.0813357    -0.9996628  -0.0001355  -0.0003121   0.0001220  -0.0000006  -0.0000007  -0.9394970   0.2895606
0.0823356    -0.9997116  -0.0002169  -0.0002320   0.0000924  -0.0000053  -0.0000076  -0.9394075   0.2896695
0.0833477    -0.9995960  -0.0002205  -0.0001532   0.0002253   0.0000061  -0.0000029  -0.9393761   0.2896456
0.0843723    -0.9996750  -0.0002429  -0.0002679   0.0001174   0.0000086  -0.0000037  -0.9393115   0.2897923
0.0854095    -0.9996634  -0.0001905  -0.0003067   0.0001647  -0.0000026  -0.0000074  -0.9392051   0.2896720
0.0864595    -0.9996451  -0.0002429  -0.0002088   0.0001008  -0.0000029   0.0000073  -0.9391912   0.2898053
0.0875224    -0.9996362  -0.0001247  -0.0002746   0.0001251   0.0000034  -0.0000104  -0.9391330   0.2897833
0.0885983    -0.9995888  -0.0001017  -0.0002341   0.0001644  -0.0000022  -0.0000038  -0.9390844   0.2898074
0.0896875    -0.9995880  -0.0001501  -0.0002093   0.0002227   0.0000089  -0.0000091  -0.9389901   0.2898603
0.0907900    -0.9996479  -0.0001958  -0.0003410   0.0002530  -0.0000058  -0.0000009  -0.9389029   0.2897670
0.0919061    -0.9995283  -0.0001821  -0.0003191   0.0002263   0.0000026   0.0000009  -0.9387465   0.2898359
0.0930359    -0.9996912  -0.0002556  -0.0002294   0.0001727   0.0000012   0.0000016  -0.9387368   0.2897206
0.0941797    -0.9996139  -0.0001973  -0.0002402   0.0002450   0.0000025   0.0000095  -0.9386642   0.2897788
0.0953374    -0.9995963  -0.0002880  -0.0002104   0.0002327  -0.0000047   0.0000036  -0.9386589   0.2896874
0.0965094    -0.9996390  -0.0001608  -0.0002359   0.0002352   0.0000008  -0.0000022  -0.9385277   0.2897067
0.0976959    -0.9996139  -0.0002146  -0.0003781   0.0003012   0.0000064  -0.0000051  -0.9385353   0.2896980
0.0988969    -0.9995883  -0.0002164  -0.0003306   0.0002241  -0.0000068  -0.0000015  -0.9384663   0.2896201
0.1001126    -0.9995405  -0.0002303  -0.0002943   0.0001535  -0.0000042  -0.0000113  -0.9384273   0.2896009
0.1013433    -0.9996968  -0.0002765  -0.0002941   0.0002774  -0.0000066  -0.0000005  -0.9384162   0.2895283
0.1025892    -0.9996706  -0.0003876  -0.0003229   0.0002433  -0.0000089  -0.0000156  -0.9383242   0.2894642
0.1038503    -0.9995137  -0.0002135  -0.0002444   0.0002958  -0.0000061   0.0000026  -0.9383898   0.2893628
0.1051270    -0.9996033  -0.0002683  -0.0003767   0.0002904  -0.0000042   0.0000032  -0.9384645   0.2893710
0.1064193    -0.9996048  -0.0002226  -0.0002918   0.0002243  -0.0000009  -0.0000043  -0.9385210   0.2892712
0.1077276    -0.9995087  -0.0002465  -0.0002524   0.0002522  -0.0000010   0.0000042  -0.9385561   0.2893075
0.1090519    -0.9996193  -0.0003542  -0.0002424   0.0002344   0.0000081   0.0000023  -0.9386699   0.2891948
0.1103925    -0.9996292  -0.0003573  -0.0001884   0.0003449  -0.0000053  -0.0000082  -0.9386504   0.2892372
0.1117496    -0.9994701  -0.0002997  -0.0002615   0.0002911   0.0000070  -0.0000009  -0.9387449   0.2892651
0.1131233    -0.9996250  -0.0003513  -0.0002032   0.0002947  -0.0000109  -0.0000063  -0.9388706   0.2892237
0.1145140    -0.9996349  -0.0002506  -0.0002927   0.0003118  -0.0000020  -0.0000139  -0.9389367   0.2893050
0.1159217    -0.9995821  -0.0003553  -0.0003509   0.0003327  -0.0000058  -0.0000006  -0.9389502   0.2893045
0.1173468    -0.9996994  -0.0002555  -0.0002361   0.0003192   0.0000043  -0.0000100  -0.9390159   0.2893834
0.1187893    -0.9996626  -0.0001303  -0.0002425   0.0003392  -0.0000015  -0.0000112  -0.9391408   0.2894386
0.1202497    -0.9996221  -0.0003170  -0.0002970   0.0004404  -0.0000076  -0.0000202  -0.9391425   0.2894774
0.1217279    -0.9996999  -0.0002352  -0.0002897   0.0003170   0.0000047   0.0000067  -0.9391774   0.2895602
0.1232243    -0.9996338  -0.0002599  -0.0002175   0.0003212  -0.0000059  -0.0000097  -0.9393238   0.2897100
0.1247392    -0.9995501  -0.0003464  -0.0003080   0.0004108  -0.0000005  -0.0000021  -0.9393441   0.2897610
0.1262726    -0.9995130  -0.0001685  -0.0002866   0.0003599  -0.0000082  -0.0000107  -0.9393835   0.2898578
0.1278249    -0.9995792  -0.0001853  -0.0003012   0.0004449  -0.0000011  -0.0000062  -0.9393711   0.2899272
0.1293963    -0.9995671  -0.0002956  -0.0002878   0.0004266  -0.0000038  -0.0000042  -0.9394349   0.2900448
0.1309870    -0.9994899  -0.0002294  -0.0003279   0.0004143   0.0000004  -0.0000140  -0.9394403   0.2901690
0.1325973    -0.9995956  -0.0003115  -0.0003479   0.0004340  -0.0000006   0.0000020  -0.9394429   0.2901727
0.1342273    -0.9996346  -0.0002339  -0.0003527   0.0004007  -0.0000030  -0.0000066  -0.9395119   0.2902830
0.1358774    -0.9995709  -0.0003769  -0.0002952   0.0004585  -0.0000045   0.0000028  -0.9394840   0.2904587
0.1375478    -0.9996123  -0.0003268  -0.0003199   0.0004411   0.0000041  -0.0000011  -0.9395102   0.2904983
0.1392387    -0.9995901  -0.0003197  -0.0003119   0.0003946  -0.0000016  -0.0000030  -0.9394896   0.2906542
0.1409504    -0.9996866  -0.0003219  -0.0003176   0.0004727  -0.0000098  -0.0000030  -0.9395416   0.2907525
0.1426831    -0.9996226  -0.0002856  -0.0003312   0.0004736  -0.0000051  -0.0000032  -0.9395182   0.2907696
0.1444371    -0.9995674  -0.0003148  -0.0002701   0.0005046   0.0000040  -0.0000025  -0.9394529   0.2909111
0.1462127    -0.9994537  -0.0002881  -0.0003265   0.0004729   0.0000011  -0.0000080  -0.9395321   0.2910522
0.1480102    -0.9996350  -0.0003505  -0.0002338   0.0004316  -0.0000016  -0.0000117  -0.9394888   0.2911476
0.1498297    -0.9995285  -0.0002872  -0.0002607   0.0005473  -0.0000046   0.0000006  -0.9394295   0.2911965
0.1516716    -0.9995923  -0.0002938  -0.0002695   0.0005030  -0.0000031   0.0000037  -0.9394114   0.2913293
0.1535361    -0.9996571  -0.0002164  -0.0002583   0.0005804  -0.0000056  -0.0000089  -0.9394468   0.2914228
0.1554236    -0.9996735  -0.0003347  -0.0001638   0.0005714   0.0000006   0.0000022  -0.9394299   0.2915906
0.1573342    -0.9996216  -0.0003077  -0.0002355   0.0006138  -0.0000109  -0.0000090  -0.9393141   0.2916879
0.1592684    -0.9996615  -0.0002846  -0.0002101   0.0005531   0.0000048   0.0000032  -0.9394186   0.2917255
0.1612263    -0.9997268  -0.0004057  -0.0002506   0.0005480   0.0000049  -0.0000010  -0.9393069   0.2918717
0.1632083    -0.9996263  -0.0004508  -0.0002310   0.0006031   0.0000052  -0.0000046  -0.9393931   0.2919294
0.1652147    -0.9995662  -0.0003355  -0.0001732   0.0005744  -0.0000054   0.0000015  -0.9392935   0.2920767
0.1672457    -0.9994942  -0.0003565  -0.0001831   0.0005848   0.0000058  -0.0000092  -0.9392819   0.2921465
0.1693017    -0.9995524  -0.0003789  -0.0001708   0.0005713  -0.0000093  -0.0000026  -0.9392562   0.2921591
0.1713829    -0.9996200  -0.0002822  -0.0002043   0.0006178  -0.0000062  -0.0000029  -0.9392212   0.2923577
0.1734898    -0.9996554  -0.0003010  -0.0001459   0.0006149  -0.0000008   0.0000005  -0.9391912   0.2923584
0.1756225    -0.9996145  -0.0004720  -0.0001609   0.0005557   0.0000067  -0.0000024  -0.9391699   0.2925539
0.1777815    -0.9995981  -0.0003274  -0.0001790   0.0005674  -0.0000031  -0.0000086  -0.9390592   0.2925714
0.1799670    -0.9996938  -0.0003822  -0.0001334   0.0006090  -0.0000053  -0.0000102  -0.9390654   0.2927581
0.1821794    -0.9996716  -0.0004076  -0.0001523   0.0005995   0.0000027  -0.0000042  -0.9390483   0.2928551
0.1844190    -0.9995198  -0.0003504  -0.0001546   0.0006351  -0.0000014  -0.0000113  -0.9391059   0.2929285
0.1866861    -0.9996196  -0.0003639  -0.0001487   0.0005988  -0.0000025  -0.0000085  -0.9389236   0.2930493
0.1889811    -0.9995981  -0.0003622  -0.0001477   0.0006323  -0.0000052  -0.0000045  -0.9389341   0.2931909
0.1913043    -0.9995029  -0.0004875  -0.0001252   0.0006350  -0.0000022  -0.0000077  -0.9389398   0.2931881
0.1936560    -0.9996117  -0.0003667  -0.0001199   0.0006075  -0.0000029   0.0000011  -0.9388743   0.2934055
0.1960367    -0.9997301  -0.0005075  -0.0001452   0.0005432  -0.0000034  -0.0000113  -0.9388666   0.2935421
0.1984466    -0.9996184  -0.0005147  -0.0001507   0.0006198  -0.0000069  -0.0000007  -0.9388003   0.2935264
0.2008861    -0.9996818  -0.0004236  -0.0001173   0.0006284  -0.0000035  -0.0000135  -0.9388468   0.2937072
0.2033557    -0.9995905  -0.0003983  -0.0001577   0.0005835  -0.0000017  -0.0000072  -0.9388149   0.2937507
0.2058556    -0.9995480  -0.0003849  -0.0001421   0.0006036   0.0000063  -0.0000012  -0.9386165   0.2938308
0.2083862    -0.9996258  -0.0004214  -0.0001747   0.0005699  -0.0000007  -0.0000098  -0.9386430   0.2939738
0.2109480    -0.9995920  -0.0004399  -0.0001126   0.0006144  -0.0000041   0.0000037  -0.9386125   0.2940661
0.2135412    -0.9995929  -0.0004285  -0.0001581   0.0005327   0.0000026  -0.0000099  -0.9385548   0.2941996
0.2161663    -0.9995698  -0.0004741  -0.0001549   0.0006239   0.0000069  -0.0000061  -0.9385860   0.2942747
0.2188237    -0.9995891  -0.0003104  -0.0001294   0.0006627  -0.0000015  -0.0000051  -0.9385893   0.2944157
0.2215137    -0.9996801  -0.0004056  -0.0001057   0.0006286  -0.0000176  -0.0000081  -0.9384733   0.2944849
0.2242369    -0.9995884  -0.0004470  -0.0001088   0.0006076  -0.0000093  -0.0000156  -0.9383799   0.2946712
0.2269935    -0.9995879  -0.0004341  -0.0000733   0.0006449  -0.0000070  -0.0000102  -0.9383557   0.2947396
0.2297839    -0.9997248  -0.0005026  -0.0001127   0.0006081   0.0000008  -0.0000095  -0.9383288   0.2948782
0.2326087    -0.9997170  -0.0004517  -0.0000336   0.0006457  -0.0000072  -0.0000042  -0.9383012   0.2949777
0.2354682    -0.9996880  -0.0004900  -0.0000790   0.0007020   0.0000062  -0.0000025  -0.9382314   0.2950852
0.2383629    -0.9996499  -0.0004195  -0.0000366   0.0007079   0.0000095  -0.0000077  -0.9382402   0.2951383
0.2412932    -0.9996349  -0.0005179  -0.0001443   0.0007206  -0.0000204  -0.0000146  -0.9381400   0.2952565
0.2442594    -0.9995991  -0.0004705  -0.0001033   0.0006833  -0.0000093   0.0000065  -0.9381314   0.2954319
0.2472622    -0.9995769  -0.0004787  -0.0000894   0.0007083  -0.0000034  -0.0000044  -0.9381191   0.2955686
0.2503018    -0.9996098  -0.0005348  -0.0000817   0.0006392  -0.0000125  -0.0000093  -0.9379876   0.2957517
0.2533788    -0.9996668  -0.0005223  -0.0000825   0.0006729  -0.0000040   0.0000031  -0.9379655   0.2957465
0.2564937    -0.9995937  -0.0004114   0.0000081   0.0007045  -0.0000017  -0.0000116  -0.9379517   0.2958429
0.2596468    -0.9997030  -0.0006366  -0.0000475   0.0006499  -0.0000103  -0.0000019  -0.9378675   0.2960615
0.2628387    -0.9996538  -0.0006245  -0.0000449   0.0007291   0.0000019   0.0000031  -0.9378421   0.2962113
0.2660699    -0.9996056  -0.0004241  -0.0000760   0.0006845   0.0000030  -0.0000001  -0.9377637   0.2962477
0.2693407    -0.9995474  -0.0005397  -0.0000438   0.0006431   0.0000029   0.0000017  -0.9376920   0.2964796
0.2726518    -0.9995596  -0.0007104  -0.0000406   0.0007113   0.0000098  -0.0000065  -0.9376563   0.2965318
0.2760036    -0.9996724  -0.0005711  -0.0000315   0.0007085  -0.0000009  -0.0000004  -0.9376370   0.2967253
0.2793966    -0.9995804  -0.0005145  -0.0000443   0.0007510   0.0000015  -0.0000069  -0.9375655   0.2967840
0.2828312    -0.9996375  -0.0006345  -0.0000343   0.0007338  -0.0000054  -0.0000065  -0.9375553   0.2969881
0.2863082    -0.9997430  -0.0005529  -0.0001193   0.0006958  -0.0000069  -0.0000156  -0.9374514   0.2970842
0.2898278    -0.9995935  -0.0006890   0.0000147   0.0007698   0.0000011  -0.0000148  -0.9373987   0.2972562
0.2933907    -0.9997168  -0.0005796  -0.0000636   0.0007459  -0.0000071  -0.0000110  -0.9374491   0.2973166
0.2969975    -0.9996683  -0.0006193  -0.0000893   0.0006886   0.0000025  -0.0000002  -0.9373918   0.2974570
0.3006485    -0.9995380  -0.0006741  -0.0000416   0.0007224  -0.0000037  -0.0000003  -0.9372446   0.2976492
0.3043445    -0.9995720  -0.0007551  -0.0000258   0.0007433   0.0000030  -0.0000090  -0.9372233   0.2977212
0.3080858    -0.9996252  -0.0006145  -0.0000957   0.0008170   0.0000008  -0.0000047  -0.9371217   0.2978439
0.3118732    -0.9996802  -0.0005874  -0.0000275   0.0007486  -0.0000029  -0.0000037  -0.9370846   0.2981255
0.3157071    -0.9996806  -0.0005960  -0.0000291   0.0007557   0.0000001  -0.0000051  -0.9369519   0.2981806
0.3195882    -0.9996128  -0.0006534  -0.0000056   0.0007616  -0.0000056  -0.0000075  -0.9369621   0.2983713
0.3235170    -0.9995883  -0.0006446   0.0000415   0.0007979   0.0000005  -0.0000101  -0.9368877   0.2985743
0.3274941    -0.9996837  -0.0007183   0.0000434   0.0007281  -0.0000171  -0.0000030  -0.9368245   0.2986018
0.3315200    -0.9997164  -0.0007156  -0.0000082   0.0007702  -0.0000011  -0.0000002  -0.9366881   0.2987612
0.3355955    -0.9996347  -0.0007125   0.0000407   0.0007401   0.0000024  -0.0000098  -0.9367534   0.2988743
0.3397210    -0.9996411  -0.0006736   0.0000352   0.0007660  -0.0000033  -0.0000140  -0.9366286   0.2991156
0.3438973    -0.9996016  -0.0006949   0.0000024   0.0008220   0.0000025  -0.0000018  -0.9365542   0.2991742
0.3481249    -0.9996944  -0.0006729  -0.0000313   0.0007957  -0.0000090  -0.0000003  -0.9365513   0.2993079
0.3524045    -0.9996620  -0.0006140   0.0000091   0.0007621   0.0000071  -0.0000049  -0.9364981   0.2994654
0.3567367    -0.9996972  -0.0008172   0.0000687   0.0008142   0.0000048  -0.0000006  -0.9364733   0.2996630
0.3611221    -0.9997005  -0.0008575   0.0000352   0.0008002  -0.0000009  -0.0000053  -0.9363157   0.2998125
0.3655615    -0.9996810  -0.0006744  -0.0000285   0.0007852   0.0000008   0.0000035  -0.9362350   0.2999891
0.3700554    -0.9997105  -0.0007586   0.0000590   0.0007785  -0.0000078   0.0000013  -0.9361766   0.3001423
0.3746046    -0.9996469  -0.0007445   0.0000688   0.0008583  -0.0000074   0.0000052  -0.9360952   0.3002810
0.3792097    -0.9996995  -0.0008166   0.0000339   0.0007897   0.0000027  -0.0000014  -0.9360310   0.3005167
0.3838714    -0.9996508  -0.0007856  -0.0000080   0.0008209  -0.0000147   0.0000006  -0.9360487   0.3006684
0.3885905    -0.9997398  -0.0008338   0.0001003   0.0008633   0.0000014  -0.0000025  -0.9359445   0.3008066
0.3933675    -0.9995838  -0.0007797   0.0000496   0.0008514  -0.0000064  -0.0000079  -0.9358374   0.3010662
0.3982033    -0.9996650  -0.0008444   0.0000175   0.0008602   0.0000045  -0.0000028  -0.9357388   0.3011775
0.4030985    -0.9996346  -0.0007716  -0.0000154   0.0008295  -0.0000013  -0.0000019  -0.9356822   0.3013380
0.4080538    -0.9997004  -0.0008454  -0.0000557   0.0008572   0.0000088  -0.0000011  -0.9356213   0.3015114
0.4130701    -0.9996427  -0.0007036   0.0000012   0.0008905  -0.0000030  -0.0000011  -0.9354990   0.3017008
0.4181481    -0.9995511  -0.0007660   0.0000183   0.0008810  -0.0000217  -0.0000123  -0.9354835   0.3019167
0.4232885    -0.9997302  -0.0008422   0.0000444   0.0009055   0.0000013  -0.0000042  -0.9353929   0.3020374
0.4284921    -0.9996619  -0.0009178   0.0000568   0.0008824   0.0000050  -0.0000019  -0.9353126   0.3021829
0.4337597    -0.9997195  -0.0008128   0.0000410   0.0008900  -0.0000025  -0.0000129  -0.9351899   0.3024178
0.4390920    -0.9995993  -0.0008686   0.0000241   0.0009201   0.0000014  -0.0000040  -0.9351455   0.3026475
0.4444898    -0.9996614  -0.0009237   0.0000009   0.0009546   0.0000003  -0.0000071  -0.9350953   0.3028394
0.4499541    -0.9996857  -0.0008462   0.0000765   0.0009020   0.0000018   0.0000071  -0.9349420   0.3029515
0.4554854    -0.9996505  -0.0009887   0.0000253   0.0009306  -0.0000024   0.0000004  -0.9349191   0.3031716
0.4610848    -0.9995578  -0.0008817   0.0000204   0.0009608   0.0000036  -0.0000010  -0.9347462   0.3034583
0.4667531    -0.9997339  -0.0009517   0.0000572   0.0009316  -0.0000048  -0.0000122  -0.9347264   0.3035858
0.4724910    -0.9996406  -0.0009519   0.0000467   0.0009226   0.0000114  -0.0000039  -0.9345766   0.3037551
0.4782994    -0.9996909  -0.0009785   0.0000538   0.0009636  -0.0000062  -0.0000052  -0.9345650   0.3040264
0.4841793    -0.9996098  -0.0010311   0.0000612   0.0009551   0.0000106   0.0000023  -0.9344129   0.3041643
0.4901314    -0.9997203  -0.0009929  -0.0000200   0.0009769   0.0000062  -0.0000086  -0.9344641   0.3044346
0.4961567    -0.9997427  -0.0009679   0.0000146   0.0010900  -0.0000058  -0.0000014  -0.9343045   0.3046205
0.5022561    -0.9997039  -0.0008765  -0.0000253   0.0010088  -0.0000017  -0.0000053  -0.9341865   0.3048411
0.5084304    -0.9995553  -0.0010715   0.0000217   0.0009919  -0.0000013  -0.0000019  -0.9340425   0.3051119
0.5146807    -0.9997565  -0.0010508   0.0000153   0.0010699  -0.0000092  -0.0000063  -0.9339961   0.3052493
0.5210078    -0.9996098  -0.0010139   0.0000243   0.0010468   0.0000043  -0.0000041  -0.9338725   0.3054744
0.5274126    -0.9996071  -0.0010242   0.0000651   0.0010459  -0.0000064  -0.0000075  -0.9338402   0.3057256
0.5338963    -0.9996726  -0.0010662   0.0000340   0.0010152   0.0000003   0.0000057  -0.9337405   0.3059158
0.5404596    -0.9997078  -0.0010668   0.0000182   0.0011052  -0.0000084   0.0000050  -0.9336710   0.3062319
0.5471036    -0.9995708  -0.0010010  -0.0000046   0.0011370  -0.0000094  -0.0000065  -0.9335276   0.3063257
0.5538292    -0.9995837  -0.0010842  -0.0000128   0.0011063   0.0000020  -0.0000054  -0.9334165   0.3066357
0.5606376    -0.9996746  -0.0011293   0.0000360   0.0010926  -0.0000026  -0.0000073  -0.9332411   0.3068205
0.5675297    -0.9996822  -0.0012470   0.0000109   0.0010643  -0.0000022  -0.0000028  -0.9331879   0.3071370
0.5745064    -0.9995663  -0.0012069   0.0000399   0.0011408   0.0000018   0.0000011  -0.9330557   0.3073340
0.5815690    -0.9996866  -0.0012246  -0.0000487   0.0010546   0.0000020   0.0000047  -0.9330523   0.3075216
0.5887183    -0.9995687  -0.0012373   0.0000356   0.0011090  -0.0000109  -0.0000114  -0.9328489   0.3077647
0.5959556    -0.9997262  -0.0012812   0.0000469   0.0011872  -0.0000057  -0.0000093  -0.9327533   0.3080503
0.6032818    -0.9996936  -0.0012187  -0.0000299   0.0010988  -0.0000051  -0.0000031  -0.9326622   0.3083318
0.6106981    -0.9996358  -0.0011396  -0.0000408   0.0011806   0.0000033  -0.0000101  -0.9325332   0.3086434
0.6182056    -0.9996569  -0.0013143   0.0000124   0.0012143   0.0000045  -0.0000047  -0.9324797   0.3087512
0.6258053    -0.9996396  -0.0012441   0.0000244   0.0012320  -0.0000036   0.0000009  -0.9323100   0.3090988
0.6334985    -0.9997148  -0.0012120  -0.0000377   0.0012135   0.0000043  -0.0000057  -0.9322906   0.3093580
0.6412862    -0.9997579  -0.0013182  -0.0000577   0.0011777  -0.0000087  -0.0000039  -0.9320162   0.3096498
0.6491697    -0.9997637  -0.0013066  -0.0000317   0.0011907  -0.0000025   0.0000017  -0.9320639   0.3099768
0.6571501    -0.9996140  -0.0013279  -0.0000055   0.0012165  -0.0000156  -0.0000076  -0.9318527   0.3101546
0.6652286    -0.9997255  -0.0012945  -0.0000442   0.0012335   0.0000013  -0.0000025  -0.9317385   0.3105023
0.6734064    -0.9997321  -0.0013054  -0.0000481   0.0012359  -0.0000007  -0.0000128  -0.9316249   0.3107810
0.6816848    -0.9997049  -0.0013215  -0.0000388   0.0012533  -0.0000108  -0.0000052  -0.9314518   0.3109770
0.6900649    -0.9997300  -0.0013405  -0.0000409   0.0012961  -0.0000001  -0.0000024  -0.9313558   0.3112493
0.6985480    -0.9997167  -0.0014196  -0.0000596   0.0013032  -0.0000011  -0.0000022  -0.9312130   0.3116300
0.7071355    -0.9996406  -0.0013111  -0.0000962   0.0012716   0.0000024  -0.0000047  -0.9311384   0.3119213
0.7158284    -0.9997372  -0.0014391  -0.0000537   0.0013368   0.0000018  -0.0000044  -0.9310515   0.3121998
0.7246283    -0.9997024  -0.0013559  -0.0000159   0.0013976  -0.0000065  -0.0000022  -0.9308397   0.3124587
0.7335363    -0.9996414  -0.0015430  -0.0000764   0.0013298   0.0000072  -0.0000030  -0.9308036   0.3127722
0.7425539    -0.9997095  -0.0013655  -0.0001386   0.0013487  -0.0000014  -0.0000051  -0.9306783   0.3131388
0.7516822    -0.9997235  -0.0013960  -0.0001106   0.0013519  -0.0000061   0.0000039  -0.9304417   0.3133883
0.7609229    -0.9997478  -0.0014781  -0.0000396   0.0014095  -0.0000108  -0.0000073  -0.9302693   0.3136903
0.7702771    -0.9997162  -0.0014918  -0.0000597   0.0014343   0.0000060  -0.0000118  -0.9301103   0.3139566
0.7797463    -0.9996769  -0.0015039  -0.0001102   0.0014269  -0.0000053  -0.0000039  -0.9299867   0.3143409
0.7893319    -0.9997160  -0.0015880  -0.0000475   0.0014525  -0.0000011  -0.0000039  -0.9298566   0.3146606
0.7990353    -0.9996868  -0.0014543  -0.0000566   0.0014794   0.0000108   0.0000006  -0.9297423   0.3149845
0.8088580    -0.9997145  -0.0015929  -0.0000835   0.0014281  -0.0000011  -0.0000043  -0.9295781   0.3153214
0.8188015    -0.9996706  -0.0016879  -0.0000871   0.0015205  -0.0000041  -0.0000032  -0.9294537   0.3156519
0.8288673    -0.9997726  -0.0016151  -0.0000626   0.0015510  -0.0000032  -0.0000065  -0.9292674   0.3159989
0.8390567    -0.9996574  -0.0016087  -0.0000743   0.0015318   0.0000029  -0.0000167  -0.9291964   0.3163791
0.8493714    -0.9997858  -0.0016476  -0.0001243   0.0015569   0.0000081  -0.0000012  -0.9290133   0.3166715
0.8598130    -0.9997257  -0.0016492  -0.0000939   0.0016082   0.0000073  -0.0000083  -0.9288463   0.3170546
0.8703829    -0.9997477  -0.0017090  -0.0000656   0.0016300   0.0000037  -0.0000044  -0.9286617   0.3173866
0.8810827    -0.9998063  -0.0016859  -0.0000745   0.0016593  -0.0000029  -0.0000054  -0.9285109   0.3178376
0.8919140    -0.9997665  -0.0017949  -0.0000674   0.0016819   0.0000023  -0.0000108  -0.9283561   0.3181357
0.9028786    -0.9997248  -0.0018358  -0.0000533   0.0016499  -0.0000092   0.0000004  -0.9281942   0.3185210
0.9139779    -0.9998475  -0.0017506  -0.0000683   0.0017338  -0.0000026  -0.0000067  -0.9280326   0.3189216
0.9252136    -0.9997958  -0.0017854  -0.0000699   0.0017567  -0.0000001  -0.0000139  -0.9278553   0.3192816
0.9365875    -0.9996411  -0.0018523  -0.0000335   0.0018460  -0.0000034   0.0000006  -0.9276938   0.3196557
0.9481012    -0.9996233  -0.0018719  -0.0001245   0.0018575  -0.0000017  -0.0000055  -0.9275186   0.3200543
0.9597564    -0.9998258  -0.0018600  -0.0000804   0.0018326  -0.0000017  -0.0000023  -0.9273121   0.3204456
0.9715549    -0.9997107  -0.0018103  -0.0000317   0.0019271  -0.0000036  -0.0000012  -0.9271461   0.3208858
0.9834985    -0.9997741  -0.0019975  -0.0001387   0.0018835  -0.0000065  -0.0000013  -0.9270109   0.3212321
0.9955889    -0.9997448  -0.0018770  -0.0001352   0.0019181  -0.0000032  -0.0000050  -0.9268638   0.3216050
1.0078279    -0.9997847  -0.0019968  -0.0001220   0.0019405   0.0000107  -0.0000079  -0.9265545   0.3220619
1.0202173    -0.9997613  -0.0019868  -0.0001451   0.0020176   0.0000011  -0.0000053  -0.9264578   0.3224213
1.0327591    -0.9996614  -0.0019473  -0.0001618   0.0020082  -0.0000039  -0.0000004  -0.9262505   0.3229331
1.0454551    -0.9996842  -0.0021060  -0.0001388   0.0020155   0.0000008  -0.0000101  -0.9260666   0.3233381
1.0583071    -0.9996612  -0.0019970   0.0000185   0.0020557  -0.0000013   0.0000049  -0.9258682   0.3237213
1.0713171    -0.9997574  -0.0020040  -0.0000596   0.0021666  -0.0000064   0.0000018  -0.9255917   0.3241481
1.0844871    -0.9997862  -0.0019776  -0.0000564   0.0020884  -0.0000048   0.0000027  -0.9254617   0.3245377
1.0978189    -0.9997195  -0.0021479  -0.0001540   0.0021424   0.0000007   0.0000068  -0.9252756   0.3250599
1.1113147    -0.9998569  -0.0021480  -0.0001197   0.0021612  -0.0000006  -0.0000055  -0.9250334   0.3254274
1.1249763    -0.9997403  -0.0021579  -0.0001557   0.0021749  -0.0000013  -0.0000018  -0.9248774   0.3259905
1.1388059    -0.9996384  -0.0021860  -0.0001257   0.0022355  -0.0000019  -0.0000060  -0.9247198   0.3264517
1.1528056    -0.9996769  -0.0021995  -0.0001517   0.0022307  -0.0000044  -0.0000036  -0.9244583   0.3268988
1.1669773    -0.9997954  -0.0022223  -0.0001307   0.0023498  -0.0000009  -0.0000082  -0.9242727   0.3273953
1.1813232    -0.9996905  -0.0022489  -0.0000792   0.0023063  -0.0000031  -0.0000048  -0.9240773   0.3278585
1.1958455    -0.9997807  -0.0022406  -0.0001325   0.0023412   0.0000009   0.0000004  -0.9238039   0.3283554
1.2105463    -0.9998256  -0.0023365  -0.0001291   0.0024140  -0.0000031  -0.0000085  -0.9236208   0.3288517
1.2254278    -0.9996765  -0.0023217  -0.0000862   0.0024574  -0.0000064   0.0000002  -0.9233540   0.3293477
1.2404923    -0.9997735  -0.0023500  -0.0000776   0.0024266   0.0000005  -0.0000006  -0.9232183   0.3298264
1.2557420    -0.9997191  -0.0023716  -0.0000306   0.0024480   0.0000060  -0.0000034  -0.9229541   0.3303611
1.2711791    -0.9997540  -0.0023397  -0.0000464   0.0025357   0.0000058   0.0000032  -0.9226769   0.3308420
1.2868060    -0.9998220  -0.0024519  -0.0001469   0.0025423  -0.0000086   0.0000018  -0.9224299   0.3313969
1.3026251    -0.9997701  -0.0024867  -0.0000704   0.0025666   0.0000010  -0.0000178  -0.9221532   0.3319239
1.3186385    -0.9998792  -0.0024953  -0.0000891   0.0026264  -0.0000032  -0.0000001  -0.9219294   0.3324706
1.3348489    -0.9997070  -0.0025224  -0.0001064   0.0026423  -0.0000022  -0.0000067  -0.9217568   0.3330027
1.3512585    -0.9999247  -0.0026078  -0.0000423   0.0026788  -0.0000067  -0.0000152  -0.9214508   0.3335168
1.3678698    -0.9997295  -0.0025525  -0.0000153   0.0026580  -0.0000091  -0.0000157  -0.9212825   0.3340755
1.3846854    -0.9998711  -0.0026345  -0.0000274   0.0027419   0.0000027  -0.0000135  -0.9210106   0.3347380
1.4017077    -0.9997146  -0.0026758  -0.0000736   0.0027871   0.0000041   0.0000045  -0.9207423   0.3352204
1.4189392    -0.9996939  -0.0028160  -0.0000656   0.0028021   0.0000006   0.0000001  -0.9205003   0.3357456
1.4363825    -0.9998328  -0.0027742  -0.0000430   0.0028777  -0.0000072  -0.0000012  -0.9202484   0.3363581
1.4540403    -0.9997651  -0.0027465  -0.0000459   0.0028696  -0.0000064  -0.0000011  -0.9199559   0.3369570
1.4719152    -0.9997199  -0.0027952   0.0000241   0.0029219   0.0000078   0.0000075  -0.9197156   0.3376479
1.4900098    -0.9996690  -0.0027985   0.0000203   0.0028751   0.0000059  -0.0000025  -0.9193985   0.3381595
1.5083269    -0.9996940  -0.0027364   0.0000137   0.0030229  -0.0000053   0.0000013  -0.9191216   0.3387463
1.5268691    -0.9998569  -0.0029117  -0.0000186   0.0030484   0.0000075  -0.0000016  -0.9188447   0.3393919
1.5456392    -0.9997624  -0.0028991  -0.0000570   0.0030871  -0.0000034  -0.0000016  -0.9186352   0.3399954
1.5646402    -0.9998427  -0.0029973  -0.0000019   0.0031174   0.0000027  -0.0000022  -0.9183255   0.3407034
1.5838747    -0.9998052  -0.0029874   0.0000074   0.0031415  -0.0000058   0.0000018  -0.9180071   0.3413056
1.6033456    -0.9997641  -0.0030011   0.0000040   0.0031995  -0.0000038   0.0000005  -0.9178175   0.3419714
1.6230559    -0.9997945  -0.0029924   0.0000442   0.0031462   0.0000040  -0.0000088  -0.9174998   0.3426997
1.6430085    -0.9998018  -0.0030665   0.0000791   0.0032838  -0.0000092  -0.0000087  -0.9171685   0.3433497
1.6632064    -0.9997617  -0.0031746   0.0000061   0.0032916  -0.0000108  -0.0000073  -0.9168588   0.3440620
1.6836526    -0.9996909  -0.0032240  -0.0000153   0.0033216   0.0000037  -0.0000099  -0.9166106   0.3447857
1.7043502    -0.9997992  -0.0032302  -0.0000058   0.0033797   0.0000002  -0.0000113  -0.9161800   0.3455200
1.7253021    -0.9997948  -0.0032016   0.0000187   0.0034101  -0.0000079  -0.0000040  -0.9159925   0.3461715
1.7465117    -0.9998273  -0.0033501   0.0000501   0.0034321   0.0000025  -0.0000055  -0.9157903   0.3469968
1.7679820    -0.9998001  -0.0032668   0.0000623   0.0035453  -0.0000045   0.0000031  -0.9154066   0.3477171
1.7897162    -0.9999255  -0.0033124   0.0000418   0.0035575  -0.0000016  -0.0000074  -0.9151174   0.3484560
1.8117176    -0.9998706  -0.0034123   0.0000559   0.0035853  -0.0000088  -0.0000035  -0.9147761   0.3493066
1.8339895    -0.9998245  -0.0034038   0.0000505   0.0036461  -0.0000118  -0.0000034  -0.9144893   0.3500739
1.8565352    -0.9998750  -0.0034850   0.0000857   0.0036885  -0.0000061  -0.0000007  -0.9141587   0.3508992
1.8793580    -0.9997933  -0.0034433   0.0000944   0.0037965   0.0000050  -0.0000067  -0.9138773   0.3516445
1.9024614    -0.9997918  -0.0035963   0.0001080   0.0038332   0.0000034   0.0000019  -0.9136433   0.3524820
1.9258488    -0.9997712  -0.0035652   0.0001150   0.0038313  -0.0000040  -0.0000066  -0.9132013   0.3533232
1.9495237    -0.9998390  -0.0036370   0.0001468   0.0038182  -0.0000036  -0.0000086  -0.9128573   0.3542622
1.9734897    -0.9998472  -0.0036635   0.0001577   0.0039145  -0.0000027  -0.0000027  -0.9124967   0.3551210
1.9977503    -0.9998871  -0.0036899   0.0001459   0.0039234  -0.0000022  -0.0000100  -0.9121862   0.3560367
2.0223091    -0.9997328  -0.0037467   0.0001524   0.0039715   0.0000036  -0.0000066  -0.9117146   0.3569520
2.0471698    -0.9997180  -0.0038447   0.0001238   0.0040541   0.0000021  -0.0000058  -0.9112576   0.3578717
2.0723362    -0.9997722  -0.0038066   0.0001680   0.0040333  -0.0000052  -0.0000109  -0.9108508   0.3587810
2.0978119    -0.9996788  -0.0039826   0.0001538   0.0039531  -0.0000046  -0.0000081  -0.9103719   0.3597379
2.1236008    -0.9999412  -0.0039620   0.0001804   0.0040963  -0.0000093  -0.0000004  -0.9098752   0.3606545
2.1497067    -0.9998126  -0.0039541   0.0001250   0.0041991  -0.0000046  -0.0000022  -0.9093895   0.3616367
2.1761336    -0.9997819  -0.0040265   0.0001439   0.0042438  -0.0000068  -0.0000094  -0.9089004   0.3624516
2.2028853    -0.9999109  -0.0041807   0.0001893   0.0043041  -0.0000069  -0.0000036  -0.9082573   0.3634525
2.2299659    -0.9999450  -0.0041776   0.0001612   0.0043198  -0.0000041  -0.0000103  -0.9079217   0.3643863
2.2573794    -0.9998705  -0.0042151   0.0001721   0.0043582  -0.0000005   0.0000045  -0.9073349   0.3653268
2.2851299    -0.9999280  -0.0042178   0.0001817   0.0044101  -0.0000203  -0.0000078  -0.9067572   0.3662666
2.3132216    -0.9998657  -0.0042373   0.0001894   0.0044894  -0.0000061  -0.0000051  -0.9062437   0.3671181
2.3416586    -0.9997751  -0.0043034   0.0001938   0.0045105   0.0000013  -0.0000147  -0.9056892   0.3680784
2.3704451    -0.9999422  -0.0044158   0.0001957   0.0045526  -0.0000051  -0.0000091  -0.9051684   0.3691096
2.3995856    -0.9999501  -0.0043729   0.0002117   0.0046687  -0.0000066  -0.0000082  -0.9045189   0.3700807
2.4290843    -0.9998502  -0.0045526   0.0002275   0.0046827  -0.0000003  -0.0000136  -0.9041214   0.3709168
2.4589456    -0.9997937  -0.0044391   0.0002220   0.0046918  -0.0000015  -0.0000055  -0.9035454   0.3719175
2.4891740    -0.9998691  -0.0045388   0.0002446   0.0047640   0.0000065   0.0000046  -0.9030067   0.3729132
2.5197740    -0.9998854  -0.0047365   0.0002541   0.0048361  -0.0000101  -0.0000049  -0.9025121   0.3739415
2.5507502    -0.9997916  -0.0046988   0.0002338   0.0049306  -0.0000041   0.0000006  -0.9019500   0.3748543
2.5821072    -0.9998526  -0.0047703   0.0002220   0.0049282   0.0000005  -0.0000009  -0.9013914   0.3758758
2.6138496    -0.9997788  -0.0047683   0.0002578   0.0050207  -0.0000073  -0.0000027  -0.9007222   0.3768633
2.6459823    -0.9998677  -0.0048872   0.0002490   0.0050436  -0.0000029   0.0000048  -0.9001987   0.3779199
2.6785100    -0.9998753  -0.0049248   0.0002357   0.0050845  -0.0000082  -0.0000121  -0.8996597   0.3790409
2.7114376    -0.9998344  -0.0050105   0.0002645   0.0051019  -0.0000063  -0.0000062  -0.8990225   0.3800620
2.7447699    -0.9999077  -0.0050486   0.0002772   0.0052276   0.0000017  -0.0000063  -0.8984440   0.3810689
2.7785120    -0.9998654  -0.0051382   0.0003308   0.0053080  -0.0000026  -0.0000068  -0.8978285   0.3821643
2.8126689    -0.9999106  -0.0051544   0.0002638   0.0053345  -0.0000122   0.0000035  -0.8973122   0.3833147
2.8472457    -0.9999871  -0.0052678   0.0002950   0.0054010  -0.0000035  -0.0000070  -0.8967607   0.3844286
2.8822476    -0.9998912  -0.0052298   0.0003269   0.0055272   0.0000060   0.0000022  -0.8961782   0.3855124
2.9176798    -0.9998313  -0.0053320   0.0003559   0.0055080  -0.0000007  -0.0000141  -0.8955195   0.3866086
2.9535475    -0.9998487  -0.0054433   0.0002860   0.0056389  -0.0000058  -0.0000054  -0.8949483   0.3878070
2.9898562    -0.9997893  -0.0054124   0.0003296   0.0056593  -0.0000028  -0.0000049  -0.8942470   0.3890268
3.0266112    -0.9998529  -0.0055303   0.0004235   0.0056866  -0.0000014  -0.0000102  -0.8936296   0.3901293
3.0638180    -0.9998793  -0.0055351   0.0003868   0.0058432  -0.0000027  -0.0000106  -0.8929854   0.3913348
3.1014823    -0.9999709  -0.0057304   0.0004536   0.0058875   0.0000122   0.0000001  -0.8923790   0.3926033
3.1396096    -0.9998686  -0.0057303   0.0004535   0.0059144   0.0000007  -0.0000151  -0.8916534   0.3937399
3.1782055    -0.9998749  -0.0057334   0.0004055   0.0060035  -0.0000052  -0.0000060  -0.8910269   0.3950064
3.2172760    -0.9999738  -0.0058980   0.0003757   0.0060444  -0.0000021  -0.0000025  -0.8903442   0.3962763
3.2568267    -0.9998660  -0.0060316   0.0004228   0.0061226   0.0000000   0.0000010  -0.8897056   0.3975141
3.2968637    -0.9999389  -0.0059385   0.0003441   0.0061910   0.0000079  -0.0000071  -0.8889123   0.3988380
3.3373928    -0.9999139  -0.0060305   0.0004539   0.0062260  -0.0000055  -0.0000043  -0.8882090   0.4000991
3.3784202    -0.9998864  -0.0061564   0.0004401   0.0063410   0.0000017  -0.0000115  -0.8874257   0.4014749
3.4199519    -0.9999822  -0.0062101   0.0004026   0.0063413  -0.0000018  -0.0000072  -0.8867184   0.4027799
3.4619942    -0.9998815  -0.0063689   0.0003772   0.0064420   0.0000094  -0.0000015  -0.8859021   0.4040620
3.5045533    -0.9999610  -0.0063521   0.0004610   0.0065689  -0.0000130  -0.0000043  -0.8851955   0.4055343
3.5476356    -0.9998881  -0.0064992   0.0004009   0.0065606  -0.0000032  -0.0000072  -0.8844131   0.4068135
3.5912475    -0.9998727  -0.0065857   0.0004545   0.0066551   0.0000050  -0.0000068  -0.8835820   0.4081858
3.6353956    -0.9999117  -0.0067198   0.0004298   0.0067270  -0.0000033   0.0000033  -0.8828196   0.4096963
3.6800864    -0.9997255  -0.0066830   0.0004905   0.0068251  -0.0000019  -0.0000012  -0.8820544   0.4111741
3.7253266    -0.9998521  -0.0067788   0.0004911   0.0068722  -0.0000012   0.0000029  -0.8812237   0.4125975
3.7711229    -1.0000204  -0.0068498   0.0005098   0.0069767   0.0000036  -0.0000073  -0.8804596   0.4140384
3.8174822    -0.9998521  -0.0069498   0.0004815   0.0070192   0.0000054  -0.0000037  -0.8795996   0.4154965
3.8644115    -0.9999146  -0.0070541   0.0004775   0.0071594  -0.0000027  -0.0000005  -0.8788628   0.4170898
3.9119176    -0.9998783  -0.0072058   0.0004361   0.0071913   0.0000050  -0.0000047  -0.8780034   0.4186069
3.9600077    -1.0000480  -0.0071944   0.0005149   0.0073044  -0.0000003  -0.0000106  -0.8772529   0.4201030
4.0086890    -0.9999060  -0.0072591   0.0004965   0.0072795  -0.0000001  -0.0000011  -0.8762245   0.4216955
4.0579688    -0.9999991  -0.0073074   0.0004995   0.0074627   0.0000105  -0.0000087  -0.8753939   0.4232443
4.1078544    -1.0000022  -0.0075058   0.0005215   0.0075712   0.0000009  -0.0000062  -0.8745147   0.4247613
4.1583532    -0.9999649  -0.0075742   0.0004955   0.0076096  -0.0000076  -0.0000134  -0.8735491   0.4263804
4.2094729    -0.9999401  -0.0076028   0.0005139   0.0077189  -0.0000130  -0.0000085  -0.8727399   0.4279787
4.2612209    -0.9998990  -0.0077412   0.0005799   0.0077860   0.0000049  -0.0000003  -0.8717528   0.4295703
4.3136051    -0.9998934  -0.0077536   0.0005484   0.0078788   0.0000094  -0.0000038  -0.8707551   0.4312195
4.3666333    -0.9998395  -0.0079772   0.0005229   0.0079450  -0.0000042  -0.0000094  -0.8698497   0.4329018
4.4203134    -0.9998993  -0.0079415   0.0005306   0.0080780  -0.0000094  -0.0000055  -0.8687537   0.4345216
4.4746534    -0.9999218  -0.0080592   0.0004977   0.0080931  -0.0000100  -0.0000040  -0.8676684   0.4362446
4.5296613    -0.9998409  -0.0081313   0.0005180   0.0082070  -0.0000140  -0.0000062  -0.8666960   0.4379928
4.5853455    -0.9999111  -0.0083555   0.0004687   0.0083063   0.0000126  -0.0000056  -0.8655878   0.4397037
4.6417143    -0.9999594  -0.0083993   0.0005384   0.0084168   0.0000038  -0.0000010  -0.8644354   0.4412928
4.6987760    -0.9999328  -0.0084316   0.0005532   0.0084976  -0.0000146  -0.0000077  -0.8633619   0.4429503
4.7565392    -0.9999885  -0.0085533   0.0005372   0.0085271  -0.0000048  -0.0000118  -0.8622112   0.4446939
4.8150125    -0.9999567  -0.0086464   0.0005840   0.0086929   0.0000012  -0.0000054  -0.8610678   0.4463435
4.8742045    -0.9999566  -0.0088802   0.0005194   0.0087740   0.0000013  -0.0000100  -0.8598778   0.4479819
4.9341243    -1.0000412  -0.0090458   0.0005607   0.0089177  -0.0000079  -0.0000109  -0.8588102   0.4494953
4.9947807    -0.9999217  -0.0091248   0.0006023   0.0089952  -0.0000006  -0.0000013  -0.8578174   0.4510817
5.0561827    -0.9998640  -0.0090200   0.0005912   0.0090957  -0.0000007  -0.0000055  -0.8568059   0.4527803
5.1183396    -0.9999352  -0.0091866   0.0005537   0.0092030   0.0000014  -0.0000067  -0.8558557   0.4544847
5.1812606    -1.0000477  -0.0093501   0.0005894   0.0092633   0.0000041   0.0000007  -0.8549632   0.4562606
5.2449550    -1.0000153  -0.0094933   0.0006042   0.0093845  -0.0000038  -0.0000165  -0.8540537   0.4582926
5.3094325    -1.0000402  -0.0095904   0.0006373   0.0095060  -0.0000002  -0.0000129  -0.8530595   0.4601084
5.3747026    -1.0001206  -0.0096632   0.0006278   0.0096305  -0.0000032  -0.0000010  -0.8520304   0.4623129
5.4407751    -1.0001129  -0.0097929   0.0006174   0.0096918   0.0000050  -0.0000045  -0.8508710   0.4642557
5.5076599    -0.9999898  -0.0099153   0.0006203   0.0097776  -0.0000117  -0.0000096  -0.8497691   0.4663224
5.5753669    -1.0000168  -0.0101226   0.0005902   0.0098702   0.0000046  -0.0000046  -0.8485973   0.4684798
5.6439062    -0.9999297  -0.0101932   0.0005803   0.0100182   0.0000020  -0.0000020  -0.8474325   0.4705647
5.7132881    -0.9999836  -0.0103101   0.0006287   0.0101670  -0.0000053  -0.0000021  -0.8461542   0.4727491
5.7835229    -0.9999493  -0.0103119   0.0005947   0.0103302   0.0000120  -0.0000015  -0.8448744   0.4749231
5.8546211    -1.0000081  -0.0104451   0.0006161   0.0104018   0.0000019  -0.0000059  -0.8436650   0.4771559
5.9265934    -0.9999848  -0.0106893   0.0005843   0.0105295   0.0000031  -0.0000032  -0.8422969   0.4793258
5.9994504    -0.9999321  -0.0107585   0.0006261   0.0107125  -0.0000047  -0.0000054  -0.8409209   0.4814409
6.0732031    -1.0000542  -0.0110349   0.0006796   0.0107865  -0.0000113  -0.0000100  -0.8395623   0.4836481
6.1478624    -1.0001052  -0.0110242   0.0006361   0.0109443   0.0000063  -0.0000045  -0.8381859   0.4858738
6.2234396    -0.9999972  -0.0111830   0.0006065   0.0110504  -0.0000013  -0.0000036  -0.8366054   0.4881844
6.2999458    -1.0000702  -0.0113166   0.0005908   0.0111832  -0.0000015  -0.0000074  -0.8352632   0.4904485
6.3773925    -1.0000916  -0.0113881   0.0006333   0.0113071  -0.0000065  -0.0000109  -0.8337530   0.4927246
6.4557914    -1.0000614  -0.0115520   0.0006071   0.0114772   0.0000019  -0.0000044  -0.8322471   0.4949631
6.5351539    -1.0000002  -0.0118436   0.0006237   0.0116425  -0.0000016   0.0000001  -0.8307492   0.4973691
6.6154922    -1.0000284  -0.0118387   0.0006565   0.0117436   0.0000017  -0.0000067  -0.8291662   0.4997310
6.6968180    -1.0000478  -0.0120272   0.0006218   0.0118758  -0.0000013  -0.0000054  -0.8275994   0.5021189
6.7791436    -1.0000989  -0.0122252   0.0006557   0.0120406  -0.0000036  -0.0000061  -0.8260330   0.5044637
6.8624812    -1.0000007  -0.0123972   0.0006599   0.0121931  -0.0000017  -0.0000108  -0.8244187   0.5069328
6.9468433    -1.0000140  -0.0123742   0.0006837   0.0122887  -0.0000075   0.0000006  -0.8228260   0.5093485
7.0322425    -1.0000288  -0.0126509   0.0006652   0.0124885  -0.0000001  -0.0000017  -0.8211146   0.5118158
7.1186916    -1.0001315  -0.0127226   0.0006519   0.0126019   0.0000055  -0.0000068  -0.8194095   0.5143454
7.2062034    -1.0000197  -0.0128500   0.0006580   0.0128205  -0.0000054  -0.0000028  -0.8176992   0.5169044
7.2947909    -1.0000781  -0.0130914   0.0006928   0.0129153  -0.0000060  -0.0000003  -0.8159561   0.5194736
7.3844675    -1.0000640  -0.0132663   0.0007093   0.0130694  -0.0000109  -0.0000018  -0.8142863   0.5220747
7.4752466    -1.0001094  -0.0134556   0.0006699   0.0132417   0.0000062  -0.0000064  -0.8124937   0.5246904
7.5671416    -1.0000202  -0.0134550   0.0006653   0.0134208  -0.0000101   0.0000033  -0.8107805   0.5273408
7.6601662    -0.9999627  -0.0137097   0.0006360   0.0135632  -0.0000032  -0.0000058  -0.8089321   0.5300260
7.7543345    -1.0001082  -0.0138496   0.0006678   0.0137850  -0.0000011  -0.0000027  -0.8070409   0.5328550
7.8496604    -1.0000245  -0.0139773   0.0006731   0.0139461  -0.0000081  -0.0000079  -0.8052010   0.5356596
7.9461581    -0.9999008  -0.0143024   0.0007107   0.0140838  -0.0000041  -0.0000001  -0.8031845   0.5385086
8.0438422    -1.0001239  -0.0143934   0.0007111   0.0142926  -0.0000019   0.0000034  -0.8012046   0.5413537
8.1427270    -1.0001875  -0.0145129   0.0006882   0.0143866   0.0000042   0.0000010  -0.7990345   0.5443276
8.2428275    -1.0000821  -0.0147509   0.0007056   0.0146157   0.0000016   0.0000028  -0.7968067   0.5471867
8.3441586    -1.0001397  -0.0148592   0.0007293   0.0148093  -0.0000017   0.0000017  -0.7946318   0.5499687
8.4467353    -1.0000925  -0.0150985   0.0007540   0.0149516   0.0000085  -0.0000037  -0.7923743   0.5529673
8.5505731    -1.0000324  -0.0152099   0.0007285   0.0151423   0.0000036  -0.0000037  -0.7900742   0.5557386
8.6556873    -1.0000048  -0.0154661   0.0006931   0.0153082   0.0000022  -0.0000069  -0.7877981   0.5586649
8.7620937    -1.0001039  -0.0157479   0.0007691   0.0154984  -0.0000146  -0.0000022  -0.7855033   0.5615264
8.8698082    -1.0000731  -0.0158733   0.0008271   0.0157247   0.0000006  -0.0000076  -0.7831491   0.5644380
8.9788469    -1.0000405  -0.0160820   0.0008032   0.0159210   0.0000057  -0.0000060  -0.7808526   0.5673655
9.0892260    -1.0000165  -0.0162092   0.0008529   0.0161053  -0.0000017  -0.0000065  -0.7784899   0.5703176
9.2009621    -1.0000967  -0.0165091   0.0008422   0.0162850  -0.0000012  -0.0000011  -0.7759998   0.5733714
9.3140717    -1.0001296  -0.0166714   0.0008490   0.0165182   0.0000038   0.0000058  -0.7735743   0.5763568
9.4285718    -1.0000434  -0.0168042   0.0008642   0.0167481  -0.0000053  -0.0000121  -0.7711036   0.5794398
9.5444795    -1.0000081  -0.0170139   0.0008996   0.0168900  -0.0000082   0.0000062  -0.7685506   0.5825374
9.6618121    -1.0000839  -0.0172736   0.0009070   0.0171250   0.0000018  -0.0000043  -0.7660223   0.5856292
9.7805870    -1.0001262  -0.0174069   0.0008965   0.0173374   0.0000009   0.0000032  -0.7634060   0.5888029
9.9008221    -1.0000534  -0.0177206   0.0009211   0.0175290   0.0000039  -0.0000012  -0.7607542   0.5920226
10.0225353   -1.0000262  -0.0178560   0.0009242   0.0177405  -0.0000049  -0.0000083  -0.7581033   0.5951324
10.1457447   -1.0000496  -0.0181487   0.0009136   0.0179455  -0.0000039  -0.0000058  -0.7553612   0.5984296
10.2704688   -0.9999629  -0.0182439   0.0009338   0.0181766  -0.0000041  -0.0000085  -0.7526769   0.6017045
10.3967261   -1.0000589  -0.0185472   0.0009501   0.0183395  -0.0000061  -0.0000066  -0.7498397   0.6050384
10.5245356   -1.0001352  -0.0187035   0.0009731   0.0185551  -0.0000079  -0.0000076  -0.7469667   0.6082174
10.6539162   -1.0000462  -0.0189641   0.0009641   0.0188049   0.0000029   0.0000029  -0.7440703   0.6115378
10.7848873   -1.0001456  -0.0191880   0.0009428   0.0190641   0.0000005  -0.0000063  -0.7411368   0.6149778
10.9174685   -1.0000039  -0.0194190   0.0009393   0.0192880  -0.0000070  -0.0000035  -0.7381281   0.6183689
11.0516796   -1.0000128  -0.0196705   0.0010176   0.0195162  -0.0000045   0.0000037  -0.7349763   0.6217995
11.1875405   -1.0000749  -0.0198415   0.0010364   0.0197528   0.0000009  -0.0000076  -0.7319551   0.6253218
11.3250716   -1.0001609  -0.0201562   0.0010116   0.0199519  -0.0000013  -0.0000002  -0.7288001   0.6287838
11.4642934   -1.0001121  -0.0204302   0.0010403   0.0202210  -0.0000070  -0.0000020  -0.7255736   0.6322627
11.6052267   -1.0001164  -0.0206365   0.0010622   0.0204608  -0.0000104  -0.0000051  -0.7223402   0.6358978
11.7478926   -1.0001150  -0.0207844   0.0010759   0.0207164  -0.0000036   0.0000009  -0.7190147   0.6394037
11.8923122   -1.0000744  -0.0211590   0.0010537   0.0209446   0.0000007   0.0000002  -0.7156511   0.6429700
12.0385073   -1.0000498  -0.0213572   0.0011275   0.0211904  -0.0000075  -0.0000003  -0.7121713   0.6466395
12.1864995   -1.0001784  -0.0216510   0.0010844   0.0214632  -0.0000044  -0.0000095  -0.7086981   0.6502674
12.3363111   -1.0000870  -0.0218682   0.0011653   0.0217137  -0.0000098  -0.0000015  -0.7052440   0.6539590
12.4879643   -0.9999703  -0.0221028   0.0011421   0.0218983  -0.0000047  -0.0000026  -0.7015574   0.6576797
12.6414818   -1.0001061  -0.0224377   0.0011981   0.0222402   0.0000050  -0.0000068  -0.6978449   0.6613944
12.7968866   -1.0001634  -0.0226581   0.0011743   0.0224932   0.0000019  -0.0000131  -0.6941116   0.6651428
12.9542018   -1.0002177  -0.0229180   0.0012401   0.0227353   0.0000027   0.0000004  -0.6903715   0.6689079
13.1134509   -1.0000976  -0.0232009   0.0012145   0.0230464  -0.0000100  -0.0000035  -0.6864955   0.6727020
13.2746577   -1.0001479  -0.0235139   0.0012311   0.0233398  -0.0000033  -0.0000037  -0.6825288   0.6765492
13.4378462   -1.0001466  -0.0238881   0.0012553   0.0236723   0.0000116  -0.0000093  -0.6785797   0.6805044
13.6030409   -1.0000902  -0.0240136   0.0012695   0.0239199   0.0000024  -0.0000091  -0.6744924   0.6843455
13.7702663   -1.0000350  -0.0242598   0.0012744   0.0241783  -0.0000078   0.0000053  -0.6703140   0.6882447
13.9395475   -1.0001413  -0.0246555   0.0013156   0.0244850  -0.0000009  -0.0000010  -0.6661352   0.6921232
14.1109097   -1.0000416  -0.0249274   0.0013537   0.0247726  -0.0000038  -0.0000051  -0.6618006   0.6961022
14.2843785   -1.0000820  -0.0252844   0.0013136   0.0250450   0.0000052   0.0000030  -0.6574447   0.7000021
14.4599797   -1.0000354  -0.0254924   0.0013124   0.0253899   0.0000036  -0.0000067  -0.6530176   0.7040575
14.6377397   -1.0000430  -0.0258617   0.0013500   0.0256538  -0.0000093  -0.0000076  -0.6485291   0.7080584
14.8176850   -1.0000303  -0.0261968   0.0013711   0.0259781  -0.0000131   0.0000027  -0.6439510   0.7120446
14.9998423   -1.0000573  -0.0264940   0.0013109   0.0263171  -0.0000022  -0.0000131  -0.6392536   0.7161155
15.1842390   -0.9999891  -0.0267793   0.0013369   0.0266407  -0.0000130   0.0000049  -0.6344815   0.7202062
15.3709024   -1.0000537  -0.0270956   0.0014119   0.0269399  -0.0000048   0.0000017  -0.6297241   0.7242485
15.5598606   -1.0001012  -0.0274856   0.0014245   0.0272274  -0.0000054  -0.0000108  -0.6248621   0.7283607
15.7511417   -0.9999554  -0.0278429   0.0014210   0.0276104   0.0000019  -0.0000063  -0.6198680   0.7325479
15.9447743   -1.0000726  -0.0280678   0.0014819   0.0279228   0.0000020  -0.0000005  -0.6148227   0.7366409
16.1407872   -1.0000126  -0.0284631   0.0015133   0.0282887  -0.0000153  -0.0000110  -0.6095775   0.7408179
16.3392097   -1.0001033  -0.0287872   0.0015027   0.0286111  -0.0000056   0.0000011  -0.6043237   0.7450111
16.5400716   -1.0001443  -0.0292313   0.0015170   0.0289843  -0.0000077   0.0000002  -0.5990279   0.7492048
16.7434026   -0.9999407  -0.0294956   0.0016132   0.0292737  -0.0000112  -0.0000024  -0.5935454   0.7533613
16.9492333   -1.0000819  -0.0298248   0.0016411   0.0296778   0.0000049   0.0000022  -0.5880423   0.7577115
17.1575942   -1.0000028  -0.0301995   0.0016174   0.0300243  -0.0000039   0.0000064  -0.5824226   0.7618352
17.3685166   -1.0000329  -0.0306093   0.0016363   0.0304383  -0.0000002   0.0000013  -0.5767305   0.7661086
17.5820320   -1.0000825  -0.0309819   0.0016156   0.0307627  -0.0000036  -0.0000010  -0.5708657   0.7702965
17.7981721   -1.0000995  -0.0313902   0.0016377   0.0311526  -0.0000008  -0.0000063  -0.5649477   0.7746078
18.0169693   -1.0000770  -0.0317719   0.0016320   0.0315249  -0.0000148   0.0000015  -0.5589829   0.7788677
18.2384562   -1.0000579  -0.0322122   0.0017295   0.0318826  -0.0000088  -0.0000066  -0.5528978   0.7832294
18.4626659   -1.0001026  -0.0325127   0.0017218   0.0323006   0.0000017  -0.0000043  -0.5466180   0.7874117
18.6896319   -1.0000927  -0.0329688   0.0017595   0.0326767  -0.0000066   0.0000047  -0.5403799   0.7916946
18.9193880   -1.0000423  -0.0331920   0.0018027   0.0330731  -0.0000040  -0.0000020  -0.5338648   0.7960754
19.1519686   -0.9999948  -0.0337096   0.0018159   0.0334999   0.0000009  -0.0000067  -0.5272533   0.8003731
19.3874083   -1.0000479  -0.0341037   0.0018692   0.0338914  -0.0000090  -0.0000072  -0.5205907   0.8046701
19.6257423   -1.0000087  -0.0344673   0.0018760   0.0343579  -0.0000034  -0.0000054  -0.5139282   0.8090026
19.8670063   -0.9999541  -0.0348975   0.0019297   0.0347486  -0.0000003  -0.0000053  -0.5070653   0.8132444
20.1112361   -0.9999539  -0.0353601   0.0020113   0.0351257   0.0000014   0.0000039  -0.5000667   0.8175503
20.3584684   -0.9999894  -0.0357852   0.0020349   0.0355909  -0.0000109  -0.0000031  -0.4928451   0.8218131
20.6087399   -0.9999234  -0.0362837   0.0020881   0.0359498   0.0000064  -0.0000074  -0.4856078   0.8260492
20.8620881   -0.9999700  -0.0367145   0.0021013   0.0364152  -0.0000070   0.0000015  -0.4781752   0.8303917
21.1185507   -0.9999934  -0.0371357   0.0021383   0.0368499  -0.0000055   0.0000029  -0.4706816   0.8346281
21.3781661   -0.9998554  -0.0375907   0.0021627   0.0372454  -0.0000035  -0.0000010  -0.4630449   0.8387695
21.6409730   -0.9999694  -0.0379772   0.0022375   0.0377178  -0.0000039  -0.0000078  -0.4552968   0.8429882
21.9070107   -0.9999551  -0.0384166   0.0022632   0.0381575  -0.0000070   0.0000040  -0.4474480   0.8472129
22.1763188   -0.9998654  -0.0388687   0.0023024   0.0386108  -0.0000040   0.0000040  -0.4393970   0.8514093
22.4489376   -0.9999247  -0.0394186   0.0022901   0.0390826  -0.0000043  -0.0000038  -0.4312338   0.8556008
22.7249077   -0.9999146  -0.0398186   0.0023519   0.0395289  -0.0000006  -0.0000028  -0.4229033   0.8597198
23.0042705   -0.9998762  -0.0403852   0.0023968   0.0400778  -0.0000025   0.0000032  -0.4144679   0.8638397
23.2870675   -0.9998823  -0.0408509   0.0024504   0.0404981  -0.0000063   0.0000051  -0.4059703   0.8679089
23.5733409   -0.9998034  -0.0413922   0.0024694   0.0410825  -0.0000101  -0.0000119  -0.3971808   0.8719871
23.8631337   -0.9997324  -0.0419212   0.0025188   0.0415376  -0.0000095   0.0000009  -0.3882574   0.8759217
24.1564889   -0.9998214  -0.0424145   0.0025836   0.0420088  -0.0000145   0.0000020  -0.3793041   0.8799030
24.4534504   -0.9997587  -0.0428435   0.0026083   0.0425011  -0.0000039  -0.0000033  -0.3701540   0.8837846
24.7540625   -0.9997218  -0.0434624   0.0026493   0.0429676  -0.0000011  -0.0000056  -0.3608652   0.8877116
25.0583701   -0.9997682  -0.0439074   0.0027047   0.0434937   0.0000015  -0.0000007  -0.3513553   0.8915770
25.3664186   -0.9997908  -0.0444081   0.0027176   0.0440150  -0.0000058  -0.0000061  -0.3416299   0.8953736
25.6782541   -0.9997045  -0.0448625   0.0027544   0.0445402   0.0000039  -0.0000031  -0.3318719   0.8991532
25.9939230   -0.9997918  -0.0455482   0.0028208   0.0451639  -0.0000041  -0.0000050  -0.3219447   0.9027781
26.3134725   -0.9996349  -0.0461181   0.0028781   0.0456719   0.0000036  -0.0000035  -0.3118192   0.9063520
26.6369503   -0.9996144  -0.0466092   0.0029499   0.0462384  -0.0000030  -0.0000139  -0.3015927   0.9099376
26.9644047   -0.9996785  -0.0472111   0.0030083   0.0467469   0.0000019   0.0000037  -0.2911556   0.9134289
27.2958846   -0.9996812  -0.0476514   0.0031043   0.0473287  -0.0000076   0.0000021  -0.2805167   0.9167797
27.6314394   -0.9996488  -0.0482448   0.0030997   0.0478951  -0.0000017  -0.0000051  -0.2698048   0.9201340
27.9711193   -0.9995823  -0.0489281   0.0031229   0.0484282   0.0000071  -0.0000031  -0.2588429   0.9232956
28.3149750   -0.9994828  -0.0495140   0.0030983   0.0489896   0.0000039  -0.0000051  -0.2477763   0.9264440
28.6630578   -0.9995731  -0.0500424   0.0032099   0.0496167  -0.0000087  -0.0000003  -0.2365017   0.9294491
29.0154196   -0.9995789  -0.0507338   0.0032025   0.0502573  -0.0000064  -0.0000030  -0.2250419   0.9323611
29.3721131   -0.9995120  -0.0513304   0.0033379   0.0508827   0.0000014  -0.0000039  -0.2134533   0.9351741
29.7331915   -0.9994955  -0.0519952   0.0032464   0.0515287  -0.0000054  -0.0000036  -0.2016027   0.9379710
30.0987087   -0.9994338  -0.0526946   0.0033763   0.0521608  -0.0000033   0.0000123  -0.1897006   0.9405994
30.4687194   -0.9994747  -0.0532544   0.0034779   0.0528182  -0.0000021  -0.0000058  -0.1775500   0.9431766
30.8432786   -0.9994148  -0.0538726   0.0035356   0.0536269  -0.0000102   0.0000030  -0.1652043   0.9454509
31.2224424   -0.9993834  -0.0544786   0.0037489   0.0541400   0.0000061   0.0000027  -0.1527992   0.9476807
31.6062674   -0.9992941  -0.0552394   0.0038905   0.0548046  -0.0000091  -0.0000072  -0.1400337   0.9498177
31.9948108   -0.9992598  -0.0558590   0.0039777   0.0553637   0.0000000   0.0000043  -0.1271896   0.9518871
32.3881306   -0.9992959  -0.0564765   0.0040490   0.0559725  -0.0000007  -0.0000042  -0.1141830   0.9537462
32.7862857   -0.9993804  -0.0571818   0.0040907   0.0565886  -0.0000070  -0.0000062  -0.1009629   0.9553778
33.1893353   -0.9992565  -0.0578536   0.0042043   0.0571691  -0.0000018  -0.0000006  -0.0875903   0.9570247
33.5973398   -0.9992759  -0.0586571   0.0042246   0.0577753   0.0000037  -0.0000116  -0.0740442   0.9583378
34.0103599   -0.9992426  -0.0593823   0.0042152   0.0583780  -0.0000011   0.0000036  -0.0602129   0.9594876
34.4284574   -0.9990993  -0.0600438   0.0040726   0.0590053  -0.0000075  -0.0000028  -0.0465159   0.9606917
34.8516946   -0.9990509  -0.0608574   0.0038414   0.0597242  -0.0000053   0.0000028  -0.0322434   0.9616950
35.2801349   -0.9990513  -0.0615414   0.0037821   0.0607649  -0.0000032  -0.0000036  -0.0177784   0.9624635
35.7138420   -0.9989594  -0.0621707   0.0036883   0.0617798  -0.0000069  -0.0000060  -0.0032039   0.9628964
36.1528808   -0.9989598  -0.0630481   0.0039471   0.0628154  -0.0000086  -0.0000063   0.0115347   0.9632563
36.5973168   -0.9989873  -0.0637596   0.0042819   0.0637985   0.0000000  -0.0000055   0.0264333   0.9633738
37.0472164   -0.9988780  -0.0645733   0.0045484   0.0646681  -0.0000010  -0.0000025   0.0415912   0.9631242
37.5026467   -0.9988354  -0.0653235   0.0049505   0.0652330   0.0000005  -0.0000051   0.0569194   0.9628974
37.9636757   -0.9988863  -0.0660756   0.0052239   0.0660775  -0.0000025  -0.0000048   0.0726387   0.9619464
38.4303722   -0.9987081  -0.0669040   0.0054262   0.0667249   0.0000012  -0.0000023   0.0881824   0.9611452
38.9028060   -0.9987998  -0.0677539   0.0055895   0.0674132   0.0000032   0.0000041   0.1040381   0.9599848
39.3810475   -0.9986450  -0.0685719   0.0057405   0.0681562  -0.0000019   0.0000034   0.1201362   0.9586652
39.8651681   -0.9986765  -0.0695108   0.0058339   0.0687377  -0.0000008   0.0000047   0.1362896   0.9569852
40.3552402   -0.9985802  -0.0702938   0.0059395   0.0696650   0.0000052   0.0000025   0.1527017   0.9550329
40.8513368   -0.9984936  -0.0712157   0.0061319   0.0703481  -0.0000009  -0.0000083   0.1693457   0.9526915
41.3535320   -0.9985277  -0.0719885   0.0062015   0.0710716  -0.0000069  -0.0000035   0.1860114   0.9501695
41.8619009   -0.9984001  -0.0727495   0.0062818   0.0718613  -0.0000012   0.0000013   0.2030277   0.9472720
42.3765193   -0.9983661  -0.0736444   0.0063785   0.0725892   0.0000010  -0.0000008   0.2201222   0.9440599
42.8974639   -0.9983431  -0.0746276   0.0065843   0.0734288  -0.0000026   0.0000052   0.2373514   0.9404513
43.4248127   -0.9982043  -0.0754936   0.0065723   0.0741832   0.0000010  -0.0000060   0.2547651   0.9366341
43.9586443   -0.9981890  -0.0763609   0.0066096   0.0749669   0.0000045  -0.0000092   0.2723270   0.9323410
44.4990385   -0.9980929  -0.0772907   0.0067145   0.0758641  -0.0000060   0.0000010   0.2900678   0.9276746
45.0460758   -0.9980947  -0.0782494   0.0066618   0.0765618   0.0000030   0.0000042   0.3079234   0.9226692
45.5998380   -0.9981094  -0.0792802   0.0068544   0.0775853  -0.0000014  -0.0000026   0.3258964   0.9172927
46.1604077   -0.9979058  -0.0800222   0.0069683   0.0783662  -0.0000057  -0.0000096   0.3439905   0.9114112
46.7278686   -0.9978893  -0.0810215   0.0069284   0.0790772  -0.0000078  -0.0000061   0.3622095   0.9051561
47.3023055   -0.9977296  -0.0820540   0.0069793   0.0799026  -0.0000035   0.0000063   0.3805383   0.8984954
47.8838040   -0.9976535  -0.0829862   0.0066691   0.0805738   0.0000035  -0.0000116   0.3990787   0.8913030
48.4724511   -0.9975240  -0.0841291   0.0065154   0.0814827  -0.0000043   0.0000037   0.4175483   0.8837820
49.0683345   -0.9975486  -0.0851484   0.0061449   0.0826783  -0.0000065   0.0000016   0.4362200   0.8757527
49.6715433   -0.9973838  -0.0861738   0.0059985   0.0840053  -0.0000056  -0.0000091   0.4548566   0.8672616
50.2821675   -0.9974573  -0.0871632   0.0061291   0.0849887  -0.0000049  -0.0000026   0.4737366   0.8581977
50.9002982   -0.9972757  -0.0882111   0.0055738   0.0858606  -0.0000001  -0.0000023   0.4925113   0.8486204
51.5260277   -0.9972105  -0.0892669   0.0052192   0.0872071   0.0000016  -0.0000145   0.5114078   0.8386844
52.1594495   -0.9970329  -0.0904086   0.0044799   0.0891562   0.0000007  -0.0000111   0.5302185   0.8281260
52.8006581   -0.9969239  -0.0914813   0.0045362   0.0914662   0.0000019  -0.0000070   0.5491565   0.8169084
53.4497492   -0.9968120  -0.0926084   0.0052608   0.0934216   0.0000038  -0.0000035   0.5682259   0.8053365
54.1068198   -0.9967791  -0.0938119   0.0062161   0.0953758   0.0000014  -0.0000070   0.5870810   0.7931806
54.7719678   -0.9967177  -0.0948970   0.0072566   0.0961518  -0.0000080  -0.0000108   0.6059003   0.7804755
55.4452927   -0.9965718  -0.0960790   0.0073896   0.0968239  -0.0000031   0.0000036   0.6248029   0.7668483
56.1268950   -0.9964959  -0.0971854   0.0072838   0.0983238  -0.0000012  -0.0000006   0.6436129   0.7528409
56.8168763   -0.9963139  -0.0983830   0.0075917   0.0999231  -0.0000113  -0.0000002   0.6623330   0.7382715
57.5153398   -0.9962550  -0.0995835   0.0084908   0.1016939  -0.0000006  -0.0000099   0.6809259   0.7230836
58.2223896   -0.9961083  -0.1008301   0.0094603   0.1025196   0.0000062  -0.0000063   0.6993919   0.7071741
58.9381314   -0.9960319  -0.1019175   0.0099117   0.1032522   0.0000077  -0.0000018   0.7177304   0.6906869
59.6626719   -0.9958148  -0.1032586   0.0099482   0.1041034   0.0000018  -0.0000044   0.7358872   0.6734457
60.3961194   -0.9958161  -0.1043872   0.0097236   0.1051082  -0.0000076  -0.0000076   0.7539451   0.6555725
61.1385834   -0.9957545  -0.1057558   0.0096968   0.1069602   0.0000077  -0.0000151   0.7717916   0.6369847
61.8901746   -0.9956122  -0.1071134   0.0100426   0.1083341  -0.0000007  -0.0000055   0.7892939   0.6177425
62.6510053   -0.9954330  -0.1084257   0.0103268   0.1097171  -0.0000042  -0.0000129   0.8065969   0.5978861
63.4211891   -0.9952432  -0.1096413   0.0104446   0.1111293  -0.0000005   0.0000010   0.8236544   0.5771804
64.2008409   -0.9950947  -0.1110320   0.0103265   0.1130906  -0.0000013  -0.0000071   0.8403290   0.5559154
64.9900772   -0.9949421  -0.1123740   0.0113256   0.1153053   0.0000060  -0.0000039   0.8567017   0.5338548
65.7890158   -0.9948842  -0.1137063   0.0123404   0.1167632   0.0000066  -0.0000067   0.8726612   0.5111127
66.5977759   -0.9947403  -0.1151590   0.0131625   0.1177970  -0.0000110   0.0000004   0.8881822   0.4875516
67.4164783   -0.9945084  -0.1164991   0.0136262   0.1192306   0.0000024  -0.0000098   0.9034119   0.4632958
68.2452452   -0.9944409  -0.1178908   0.0142658   0.1204795  -0.0000016  -0.0000030   0.9180764   0.4384124
69.0842003   -0.9941897  -0.1192680   0.0147996   0.1216566  -0.0000021  -0.0000152   0.9322427   0.4127304
69.9334689   -0.9941578  -0.1207996   0.0152978   0.1229097  -0.0000106  -0.0000085   0.9455765   0.3863505
70.7931778   -0.9938000  -0.1221840   0.0158790   0.1240081   0.0000082  -0.0000021   0.9591080   0.3591561
71.6634552   -0.9935570  -0.1235582   0.0157110   0.1250001  -0.0000035  -0.0000070   0.9716677   0.3310241
72.5444312   -0.9933819  -0.1251949   0.0154668   0.1264914   0.0000123   0.0000005   0.9836817   0.3023485
73.4362373   -0.9932399  -0.1266694   0.0152867   0.1282055  -0.0000012  -0.0000107   0.9948434   0.2729349
74.3390065   -0.9931911  -0.1282378   0.0155332   0.1303658   0.0000080  -0.0000129   1.0046945   0.2431284
75.2528737   -0.9929072  -0.1297713   0.0161134   0.1326819  -0.0000040  -0.0000102   1.0143737   0.2123149
76.1779753   -0.9926951  -0.1313179   0.0171041   0.1345865  -0.0000051  -0.0000124   1.0232854   0.1808396
77.1144493   -0.9925138  -0.1329286   0.0179035   0.1362737  -0.0000026  -0.0000045   1.0313023   0.1486103
78.0624357   -0.9922474  -0.1344576   0.0188936   0.1378474  -0.0000029  -0.0000080   1.0384154   0.1157628
79.0220759   -0.9921049  -0.1360907   0.0196858   0.1391406   0.0000002  -0.0000036   1.0445212   0.0821697
79.9935132   -0.9917870  -0.1377750   0.0201250   0.1402192   0.0000041  -0.0000131   1.0496229   0.0480313
80.9768926   -0.9915692  -0.1394897   0.0200096   0.1416639  -0.0000064  -0.0000116   1.0537186   0.0132410
81.9723609   -0.9913285  -0.1410542   0.0200684   0.1439924   0.0000053  -0.0000071   1.0567157  -0.0222640
82.9800667   -0.9910973  -0.1429026   0.0206779   0.1460122  -0.0000016  -0.0000180   1.0586042  -0.0582525
84.0001605   -0.9908112  -0.1446008   0.0211964   0.1484400   0.0000053  -0.0000160   1.0593000  -0.0947391
85.0327946   -0.9906689  -0.1464012   0.0225846   0.1505595   0.0000022  -0.0000081   1.0586965  -0.1319093
86.0781231   -0.9903776  -0.1481028   0.0238647   0.1524574   0.0000029  -0.0000101   1.0568105  -0.1694968
87.1363020   -0.9900869  -0.1499290   0.0250926   0.1541005   0.0000048  -0.0000041   1.0536046  -0.2074041
88.2074894   -0.9898359  -0.1516688   0.0260119   0.1551336  -0.0000051  -0.0000155   1.0489040  -0.2458368
89.2918452   -0.9894807  -0.1535316   0.0268941   0.1569552  -0.0000005  -0.0000021   1.0430306  -0.2849234
90.3895312   -0.9892235  -0.1553844   0.0276670   0.1582463  -0.0000024  -0.0000180   1.0355088  -0.3237174
91.5007114   -0.9890197  -0.1571483   0.0282729   0.1595015  -0.0000084  -0.0000163   1.0264270  -0.3630294
92.6255515   -0.9886770  -0.1591024   0.0284872   0.1608557  -0.0000034  -0.0000041   1.0155656  -0.4024850
93.7642195   -0.9882334  -0.1608915   0.0286510   0.1626379  -0.0000052  -0.0000188   1.0031624  -0.4420937
94.9168855   -0.9879586  -0.1629557   0.0292773   0.1649690  -0.0000125  -0.0000104   0.9892346  -0.4818269
96.0837215   -0.9877048  -0.1648940   0.0302417   0.1667799  -0.0000039  -0.0000178   0.9734644  -0.5215695
97.2649017   -0.9873046  -0.1670183   0.0307695   0.1683682  -0.0000004  -0.0000104   0.9559370  -0.5609835
98.4606024   -0.9869476  -0.1689644   0.0312007   0.1700127  -0.0000038  -0.0000064   0.9365502  -0.6005025
99.6710021   -0.9866357  -0.1708531   0.0312378   0.1717702  -0.0000145  -0.0000062   0.9153443  -0.6396754
100.8962816  -0.9862303  -0.1729472   0.0309779   0.1740060  -0.0000102  -0.0000124   0.8922365  -0.6784421
102.1366237  -0.9857640  -0.1749599   0.0309488   0.1771745   0.0000052  -0.0000179   0.8671283  -0.7166929
103.3922136  -0.9852368  -0.1771262   0.0317992   0.1809430  -0.0000096  -0.0000112   0.8401955  -0.7544722
104.6632389  -0.9848996  -0.1792857   0.0341291   0.1838990  -0.0000105  -0.0000055   0.8113415  -0.7912682
105.9498891  -0.9841133  -0.1812712   0.0363895   0.1849261  -0.0000069  -0.0000089   0.7803574  -0.8250929
107.2523564  -0.9843438  -0.1837028   0.0382866   0.1877458  -0.0000016  -0.0000085   0.7458400  -0.8653272
108.5708353  -0.9839907  -0.1858416   0.0396030   0.1892353  -0.0000106  -0.0000041   0.7121824  -0.8993932
109.9055225  -0.9829269  -0.1878325   0.0402980   0.1890230   0.0000076  -0.0000064   0.6774515  -0.9319120
111.2566174  -0.9827176  -0.1901625   0.0408691   0.1915768  -0.0000017  -0.0000120   0.6366632  -0.9623526
112.6243216  -0.9823813  -0.1924113   0.0414175   0.1934580   0.0000017  -0.0000150   0.5956314  -0.9930429
114.0088393  -0.9818848  -0.1948798   0.0421429   0.1952220  -0.0000127  -0.0000032   0.5528684  -1.0220177
115.4103773  -0.9814924  -0.1970476   0.0423670   0.1969786  -0.0000076  -0.0000214   0.5080600  -1.0493846
116.8291446  -0.9809436  -0.1993827   0.0424524   0.1991948   0.0000125  -0.0000049   0.4616156  -1.0748125
118.2653533  -0.9804855  -0.2017294   0.0424837   0.2010058  -0.0000004  -0.0000118   0.4131618  -1.0983546
119.7192175  -0.9798594  -0.2040889   0.0422017   0.2037310  -0.0000147  -0.0000006   0.3630310  -1.1198741
121.1909545  -0.9793132  -0.2066239   0.0420769   0.2065558  -0.0000096  -0.0000137   0.3112472  -1.1389094
122.6807839  -0.9785691  -0.2090016   0.0414964   0.2098355  -0.0000186  -0.0000183   0.2578829  -1.1556283
124.1889281  -0.9779056  -0.2114191   0.0411242   0.2141897   0.0000025  -0.0000021   0.2030196  -1.1697805
125.7156123  -0.9774209  -0.2141048   0.0408723   0.2182941  -0.0000108  -0.0000053   0.1468018  -1.1813263
127.2610644  -0.9767652  -0.2166271   0.0421515   0.2240505  -0.0000061  -0.0000096   0.0899457  -1.1898236
128.8255151  -0.9761403  -0.2193105   0.0433741   0.2291665  -0.0000125  -0.0000101   0.0310541  -1.1954536
130.4091980  -0.9755529  -0.2220762   0.0461611   0.2348033  -0.0000132  -0.0000125  -0.0282397  -1.1979713
132.0123495  -0.9748097  -0.2246185   0.0497146   0.2389183  -0.0000062  -0.0000027  -0.0885005  -1.1971293
133.6352088  -0.9742193  -0.2275644   0.0527314   0.2439697  -0.0000239  -0.0000059  -0.1491135  -1.1931309
135.2780184  -0.9735729  -0.2303312   0.0574924   0.2473443  -0.0000031  -0.0000057  -0.2103454  -1.1854267
136.9410235  -0.9728114  -0.2329668   0.0612499   0.2503801  -0.0000093  -0.0000137  -0.2717939  -1.1740384
138.6244722  -0.9722410  -0.2357006   0.0652752   0.2526232  -0.0000096  -0.0000023  -0.3330388  -1.1591738
140.3286160  -0.9716669  -0.2385049   0.0685260   0.2542973  -0.0000127  -0.0000127  -0.3943408  -1.1406394
142.0537093  -0.9709010  -0.2411716   0.0714833   0.2563359  -0.0000183  -0.0000196  -0.4577303  -1.1193078
143.8000095  -0.9699682  -0.2443054   0.0741922   0.2581257  -0.0000058   0.0000000  -0.5114804  -1.0920313
145.5677774  -0.9694564  -0.2469618   0.0772151   0.2608054   0.0000058  -0.0000122  -0.5686752  -1.0596310
147.3572769  -0.9688199  -0.2499634   0.0797672   0.2621475  -0.0000021  -0.0000169  -0.6296031  -1.0274029
149.1687752  -0.9677516  -0.2527997   0.0820188   0.2640861   0.0000015  -0.0000091  -0.6842854  -0.9897038
151.0025426  -0.9670200  -0.2558894   0.0845561   0.2660787  -0.0000053  -0.0000193  -0.7376444  -0.9478988
152.8588530  -0.9661425  -0.2589138   0.0866267   0.2682899  -0.0000013  -0.0000092  -0.7884430  -0.9023780
154.7379834  -0.9653617  -0.2619455   0.0889006   0.2705997  -0.0000086  -0.0000110  -0.8368112  -0.8532143
156.6402144  -0.9645174  -0.2649821   0.0911912   0.2728430  -0.0000084  -0.0000061  -0.8822036  -0.8005717
158.5658301  -0.9636291  -0.2682436   0.0934035   0.2751604  -0.0000037   0.0000147  -0.9241073  -0.7445390
160.5151177  -0.9628456  -0.2711392   0.0957816   0.2771904   0.0000014  -0.0000065  -0.9630209  -0.6849737
162.4883685  -0.9615179  -0.2753523   0.0978760   0.2807324   0.0000013  -0.0000028  -0.9967976  -0.6237559
164.4858769  -0.9606733  -0.2774454   0.1001140   0.2816999   0.0000046  -0.0000033  -1.0278789  -0.5582318
166.5079411  -0.9595383  -0.2810005   0.1022659   0.2842082  -0.0000070  -0.0000102  -1.0539276  -0.4910024
168.5548630  -0.9584522  -0.2842320   0.1042905   0.2868753  -0.0000107   0.0000016  -1.0755896  -0.4214285
170.6269483  -0.9574913  -0.2875200   0.1059477   0.2894083  -0.0000006  -0.0000172  -1.0920161  -0.3500769
172.7245062  -0.9563712  -0.2909073   0.1079654   0.2925777   0.0000046  -0.0000030  -1.1035268  -0.2774294
174.8478498  -0.9552490  -0.2942703   0.1100136   0.2957073   0.0000061  -0.0000036  -1.1094082  -0.2032648
176.9972963  -0.9541500  -0.2975239   0.1118334   0.2991442   0.0000235  -0.0000062  -1.1102204  -0.1277967
179.1731664  -0.9522280  -0.3033633   0.1142147   0.3050772  -0.0000187  -0.0000088  -1.1019377  -0.0580540
181.3757850  -0.9524601  -0.3051776   0.1167928   0.3068997  -0.0000020  -0.0000058  -1.0923748   0.0172629
183.6054809  -0.9504304  -0.3085285   0.1190438   0.3112386  -0.0000115  -0.0000014  -1.0773858   0.0954521
185.8625870  -0.9493635  -0.3122099   0.1222620   0.3157539  -0.0000271  -0.0000083  -1.0548059   0.1676861
188.1474402  -0.9476788  -0.3158581   0.1261145   0.3206111  -0.0000045  -0.0000041  -1.0266452   0.2388777
190.4603817  -0.9463533  -0.3194572   0.1305690   0.3247294  -0.0000241  -0.0000166  -0.9928692   0.3077410
192.8017567  -0.9455121  -0.3237289   0.1357334   0.3285091   0.0000113  -0.0000080  -0.9528826   0.3737659
195.1719148  -0.9440068  -0.3272460   0.1404914   0.3312868  -0.0000411   0.0000164  -0.9079903   0.4365081
197.5712099  -0.9432733  -0.3310598   0.1451024   0.3338339   0.0000064  -0.0000064  -0.8584258   0.4960860
200.0000000  -0.9414270  -0.3355937   0.1495466   0.3368676  -0.0000129  -0.0000066  -0.8026131   0.5505821
