! ListType=Log
# MHZ S RI R 50
0.0010000    -0.9970245  -0.0004296  -0.0007728   0.0010428  -0.0000115  -0.0000299  -0.9088780   0.2599563
0.0010123    -0.9969422  -0.0002037  -0.0005512   0.0004179   0.0000121  -0.0000287  -0.9094622   0.2603417
0.0010247    -0.9964166  -0.0006129  -0.0001382   0.0004580  -0.0000157   0.0000266  -0.9095897   0.2591301
0.0010373    -0.9964423  -0.0004027  -0.0004210   0.0007173  -0.0000085  -0.0000056  -0.9097936   0.2598523
0.0010501    -0.9964271  -0.0004384  -0.0008724   0.0004813  -0.0000136  -0.0000118  -0.9091506   0.2596915
0.0010630    -0.9971467   0.0000225  -0.0005212   0.0004370   0.0000229   0.0000125  -0.9105505   0.2595735
0.0010761    -0.9966985  -0.0002031  -0.0002707   0.0005644  -0.0000149   0.0000095  -0.9107037   0.2587981
0.0010893    -0.9966839  -0.0000669  -0.0003630   0.0006596   0.0000198  -0.0000037  -0.9110865   0.2599258
0.0011027    -0.9968494  -0.0004750  -0.0002962   0.0005338   0.0000030  -0.0000187  -0.9110775   0.2587990
0.0011162    -0.9968286  -0.0003482  -0.0003197   0.0005745  -0.0000056   0.0000030  -0.9120701   0.2584382
0.0011300    -0.9966682  -0.0003602  -0.0004168   0.0007306  -0.0000259  -0.0000173  -0.9112969   0.2587179
0.0011439    -0.9964854  -0.0002171  -0.0006587   0.0005030   0.0000190  -0.0000020  -0.9120502   0.2590832
0.0011579    -0.9965206  -0.0003867  -0.0002074   0.0006721  -0.0000080   0.0000011  -0.9120575   0.2578675
0.0011721    -0.9967762  -0.0002321  -0.0004750   0.0004481   0.0000114  -0.0000118  -0.9124015   0.2585311
0.0011866    -0.9966840  -0.0001125  -0.0008026   0.0005761  -0.0000454  -0.0000152  -0.9122040   0.2582435
0.0012011    -0.9969136  -0.0003410  -0.0001887   0.0001551  -0.0000151   0.0000003  -0.9128818   0.2582597
0.0012159    -0.9966974  -0.0003698  -0.0002567   0.0004850   0.0000208   0.0000031  -0.9136437   0.2584854
0.0012309    -0.9966323  -0.0004170  -0.0003698   0.0003883   0.0000094   0.0000109  -0.9137401   0.2577885
0.0012460    -0.9967779  -0.0004149  -0.0006962   0.0002768  -0.0000062  -0.0000060  -0.9134154   0.2581256
0.0012613    -0.9968082  -0.0003465  -0.0004009   0.0004744   0.0000269  -0.0000021  -0.9147353   0.2579363
0.0012768    -0.9967965  -0.0003381  -0.0004782   0.0005979  -0.0000207   0.0000053  -0.9141770   0.2576231
0.0012925    -0.9968963  -0.0005388  -0.0004113   0.0002950   0.0000140   0.0000076  -0.9151106   0.2580592
0.0013084    -0.9967690  -0.0003937  -0.0006848   0.0003386  -0.0000049   0.0000097  -0.9149123   0.2575421
0.0013245    -0.9963214  -0.0001689  -0.0003959   0.0005085   0.0000181  -0.0000016  -0.9155488   0.2580240
0.0013408    -0.9966319  -0.0003702  -0.0005288   0.0005551   0.0000024  -0.0000096  -0.9153819   0.2572752
0.0013572    -0.9970289  -0.0003671  -0.0004494   0.0006793   0.0000187   0.0000077  -0.9163567   0.2576933
0.0013739    -0.9970111  -0.0001739  -0.0002797   0.0004167   0.0000133   0.0000164  -0.9162218   0.2575399
0.0013908    -0.9969554  -0.0002130  -0.0005161   0.0005248   0.0000136   0.0000045  -0.9169530   0.2576089
0.0014079    -0.9966249  -0.0002171  -0.0003605   0.0002708  -0.0000214  -0.0000005  -0.9167295   0.2573538
0.0014252    -0.9966967  -0.0002126  -0.0004874   0.0005998   0.0000186   0.0000247  -0.9176592   0.2572531
0.0014427    -0.9966499   0.0000481  -0.0003478   0.0002195  -0.0000097  -0.0000156  -0.9173659   0.2571991
0.0014605    -0.9967369  -0.0002705  -0.0004720   0.0003235   0.0000009  -0.0000180  -0.9180822   0.2573986
0.0014784    -0.9969499  -0.0003363  -0.0002564   0.0007986  -0.0000049   0.0000082  -0.9178605   0.2569127
0.0014966    -0.9967473  -0.0002695  -0.0004896   0.0004126   0.0000002  -0.0000287  -0.9186111   0.2574162
0.0015150    -0.9966633  -0.0001838  -0.0004172   0.0004750   0.0000270   0.0000241  -0.9189818   0.2573396
0.0015336    -0.9968332  -0.0002169  -0.0006085   0.0002973  -0.0000074  -0.0000028  -0.9190102   0.2570696
0.0015525    -0.9967788  -0.0001542  -0.0004896   0.0005730  -0.0000076  -0.0000167  -0.9190290   0.2573496
0.0015716    -0.9969438  -0.0003449  -0.0003043   0.0004122   0.0000126  -0.0000211  -0.9196280   0.2571869
0.0015909    -0.9968387  -0.0004190  -0.0003074   0.0008522   0.0000100  -0.0000345  -0.9199847   0.2575694
0.0016104    -0.9967931  -0.0002317  -0.0003196   0.0006413  -0.0000243   0.0000094  -0.9203199   0.2569523
0.0016302    -0.9969902  -0.0003753  -0.0002930   0.0001121   0.0000135  -0.0000063  -0.9203642   0.2573044
0.0016503    -0.9966881  -0.0002119  -0.0001788   0.0003226   0.0000088  -0.0000100  -0.9213751   0.2574882
0.0016706    -0.9965673  -0.0004899  -0.0006187   0.0002902   0.0000033  -0.0000045  -0.9211996   0.2574022
0.0016911    -0.9968549  -0.0002101  -0.0002837   0.0003707  -0.0000210  -0.0000159  -0.9218180   0.2570958
0.0017119    -0.9966932  -0.0001376  -0.0002871   0.0003115  -0.0000161  -0.0000298  -0.9218589   0.2574357
0.0017329    -0.9968718  -0.0003281  -0.0003219   0.0002486  -0.0000031   0.0000134  -0.9220861   0.2573962
0.0017542    -0.9967439  -0.0004682  -0.0005384   0.0003271   0.0000071   0.0000175  -0.9225671   0.2571541
0.0017758    -0.9969196  -0.0002967  -0.0005223   0.0005194  -0.0000018  -0.0000029  -0.9227763   0.2574617
0.0017976    -0.9969210  -0.0000658  -0.0006907   0.0003844   0.0000059  -0.0000063  -0.9233452   0.2574793
0.0018197    -0.9966649  -0.0001930  -0.0004618   0.0003989  -0.0000150  -0.0000040  -0.9231438   0.2573279
0.0018421    -0.9966199  -0.0003399  -0.0003610   0.0003573   0.0000151  -0.0000070  -0.9238326   0.2577191
0.0018648    -0.9967460  -0.0001416  -0.0005120   0.0002458  -0.0000028   0.0000040  -0.9239003   0.2574820
0.0018877    -0.9968674  -0.0003428  -0.0004560   0.0002233  -0.0000105  -0.0000158  -0.9239804   0.2577066
0.0019109    -0.9968063  -0.0003580  -0.0004641   0.0003403  -0.0000036   0.0000066  -0.9248491   0.2579357
0.0019344    -0.9968122  -0.0003651  -0.0004705   0.0003237  -0.0000050  -0.0000064  -0.9247153   0.2577397
0.0019582    -0.9968219  -0.0005501  -0.0003147   0.0004920   0.0000018  -0.0000051  -0.9248236   0.2579512
0.0019822    -0.9967036  -0.0004227  -0.0003098   0.0004598   0.0000061   0.0000007  -0.9256894   0.2580907
0.0020066    -0.9970074  -0.0002592  -0.0006334   0.0004711   0.0000030   0.0000010  -0.9257598   0.2582423
0.0020313    -0.9969705  -0.0004285  -0.0003568   0.0003098   0.0000072   0.0000076  -0.9261621   0.2581689
0.0020562    -0.9968257  -0.0002112  -0.0004629   0.0003024  -0.0000161  -0.0000018  -0.9265384   0.2580705
0.0020815    -0.9967677  -0.0003830  -0.0004833   0.0002654   0.0000003  -0.0000015  -0.9265952   0.2584793
0.0021071    -0.9968808  -0.0006238  -0.0003106   0.0003033  -0.0000104  -0.0000033  -0.9270215   0.2585237
0.0021330    -0.9967022  -0.0003125  -0.0004070   0.0003797  -0.0000010  -0.0000229  -0.9272019   0.2587586
0.0021592    -0.9968138  -0.0001647  -0.0004772   0.0003120  -0.0000025  -0.0000190  -0.9277383   0.2588852
0.0021858    -0.9969737  -0.0003514  -0.0004486   0.0002317  -0.0000026  -0.0000044  -0.9279115   0.2586740
0.0022126    -0.9969751  -0.0005105  -0.0004612   0.0002024  -0.0000054  -0.0000144  -0.9280733   0.2590422
0.0022398    -0.9968392  -0.0002863  -0.0004201   0.0002185  -0.0000122   0.0000062  -0.9283379   0.2590142
0.0022674    -0.9969563  -0.0003026  -0.0004182   0.0003382   0.0000047  -0.0000181  -0.9287816   0.2593020
0.0022953    -0.9967824  -0.0001423  -0.0004861   0.0002608   0.0000060  -0.0000025  -0.9290308   0.2594769
0.0023235    -0.9968200  -0.0001897  -0.0004604   0.0003163  -0.0000061  -0.0000002  -0.9294341   0.2594680
0.0023520    -0.9967187  -0.0003165  -0.0004398   0.0003537  -0.0000078  -0.0000054  -0.9292532   0.2594361
0.0023809    -0.9968661  -0.0003175  -0.0004581   0.0002625  -0.0000079   0.0000077  -0.9299422   0.2596373
0.0024102    -0.9966752  -0.0003015  -0.0005585   0.0003243   0.0000131   0.0000064  -0.9298942   0.2598229
0.0024398    -0.9969877  -0.0002648  -0.0005133   0.0003088   0.0000033   0.0000032  -0.9303333   0.2599209
0.0024698    -0.9968743  -0.0003451  -0.0004690   0.0001990   0.0000079  -0.0000170  -0.9305707   0.2602177
0.0025002    -0.9970171  -0.0002805  -0.0004705   0.0002688  -0.0000013  -0.0000042  -0.9307198   0.2603729
0.0025309    -0.9966810  -0.0004437  -0.0003994   0.0002432  -0.0000087  -0.0000112  -0.9309336   0.2606611
0.0025621    -0.9968429  -0.0004159  -0.0003934   0.0002519   0.0000070  -0.0000087  -0.9313972   0.2606534
0.0025935    -0.9969201  -0.0003391  -0.0004342   0.0001880  -0.0000057  -0.0000035  -0.9316742   0.2605261
0.0026254    -0.9968659  -0.0004159  -0.0003764   0.0002526  -0.0000042  -0.0000026  -0.9317934   0.2605545
0.0026577    -0.9970038  -0.0004349  -0.0004077   0.0001914  -0.0000107  -0.0000105  -0.9319015   0.2609742
0.0026904    -0.9968841  -0.0002007  -0.0005129   0.0002917  -0.0000128  -0.0000062  -0.9320964   0.2613407
0.0027235    -0.9969860  -0.0003699  -0.0003366   0.0003235  -0.0000013  -0.0000137  -0.9327563   0.2611832
0.0027569    -0.9969363  -0.0002505  -0.0004706   0.0001875  -0.0000088  -0.0000033  -0.9327095   0.2612955
0.0027908    -0.9969466  -0.0003199  -0.0004097   0.0002024   0.0000059  -0.0000083  -0.9327881   0.2617246
0.0028251    -0.9968485  -0.0002646  -0.0003935   0.0002399   0.0000069   0.0000018  -0.9332618   0.2618815
0.0028599    -0.9968735  -0.0003365  -0.0003979   0.0002549  -0.0000022   0.0000010  -0.9334185   0.2618729
0.0028950    -0.9968888  -0.0004136  -0.0004511   0.0002602   0.0000031   0.0000025  -0.9336124   0.2618484
0.0029306    -0.9969167  -0.0001914  -0.0004200   0.0002152  -0.0000042  -0.0000190  -0.9337557   0.2620064
0.0029666    -0.9969980  -0.0003256  -0.0004177   0.0002112   0.0000131  -0.0000065  -0.9339990   0.2622600
0.0030031    -0.9969739  -0.0003526  -0.0005579   0.0002652  -0.0000049   0.0000133  -0.9341076   0.2625548
0.0030400    -0.9970292  -0.0002745  -0.0004066   0.0002211  -0.0000027  -0.0000165  -0.9343379   0.2628196
0.0030774    -0.9971062  -0.0002715  -0.0004616   0.0002229  -0.0000097  -0.0000045  -0.9345217   0.2629743
0.0031152    -0.9968920  -0.0003875  -0.0004486   0.0002261   0.0000102   0.0000018  -0.9348862   0.2629809
0.0031535    -0.9970142  -0.0004217  -0.0004883   0.0002353  -0.0000035  -0.0000120  -0.9349260   0.2633534
0.0031923    -0.9970305  -0.0003705  -0.0003692   0.0002229   0.0000126  -0.0000124  -0.9353236   0.2634966
0.0032315    -0.9969193  -0.0002745  -0.0004672   0.0002470  -0.0000004  -0.0000064  -0.9355121   0.2636469
0.0032713    -0.9969807  -0.0004005  -0.0004042   0.0002298   0.0000023  -0.0000089  -0.9356770   0.2636865
0.0033115    -0.9970017  -0.0002311  -0.0004042   0.0002098   0.0000084  -0.0000006  -0.9357024   0.2639999
0.0033522    -0.9969433  -0.0002445  -0.0003777   0.0002243  -0.0000109  -0.0000057  -0.9360229   0.2644064
0.0033934    -0.9968869  -0.0003874  -0.0004153   0.0001680   0.0000014   0.0000021  -0.9362628   0.2642656
0.0034351    -0.9969458  -0.0002384  -0.0003962   0.0002078  -0.0000013   0.0000084  -0.9364516   0.2645556
0.0034773    -0.9971987  -0.0003744  -0.0004005   0.0001874   0.0000084  -0.0000086  -0.9364323   0.2647053
0.0035201    -0.9971206  -0.0002580  -0.0004172   0.0002306   0.0000056  -0.0000029  -0.9367876   0.2648143
0.0035634    -0.9970741  -0.0003405  -0.0004193   0.0002150   0.0000070  -0.0000048  -0.9368663   0.2649771
0.0036072    -0.9970237  -0.0002390  -0.0003873   0.0001994  -0.0000008  -0.0000046  -0.9369396   0.2652301
0.0036515    -0.9970690  -0.0003223  -0.0004230   0.0002286  -0.0000051   0.0000044  -0.9372120   0.2655556
0.0036964    -0.9969598  -0.0004575  -0.0004428   0.0001897  -0.0000114   0.0000007  -0.9371598   0.2658447
0.0037418    -0.9970731  -0.0002600  -0.0005127   0.0001981   0.0000014  -0.0000077  -0.9373776   0.2659021
0.0037878    -0.9970461  -0.0004414  -0.0003776   0.0002255   0.0000009  -0.0000191  -0.9374859   0.2660117
0.0038344    -0.9969918  -0.0004139  -0.0004449   0.0001769   0.0000059  -0.0000063  -0.9376847   0.2663411
0.0038815    -0.9969824  -0.0002850  -0.0004082   0.0001703  -0.0000009   0.0000041  -0.9378065   0.2664228
0.0039293    -0.9970638  -0.0002133  -0.0004752   0.0001734   0.0000049  -0.0000071  -0.9379777   0.2663981
0.0039776    -0.9970567  -0.0002544  -0.0005199  -0.0000398  -0.0000018  -0.0000120  -0.9381920   0.2668196
0.0040265    -0.9970204  -0.0003536  -0.0004724  -0.0000354   0.0000000   0.0000014  -0.9383100   0.2667670
0.0040759    -0.9971779  -0.0002382  -0.0003958   0.0001650  -0.0000007   0.0000008  -0.9384242   0.2671272
0.0041261    -0.9970907  -0.0002770  -0.0004705   0.0001796   0.0000015  -0.0000048  -0.9385339   0.2672093
0.0041768    -0.9971085  -0.0002928  -0.0004218   0.0001239  -0.0000009   0.0000009  -0.9387328   0.2675105
0.0042281    -0.9969559  -0.0002349  -0.0004585   0.0001631   0.0000064  -0.0000054  -0.9388509   0.2677209
0.0042801    -0.9970435  -0.0002150  -0.0004353   0.0001856   0.0000041  -0.0000002  -0.9389324   0.2679158
0.0043327    -0.9971146  -0.0003189  -0.0004798   0.0001971  -0.0000035  -0.0000042  -0.9390299   0.2683019
0.0043860    -0.9970425  -0.0001570  -0.0004577   0.0002032  -0.0000025   0.0000091  -0.9392749   0.2683077
0.0044399    -0.9970655  -0.0002558  -0.0004610   0.0001565   0.0000007  -0.0000043  -0.9393379   0.2684832
0.0044945    -0.9971263  -0.0001961  -0.0004553   0.0001279  -0.0000065  -0.0000034  -0.9394909   0.2686169
0.0045497    -0.9971009  -0.0002588  -0.0003966   0.0001986  -0.0000109  -0.0000034  -0.9394766   0.2688047
0.0046057    -0.9970996  -0.0002631  -0.0004397   0.0002167  -0.0000053   0.0000049  -0.9395575   0.2689400
0.0046623    -0.9970958  -0.0002604  -0.0004578   0.0001621   0.0000035  -0.0000071  -0.9395089   0.2692334
0.0047196    -0.9969672  -0.0003034  -0.0004647   0.0001415  -0.0000083  -0.0000009  -0.9398293   0.2694102
0.0047776    -0.9970449  -0.0003719  -0.0004082   0.0001368   0.0000065  -0.0000104  -0.9398891   0.2695281
0.0048363    -0.9971377  -0.0002991  -0.0004308   0.0001359   0.0000003  -0.0000094  -0.9399332   0.2697804
0.0048958    -0.9970178  -0.0001125  -0.0004453   0.0001796  -0.0000047  -0.0000137  -0.9400721   0.2700554
0.0049560    -0.9970398  -0.0001904  -0.0004163   0.0001836  -0.0000099  -0.0000067  -0.9402632   0.2701632
0.0050169    -0.9970837  -0.0002295  -0.0004434   0.0001167  -0.0000178   0.0000051  -0.9403351   0.2701639
0.0050786    -0.9971317  -0.0002326  -0.0004241   0.0001686   0.0000062   0.0000011  -0.9403187   0.2703988
0.0051410    -0.9972600  -0.0001411  -0.0004328   0.0001336  -0.0000039  -0.0000105  -0.9404152   0.2706001
0.0052042    -0.9970421  -0.0003386  -0.0004475   0.0001550   0.0000035  -0.0000032  -0.9405021   0.2708001
0.0052682    -0.9970410  -0.0003042  -0.0004373   0.0001446   0.0000060  -0.0000054  -0.9406327   0.2710467
0.0053330    -0.9971083  -0.0003263  -0.0004591   0.0001068  -0.0000089  -0.0000088  -0.9406896   0.2711812
0.0053985    -0.9971767  -0.0002425  -0.0004472   0.0001603  -0.0000131  -0.0000073  -0.9407775   0.2713440
0.0054649    -0.9971358  -0.0003947  -0.0004825   0.0001843   0.0000164  -0.0000018  -0.9409076   0.2714998
0.0055321    -0.9971707  -0.0002671  -0.0004511   0.0001287  -0.0000015  -0.0000112  -0.9409565   0.2716945
0.0056001    -0.9970392  -0.0002056  -0.0004775   0.0001445   0.0000146   0.0000031  -0.9411138   0.2719386
0.0056689    -0.9970910  -0.0002894  -0.0004044   0.0001659  -0.0000082  -0.0000200  -0.9411273   0.2720064
0.0057386    -0.9971441  -0.0002007  -0.0003978   0.0001918   0.0000036  -0.0000155  -0.9411893   0.2721200
0.0058091    -0.9971396  -0.0002912  -0.0004259   0.0001809   0.0000022   0.0000047  -0.9411386   0.2723728
0.0058806    -0.9971254  -0.0003201  -0.0004312   0.0002019  -0.0000013  -0.0000061  -0.9411190   0.2724188
0.0059529    -0.9971337  -0.0001672  -0.0004110   0.0001095  -0.0000054  -0.0000104  -0.9412062   0.2727041
0.0060260    -0.9970511  -0.0001476  -0.0004364   0.0001871  -0.0000053  -0.0000183  -0.9412507   0.2727098
0.0061001    -0.9971560  -0.0003223  -0.0004958   0.0001581  -0.0000142  -0.0000055  -0.9413455   0.2729546
0.0061751    -0.9970154  -0.0002460  -0.0004643   0.0001244   0.0000003   0.0000049  -0.9413314   0.2731470
0.0062510    -0.9970110  -0.0001830  -0.0004639   0.0001856  -0.0000030  -0.0000002  -0.9415101   0.2732916
0.0063279    -0.9971466  -0.0001098  -0.0005583   0.0001722  -0.0000043  -0.0000012  -0.9416430   0.2734560
0.0064056    -0.9970092  -0.0001750  -0.0004258   0.0001606   0.0000044  -0.0000061  -0.9416371   0.2736081
0.0064844    -0.9970893  -0.0001680  -0.0004524   0.0001225   0.0000000  -0.0000076  -0.9416977   0.2736701
0.0065641    -0.9970611  -0.0002662  -0.0004437   0.0001407  -0.0000063  -0.0000193  -0.9415242   0.2737903
0.0066448    -0.9970956  -0.0001649  -0.0004434   0.0002134   0.0000005  -0.0000093  -0.9416728   0.2739591
0.0067265    -0.9971153  -0.0001480  -0.0004157   0.0001142  -0.0000082   0.0000041  -0.9417777   0.2741424
0.0068092    -0.9970343  -0.0001418  -0.0004422   0.0001208   0.0000036   0.0000010  -0.9418365   0.2743665
0.0068929    -0.9971702  -0.0001021  -0.0004369   0.0001421   0.0000128  -0.0000086  -0.9418909   0.2744498
0.0069776    -0.9971883  -0.0000572  -0.0004833   0.0001154   0.0000024  -0.0000116  -0.9420478   0.2746782
0.0070634    -0.9970549  -0.0001411  -0.0004805   0.0001105   0.0000023  -0.0000052  -0.9419420   0.2748400
0.0071502    -0.9970841  -0.0003076  -0.0004407   0.0001648   0.0000031  -0.0000154  -0.9419125   0.2748555
0.0072381    -0.9971505  -0.0001094  -0.0004696   0.0001378  -0.0000033  -0.0000122  -0.9418756   0.2750367
0.0073271    -0.9971851  -0.0001381  -0.0004557   0.0001147  -0.0000089  -0.0000030  -0.9420109   0.2752536
0.0074172    -0.9971065  -0.0000970  -0.0004300   0.0001534   0.0000121  -0.0000083  -0.9421284   0.2753567
0.0075084    -0.9972403  -0.0001330  -0.0004558   0.0001648   0.0000064  -0.0000108  -0.9421577   0.2755385
0.0076007    -0.9970709  -0.0000430  -0.0004697   0.0001459   0.0000004  -0.0000116  -0.9421461   0.2756577
0.0076941    -0.9972091  -0.0000737  -0.0004138   0.0001873  -0.0000021   0.0000084  -0.9421786   0.2759126
0.0077887    -0.9970911  -0.0001003  -0.0004304   0.0001183   0.0000107  -0.0000020  -0.9421820   0.2759312
0.0078844    -0.9970879  -0.0001650  -0.0004781   0.0001720  -0.0000035  -0.0000018  -0.9422685   0.2760016
0.0079814    -0.9970221  -0.0001602  -0.0004683   0.0000807   0.0000006  -0.0000059  -0.9422404   0.2762762
0.0080795    -0.9971709  -0.0002434  -0.0004799   0.0001300   0.0000058  -0.0000034  -0.9423989   0.2763341
0.0081788    -0.9971142  -0.0000808  -0.0004706   0.0001697  -0.0000045   0.0000043  -0.9422137   0.2765218
0.0082793    -0.9971233  -0.0001420  -0.0004318   0.0001539  -0.0000005  -0.0000093  -0.9423942   0.2765888
0.0083811    -0.9971273  -0.0002309  -0.0004500   0.0001395  -0.0000037   0.0000070  -0.9423573   0.2767983
0.0084842    -0.9971183  -0.0001315  -0.0004938   0.0001126  -0.0000016   0.0000005  -0.9423313   0.2768930
0.0085885    -0.9972635  -0.0001058  -0.0005035   0.0001586   0.0000015  -0.0000070  -0.9424398   0.2769427
0.0086940    -0.9971795  -0.0000959  -0.0004360   0.0001361   0.0000127  -0.0000141  -0.9423699   0.2771411
0.0088009    -0.9971472  -0.0001236  -0.0004918   0.0001424   0.0000002   0.0000062  -0.9423860   0.2772914
0.0089091    -0.9971924  -0.0002102  -0.0004544   0.0001335   0.0000024  -0.0000112  -0.9423989   0.2774866
0.0090186    -0.9970802  -0.0002077  -0.0004426   0.0000824  -0.0000090  -0.0000046  -0.9424998   0.2774735
0.0091295    -0.9970062  -0.0002379  -0.0004573   0.0001657   0.0000055  -0.0000005  -0.9425199   0.2777457
0.0092417    -0.9971300  -0.0000867  -0.0004672   0.0001496   0.0000093  -0.0000054  -0.9424069   0.2777833
0.0093553    -0.9970363  -0.0001913  -0.0004409   0.0001323   0.0000041  -0.0000095  -0.9424297   0.2779104
0.0094703    -0.9970253  -0.0002451  -0.0004598   0.0001544   0.0000006   0.0000108  -0.9425230   0.2779699
0.0095868    -0.9971306   0.0001062  -0.0004805   0.0001685  -0.0000033  -0.0000074  -0.9424579   0.2781670
0.0097046    -0.9970231  -0.0002301  -0.0004582   0.0001265  -0.0000017   0.0000127  -0.9425030   0.2781965
0.0098239    -0.9972284  -0.0000958  -0.0004708   0.0001019  -0.0000008   0.0000001  -0.9425577   0.2783250
0.0099447    -0.9970879  -0.0002192  -0.0004590   0.0001350  -0.0000004  -0.0000051  -0.9425478   0.2783615
0.0100669    -0.9970835  -0.0000630  -0.0004272   0.0001476  -0.0000093  -0.0000186  -0.9425242   0.2785836
0.0101907    -0.9970576  -0.0001323  -0.0004546   0.0001425  -0.0000033  -0.0000092  -0.9425358   0.2786114
0.0103160    -0.9971927  -0.0001131  -0.0004669   0.0001492   0.0000116  -0.0000083  -0.9425019   0.2787091
0.0104428    -0.9971353  -0.0000173  -0.0004578   0.0001425  -0.0000035   0.0000003  -0.9425838   0.2789201
0.0105712    -0.9972004  -0.0000078  -0.0004649   0.0001015   0.0000088   0.0000015  -0.9425830   0.2789347
0.0107011    -0.9971645  -0.0000448  -0.0004258   0.0001200   0.0000044  -0.0000051  -0.9426090   0.2791118
0.0108327    -0.9971634   0.0000470  -0.0004636   0.0001231   0.0000012  -0.0000062  -0.9425325   0.2791449
0.0109658    -0.9971445  -0.0000793  -0.0004920   0.0001150  -0.0000070  -0.0000045  -0.9426464   0.2792784
0.0111006    -0.9970661  -0.0000796  -0.0004563   0.0001161  -0.0000041  -0.0000068  -0.9426136   0.2795289
0.0112371    -0.9970705  -0.0001371  -0.0004623   0.0001416  -0.0000054   0.0000003  -0.9426557   0.2794251
0.0113752    -0.9969759  -0.0001992  -0.0004653   0.0001393  -0.0000107   0.0000007  -0.9425597   0.2795968
0.0115151    -0.9972948  -0.0001154  -0.0004873   0.0001984   0.0000003  -0.0000004  -0.9427017   0.2798539
0.0116566    -0.9970054  -0.0000473  -0.0004843   0.0001375  -0.0000025  -0.0000093  -0.9425976   0.2797545
0.0117999    -0.9972316  -0.0000434  -0.0005029   0.0001085  -0.0000078  -0.0000039  -0.9426702   0.2800117
0.0119450    -0.9932171   0.0003458  -0.0005169   0.0001514  -0.0000012   0.0000006  -0.9434624   0.2782170
0.0120918    -0.9972771   0.0000366  -0.0004419   0.0002110   0.0000006  -0.0000104  -0.9426943   0.2801527
0.0122405    -0.9970822  -0.0002013  -0.0004337   0.0001662  -0.0000107   0.0000039  -0.9427471   0.2801706
0.0123910    -0.9972515  -0.0000890  -0.0004070   0.0001851  -0.0000042  -0.0000100  -0.9426088   0.2804391
0.0125433    -0.9970617  -0.0000831  -0.0004970   0.0001183  -0.0000016   0.0000043  -0.9427097   0.2803775
0.0126975    -0.9972026  -0.0000162  -0.0004758   0.0001567  -0.0000036  -0.0000023  -0.9425424   0.2804387
0.0128536    -0.9972185  -0.0002154  -0.0004739   0.0001760   0.0000036  -0.0000033  -0.9426407   0.2806492
0.0130116    -0.9969992  -0.0000321  -0.0005538   0.0001098   0.0000031   0.0000037  -0.9426215   0.2806846
0.0131716    -0.9972048  -0.0001555  -0.0004664   0.0002531  -0.0000045   0.0000010  -0.9426642   0.2806807
0.0133335    -0.9972034  -0.0001357  -0.0004463   0.0001162  -0.0000017  -0.0000095  -0.9425145   0.2809397
0.0134974    -0.9972260  -0.0000505  -0.0004075   0.0002115   0.0000014  -0.0000020  -0.9425677   0.2809175
0.0136633    -0.9971174   0.0001492  -0.0005794   0.0003101   0.0000013  -0.0000062  -0.9426221   0.2811150
0.0138313    -0.9972651   0.0000575  -0.0005567   0.0000588  -0.0000014  -0.0000050  -0.9425397   0.2811490
0.0140013    -0.9972581  -0.0000124  -0.0003901   0.0001672  -0.0000043  -0.0000027  -0.9426175   0.2812854
0.0141734    -0.9972403  -0.0002470  -0.0005755  -0.0000026  -0.0000133  -0.0000052  -0.9426482   0.2814176
0.0143477    -0.9971394  -0.0001795  -0.0004187   0.0003063   0.0000019  -0.0000050  -0.9426134   0.2813920
0.0145240    -0.9970606  -0.0000281  -0.0006204   0.0001234   0.0000018   0.0000028  -0.9426510   0.2814696
0.0147026    -0.9970592  -0.0000243  -0.0004877   0.0000216   0.0000098  -0.0000082  -0.9425887   0.2815431
0.0148833    -0.9972294  -0.0000899  -0.0004904   0.0000541  -0.0000038  -0.0000085  -0.9425701   0.2817147
0.0150663    -0.9972419   0.0000611  -0.0004544   0.0001908   0.0000025  -0.0000094  -0.9425500   0.2817628
0.0152515    -0.9971825  -0.0000491  -0.0004293   0.0000569  -0.0000064  -0.0000097  -0.9425577   0.2819218
0.0154390    -0.9972603   0.0000264  -0.0005119   0.0002233  -0.0000151   0.0000062  -0.9425825   0.2819117
0.0156288    -0.9970416  -0.0000743  -0.0004568   0.0001420  -0.0000092  -0.0000074  -0.9426634   0.2819290
0.0158209    -0.9971950  -0.0000642  -0.0005421   0.0001134  -0.0000031  -0.0000088  -0.9425187   0.2819562
0.0160154    -0.9971341  -0.0001157  -0.0003960   0.0001918   0.0000012  -0.0000067  -0.9425096   0.2821765
0.0162123    -0.9969183  -0.0001498  -0.0003999   0.0000827  -0.0000041  -0.0000005  -0.9424733   0.2823458
0.0164116    -0.9972786  -0.0000046  -0.0004816   0.0001539   0.0000020  -0.0000133  -0.9425390   0.2823374
0.0166134    -0.9971714  -0.0002013  -0.0004023   0.0001073   0.0000025   0.0000024  -0.9424725   0.2825105
0.0168176    -0.9972444   0.0000041  -0.0005579   0.0001151   0.0000023  -0.0000011  -0.9425681   0.2824212
0.0170243    -0.9971927   0.0000077  -0.0004967   0.0000951  -0.0000044  -0.0000021  -0.9425075   0.2825839
0.0172336    -0.9971278  -0.0000186  -0.0003921   0.0002147   0.0000039  -0.0000065  -0.9424701   0.2825693
0.0174455    -0.9971152  -0.0000213  -0.0004348   0.0002563  -0.0000069   0.0000054  -0.9424511   0.2826684
0.0176599    -0.9972052  -0.0000834  -0.0003979   0.0001492  -0.0000030  -0.0000096  -0.9424459   0.2827776
0.0178770    -0.9971139   0.0000165  -0.0005056   0.0001883  -0.0000056   0.0000042  -0.9424224   0.2829245
0.0180968    -0.9972582   0.0000174  -0.0005381   0.0001815  -0.0000086  -0.0000035  -0.9424302   0.2828374
0.0183193    -0.9972723  -0.0000847  -0.0003489   0.0000686   0.0000087  -0.0000044  -0.9424509   0.2830002
0.0185445    -0.9972022  -0.0000747  -0.0004481   0.0001075   0.0000103  -0.0000060  -0.9424455   0.2830423
0.0187724    -0.9971725  -0.0000493  -0.0003461   0.0002732   0.0000036   0.0000011  -0.9423371   0.2830841
0.0190032    -0.9971692   0.0000250  -0.0005315   0.0005400  -0.0000030  -0.0000051  -0.9424280   0.2831313
0.0192368    -0.9970967  -0.0001890  -0.0005322   0.0002737   0.0000020   0.0000008  -0.9425254   0.2832695
0.0194733    -0.9971474  -0.0000747  -0.0003114   0.0000873   0.0000098  -0.0000044  -0.9424154   0.2833488
0.0197127    -0.9971470  -0.0000306  -0.0005102   0.0001683  -0.0000072  -0.0000149  -0.9423865   0.2834325
0.0199550    -0.9971135  -0.0000261  -0.0004662   0.0002455  -0.0000085  -0.0000115  -0.9424142   0.2834576
0.0202003    -0.9971984  -0.0000175  -0.0004163   0.0001051  -0.0000027  -0.0000121  -0.9424186   0.2834956
0.0204487    -0.9970172  -0.0000599  -0.0004729   0.0000693  -0.0000126  -0.0000027  -0.9423482   0.2836018
0.0207001    -0.9971735  -0.0000682  -0.0003482   0.0001483  -0.0000050  -0.0000153  -0.9422820   0.2836091
0.0209545    -0.9971875  -0.0000706  -0.0004256   0.0002216  -0.0000042  -0.0000062  -0.9422991   0.2836966
0.0212121    -0.9971209  -0.0000502  -0.0004121   0.0001919   0.0000013   0.0000014  -0.9422630   0.2838958
0.0214729    -0.9970712   0.0000186  -0.0005151   0.0001619  -0.0000082  -0.0000137  -0.9423046   0.2839225
0.0217369    -0.9971648  -0.0000375  -0.0004289   0.0001849   0.0000177  -0.0000012  -0.9422967   0.2839207
0.0220041    -0.9972193  -0.0001202  -0.0004248   0.0001877  -0.0000034  -0.0000052  -0.9423316   0.2839710
0.0222746    -0.9971648  -0.0000508  -0.0004940   0.0001757   0.0000044  -0.0000094  -0.9421834   0.2840686
0.0225484    -0.9971197  -0.0000977  -0.0004708   0.0001601  -0.0000069   0.0000029  -0.9421589   0.2840821
0.0228256    -0.9971206   0.0000174  -0.0004553   0.0001548  -0.0000015   0.0000000  -0.9422130   0.2841121
0.0231062    -0.9972266  -0.0000260  -0.0004259   0.0001223  -0.0000071  -0.0000067  -0.9422103   0.2841453
0.0233902    -0.9971208   0.0000013  -0.0004499   0.0001969  -0.0000062   0.0000041  -0.9421501   0.2842650
0.0236778    -0.9970893   0.0000147  -0.0004105   0.0001306   0.0000026  -0.0000065  -0.9421274   0.2843437
0.0239689    -0.9960258  -0.0005965  -0.0004286   0.0002553  -0.0000034  -0.0000028  -0.9431943   0.2849166
0.0242635    -0.9971187  -0.0000084  -0.0004026   0.0001500   0.0000020  -0.0000015  -0.9421554   0.2844378
0.0245618    -0.9971542  -0.0000432  -0.0004334   0.0001705  -0.0000175  -0.0000006  -0.9420997   0.2845678
0.0248637    -0.9970657  -0.0001263  -0.0004657   0.0001728  -0.0000010  -0.0000011  -0.9421057   0.2846436
0.0251694    -0.9973386   0.0000612  -0.0004444   0.0002006  -0.0000045  -0.0000092  -0.9421237   0.2846718
0.0254788    -0.9970952  -0.0000708  -0.0004315   0.0001640  -0.0000051  -0.0000060  -0.9420106   0.2847303
0.0257920    -0.9970875   0.0000270  -0.0004583   0.0001436   0.0000011  -0.0000116  -0.9420984   0.2848583
0.0261091    -0.9971286  -0.0000093  -0.0004191   0.0001669   0.0000032  -0.0000093  -0.9419308   0.2848252
0.0264301    -0.9970164   0.0000282  -0.0003901   0.0002095   0.0000051  -0.0000114  -0.9420806   0.2849199
0.0267550    -0.9971476  -0.0000376  -0.0004644   0.0001991  -0.0000017   0.0000036  -0.9419236   0.2849455
0.0270839    -0.9971544  -0.0001079  -0.0004228   0.0001468  -0.0000150  -0.0000070  -0.9420152   0.2849370
0.0274168    -0.9970834  -0.0000347  -0.0005145   0.0000988  -0.0000071  -0.0000091  -0.9419723   0.2849874
0.0277539    -0.9971502  -0.0000143  -0.0004369   0.0001294  -0.0000055  -0.0000124  -0.9418585   0.2850718
0.0280951    -0.9972045  -0.0000226  -0.0004252   0.0001318  -0.0000084  -0.0000131  -0.9418695   0.2851680
0.0284404    -0.9972314   0.0000672  -0.0003651   0.0002863  -0.0000050  -0.0000027  -0.9418926   0.2852433
0.0287901    -0.9972783  -0.0000174  -0.0004601   0.0001422  -0.0000104  -0.0000071  -0.9419360   0.2851845
0.0291440    -0.9970827   0.0000107  -0.0004433   0.0001563   0.0000046  -0.0000088  -0.9418947   0.2853351
0.0295023    -0.9972319  -0.0000521  -0.0004772   0.0001588   0.0000158   0.0000033  -0.9418181   0.2853636
0.0298649    -0.9971968  -0.0000641  -0.0004586   0.0001713   0.0000090  -0.0000008  -0.9418149   0.2853996
0.0302321    -0.9971891  -0.0000249  -0.0004615   0.0001605   0.0000043  -0.0000058  -0.9417208   0.2854923
0.0306037    -0.9972361  -0.0001276  -0.0004039   0.0001538  -0.0000045  -0.0000008  -0.9417143   0.2855678
0.0309799    -0.9971715   0.0000972  -0.0004337   0.0001841  -0.0000045   0.0000013  -0.9418265   0.2855831
0.0313608    -0.9972374   0.0000269  -0.0003977   0.0001982   0.0000041  -0.0000197  -0.9417779   0.2856653
0.0317463    -0.9971571  -0.0000271  -0.0005234   0.0001713  -0.0000047   0.0000050  -0.9416988   0.2857371
0.0321366    -0.9972205   0.0000064  -0.0003958   0.0001970   0.0000041  -0.0000031  -0.9417880   0.2857474
0.0325316    -0.9971821  -0.0000340  -0.0005081   0.0001770   0.0000030  -0.0000159  -0.9416747   0.2858300
0.0329316    -0.9970929  -0.0000557  -0.0004865   0.0001603   0.0000071  -0.0000175  -0.9416642   0.2859160
0.0333364    -0.9971353   0.0000723  -0.0003931   0.0001649   0.0000033  -0.0000037  -0.9416956   0.2859965
0.0337462    -0.9972345  -0.0000405  -0.0004881   0.0002151   0.0000003   0.0000066  -0.9415459   0.2858363
0.0341610    -0.9970992   0.0000288  -0.0004855   0.0002344   0.0000031  -0.0000018  -0.9415890   0.2860550
0.0345810    -0.9970938   0.0000648  -0.0004073   0.0001558   0.0000025  -0.0000054  -0.9415994   0.2860402
0.0350061    -0.9970794  -0.0000051  -0.0003653   0.0001536   0.0000041   0.0000028  -0.9416480   0.2861025
0.0354365    -0.9971351  -0.0000095  -0.0004911   0.0001873   0.0000008  -0.0000113  -0.9415532   0.2862356
0.0358721    -0.9973091  -0.0001364  -0.0004699   0.0002026   0.0000027   0.0000040  -0.9415274   0.2861881
0.0363131    -0.9971007   0.0000633  -0.0003581   0.0001955  -0.0000035  -0.0000022  -0.9415787   0.2862180
0.0367595    -0.9971633  -0.0001307  -0.0004179   0.0000765  -0.0000029  -0.0000134  -0.9414277   0.2863980
0.0372114    -0.9971054   0.0000257  -0.0003821   0.0001450   0.0000021  -0.0000147  -0.9414660   0.2864445
0.0376688    -0.9972051   0.0000267  -0.0004322   0.0001070  -0.0000015  -0.0000004  -0.9414265   0.2864517
0.0381319    -0.9972424  -0.0000636  -0.0005282   0.0002408  -0.0000009  -0.0000148  -0.9414994   0.2864761
0.0386006    -0.9972491  -0.0000233  -0.0004494   0.0002481  -0.0000001  -0.0000062  -0.9414738   0.2866139
0.0390752    -0.9972246  -0.0000030  -0.0004199   0.0001696   0.0000058  -0.0000044  -0.9413666   0.2865701
0.0395555    -0.9970593   0.0000068  -0.0004146   0.0000858  -0.0000018  -0.0000008  -0.9413887   0.2866159
0.0400418    -0.9971569   0.0000421  -0.0003836   0.0002145  -0.0000059  -0.0000090  -0.9414225   0.2867169
0.0405340    -0.9971482   0.0000575  -0.0004020   0.0001894   0.0000032  -0.0000083  -0.9413678   0.2866962
0.0410323    -0.9972107  -0.0000470  -0.0004365   0.0002121   0.0000113  -0.0000063  -0.9412536   0.2867964
0.0415368    -0.9971132  -0.0000635  -0.0004197   0.0001688  -0.0000101   0.0000046  -0.9413906   0.2868516
0.0420474    -0.9971735  -0.0000886  -0.0004100   0.0002278  -0.0000032  -0.0000059  -0.9413047   0.2867908
0.0425643    -0.9971484  -0.0000031  -0.0004281   0.0001873   0.0000041  -0.0000041  -0.9412317   0.2868349
0.0430875    -0.9971544  -0.0000488  -0.0004222   0.0002106   0.0000041  -0.0000004  -0.9413051   0.2869693
0.0436172    -0.9971582   0.0000405  -0.0004486   0.0002078  -0.0000077  -0.0000074  -0.9412355   0.2870156
0.0441534    -0.9971349  -0.0000052  -0.0004208   0.0002244   0.0000004  -0.0000073  -0.9411886   0.2871031
0.0446962    -0.9971594   0.0000038  -0.0004298   0.0002100  -0.0000045  -0.0000057  -0.9411981   0.2871376
0.0452457    -0.9971516   0.0001591  -0.0004354   0.0002129   0.0000028  -0.0000074  -0.9411458   0.2871384
0.0458019    -0.9971764   0.0000854  -0.0004344   0.0002145   0.0000017  -0.0000085  -0.9411226   0.2871739
0.0463649    -0.9971074   0.0000837  -0.0004254   0.0002261   0.0000098   0.0000013  -0.9410879   0.2872438
0.0469349    -0.9972005   0.0000058  -0.0004227   0.0002107  -0.0000076  -0.0000056  -0.9410962   0.2873527
0.0475119    -0.9972691  -0.0000293  -0.0004248   0.0001841   0.0000017  -0.0000071  -0.9410704   0.2873649
0.0480960    -0.9972343   0.0001215  -0.0004110   0.0002137  -0.0000044  -0.0000019  -0.9409973   0.2874680
0.0486872    -0.9971468  -0.0001045  -0.0004398   0.0002496  -0.0000129  -0.0000110  -0.9409651   0.2874875
0.0492857    -0.9971224   0.0000304  -0.0004234   0.0002080  -0.0000002  -0.0000042  -0.9409461   0.2875644
0.0498916    -0.9972510   0.0000485  -0.0004530   0.0002071  -0.0000045  -0.0000018  -0.9408737   0.2876173
0.0505050    -0.9970911  -0.0001196  -0.0004348   0.0002348  -0.0000103  -0.0000166  -0.9409469   0.2876108
0.0511258    -0.9973092   0.0001091  -0.0004043   0.0002146  -0.0000017  -0.0000074  -0.9409396   0.2877756
0.0517543    -0.9972229  -0.0000330  -0.0004553   0.0002278  -0.0000078  -0.0000062  -0.9409543   0.2877150
0.0523906    -0.9971318   0.0000839  -0.0004301   0.0003086   0.0000057  -0.0000072  -0.9408638   0.2877875
0.0530346    -0.9971667   0.0000253  -0.0004207   0.0002209   0.0000032  -0.0000115  -0.9408033   0.2878187
0.0536866    -0.9970822  -0.0000144  -0.0004482   0.0002342  -0.0000095  -0.0000167  -0.9408350   0.2878571
0.0543466    -0.9970293  -0.0000080  -0.0004405   0.0002853  -0.0000052  -0.0000006  -0.9407425   0.2878680
0.0550146    -0.9971358   0.0001129  -0.0004084   0.0002446  -0.0000055  -0.0000045  -0.9407686   0.2879192
0.0556910    -0.9972493  -0.0000204  -0.0003809   0.0002400  -0.0000121  -0.0000102  -0.9406990   0.2879734
0.0563756    -0.9971697  -0.0000379  -0.0005165   0.0003080   0.0000018  -0.0000108  -0.9407175   0.2881117
0.0570686    -0.9970831   0.0000424  -0.0003440   0.0001648   0.0000006  -0.0000166  -0.9406780   0.2881488
0.0577702    -0.9972046  -0.0000557  -0.0003965   0.0001808  -0.0000013  -0.0000054  -0.9406106   0.2882546
0.0584804    -0.9971695  -0.0000107  -0.0004202   0.0002919   0.0000011  -0.0000075  -0.9405687   0.2881916
0.0591993    -0.9971886   0.0000333  -0.0004393   0.0002953   0.0000087   0.0000003  -0.9405477   0.2882490
0.0599270    -0.9971387  -0.0000437  -0.0004200   0.0002623   0.0000084  -0.0000020  -0.9406534   0.2883762
0.0606637    -0.9970832   0.0000444  -0.0004196   0.0002738  -0.0000008  -0.0000084  -0.9404613   0.2883609
0.0614095    -0.9970890   0.0001159  -0.0004303   0.0002585  -0.0000130   0.0000009  -0.9405219   0.2883972
0.0621644    -0.9971779   0.0000658  -0.0004251   0.0003051  -0.0000010  -0.0000074  -0.9405535   0.2885076
0.0629286    -0.9972573  -0.0001214  -0.0004147   0.0002672  -0.0000052  -0.0000012  -0.9404398   0.2884878
0.0637022    -0.9971763  -0.0000494  -0.0004337   0.0002809   0.0000020  -0.0000046  -0.9403573   0.2886245
0.0644853    -0.9970975   0.0000402  -0.0004579   0.0002749  -0.0000014  -0.0000039  -0.9404157   0.2886764
0.0652780    -0.9971639  -0.0000079  -0.0004351   0.0002791   0.0000039  -0.0000084  -0.9403190   0.2886986
0.0660805    -0.9971392  -0.0000688  -0.0004037   0.0002938  -0.0000050  -0.0000067  -0.9402917   0.2888275
0.0668928    -0.9972204   0.0000027  -0.0004442   0.0002892  -0.0000128  -0.0000122  -0.9402203   0.2888212
0.0677152    -0.9970739   0.0000532  -0.0003936   0.0002598   0.0000000  -0.0000112  -0.9402024   0.2888230
0.0685476    -0.9971729  -0.0001144  -0.0004125   0.0002959  -0.0000072  -0.0000117  -0.9401862   0.2888922
0.0693903    -0.9971149  -0.0000757  -0.0004375   0.0002823  -0.0000004  -0.0000041  -0.9401122   0.2890172
0.0702433    -0.9971522  -0.0000665  -0.0004429   0.0002756  -0.0000029   0.0000041  -0.9401311   0.2890242
0.0711068    -0.9970700   0.0000035  -0.0004015   0.0003143   0.0000037  -0.0000059  -0.9400895   0.2890692
0.0719810    -0.9970950   0.0000846  -0.0004260   0.0003169  -0.0000091   0.0000050  -0.9400307   0.2890734
0.0728659    -0.9972615  -0.0000539  -0.0004323   0.0003002   0.0000052  -0.0000014  -0.9399982   0.2891921
0.0737616    -0.9971244   0.0000307  -0.0004363   0.0002884  -0.0000012   0.0000004  -0.9399166   0.2892475
0.0746684    -0.9970706  -0.0000186  -0.0004049   0.0002951   0.0000073  -0.0000086  -0.9399425   0.2892933
0.0755863    -0.9972760  -0.0000768  -0.0004679   0.0002755  -0.0000051  -0.0000018  -0.9398644   0.2893296
0.0765155    -0.9971068   0.0000196  -0.0003459   0.0003012  -0.0000040  -0.0000102  -0.9398543   0.2893451
0.0774561    -0.9971357   0.0000420  -0.0004674   0.0003580   0.0000021  -0.0000132  -0.9397228   0.2894283
0.0784083    -0.9971105  -0.0000508  -0.0003707   0.0003576   0.0000033   0.0000006  -0.9396576   0.2894038
0.0793722    -0.9971041   0.0000358  -0.0003975   0.0003366  -0.0000042  -0.0000104  -0.9396161   0.2895158
0.0803479    -0.9972133   0.0000918  -0.0004185   0.0003388   0.0000014  -0.0000099  -0.9396115   0.2895176
0.0813357    -0.9971274  -0.0000143  -0.0003894   0.0003347  -0.0000006  -0.0000007  -0.9394970   0.2895606
0.0823356    -0.9971713  -0.0000826  -0.0003925   0.0003262  -0.0000053  -0.0000076  -0.9394075   0.2896695
0.0833477    -0.9970958   0.0000525  -0.0004171   0.0003261   0.0000061  -0.0000029  -0.9393761   0.2896456
0.0843723    -0.9970956  -0.0001131  -0.0004071   0.0003409   0.0000086  -0.0000037  -0.9393115   0.2897923
0.0854095    -0.9970597   0.0000082  -0.0004296   0.0003454  -0.0000026  -0.0000074  -0.9392051   0.2896720
0.0864595    -0.9971096  -0.0000378  -0.0004242   0.0003401  -0.0000029   0.0000073  -0.9391912   0.2898053
0.0875224    -0.9971724  -0.0000225  -0.0004041   0.0003532   0.0000034  -0.0000104  -0.9391330   0.2897833
0.0885983    -0.9969608  -0.0000924  -0.0004317   0.0003637  -0.0000022  -0.0000038  -0.9390844   0.2898074
0.0896875    -0.9970860  -0.0001310  -0.0004106   0.0003537   0.0000089  -0.0000091  -0.9389901   0.2898603
0.0907900    -0.9969814  -0.0000755  -0.0003968   0.0003564  -0.0000058  -0.0000009  -0.9389029   0.2897670
0.0919061    -0.9970555  -0.0000767  -0.0003763   0.0003534   0.0000026   0.0000009  -0.9387465   0.2898359
0.0930359    -0.9971175  -0.0002134  -0.0004254   0.0003747   0.0000012   0.0000016  -0.9387368   0.2897206
0.0941797    -0.9970944  -0.0000950  -0.0003784   0.0003764   0.0000025   0.0000095  -0.9386642   0.2897788
0.0953374    -0.9971262  -0.0001937  -0.0003917   0.0003489  -0.0000047   0.0000036  -0.9386589   0.2896874
0.0965094    -0.9971137  -0.0000762  -0.0003586   0.0003635   0.0000008  -0.0000022  -0.9385277   0.2897067
0.0976959    -0.9971744  -0.0000465  -0.0004272   0.0003594   0.0000064  -0.0000051  -0.9385353   0.2896980
0.0988969    -0.9971791  -0.0001412  -0.0004195   0.0003898  -0.0000068  -0.0000015  -0.9384663   0.2896201
0.1001126    -0.9971744  -0.0000974  -0.0003867   0.0004333  -0.0000042  -0.0000113  -0.9384273   0.2896009
0.1013433    -0.9971265  -0.0001435  -0.0004156   0.0004145  -0.0000066  -0.0000005  -0.9384162   0.2895283
0.1025892    -0.9971467  -0.0000688  -0.0004009   0.0003971  -0.0000089  -0.0000156  -0.9383242   0.2894642
0.1038503    -0.9971181  -0.0002027  -0.0003927   0.0004083  -0.0000061   0.0000026  -0.9383898   0.2893628
0.1051270    -0.9971336  -0.0002087  -0.0003885   0.0004332  -0.0000042   0.0000032  -0.9384645   0.2893710
0.1064193    -0.9972499  -0.0001460  -0.0004165   0.0004485  -0.0000009  -0.0000043  -0.9385210   0.2892712
0.1077276    -0.9971523  -0.0001623  -0.0004019   0.0004420  -0.0000010   0.0000042  -0.9385561   0.2893075
0.1090519    -0.9971400  -0.0002280  -0.0003777   0.0004618   0.0000081   0.0000023  -0.9386699   0.2891948
0.1103925    -0.9971342  -0.0001751  -0.0004069   0.0004416  -0.0000053  -0.0000082  -0.9386504   0.2892372
0.1117496    -0.9971847  -0.0000620  -0.0003577   0.0004347   0.0000070  -0.0000009  -0.9387449   0.2892651
0.1131233    -0.9971790  -0.0001097  -0.0004078   0.0004232  -0.0000109  -0.0000063  -0.9388706   0.2892237
0.1145140    -0.9973128  -0.0001954  -0.0003856   0.0004566  -0.0000020  -0.0000139  -0.9389367   0.2893050
0.1159217    -0.9972265  -0.0001832  -0.0003848   0.0004402  -0.0000058  -0.0000006  -0.9389502   0.2893045
0.1173468    -0.9972266  -0.0000885  -0.0004093   0.0004457   0.0000043  -0.0000100  -0.9390159   0.2893834
0.1187893    -0.9972088  -0.0001276  -0.0003964   0.0004135  -0.0000015  -0.0000112  -0.9391408   0.2894386
0.1202497    -0.9973110  -0.0001588  -0.0003981   0.0004569  -0.0000076  -0.0000202  -0.9391425   0.2894774
0.1217279    -0.9972217  -0.0000767  -0.0003827   0.0004739   0.0000047   0.0000067  -0.9391774   0.2895602
0.1232243    -0.9971590  -0.0001819  -0.0003794   0.0004733  -0.0000059  -0.0000097  -0.9393238   0.2897100
0.1247392    -0.9972472  -0.0000419  -0.0003970   0.0004857  -0.0000005  -0.0000021  -0.9393441   0.2897610
0.1262726    -0.9971750  -0.0000976  -0.0004034   0.0004823  -0.0000082  -0.0000107  -0.9393835   0.2898578
0.1278249    -0.9971596  -0.0001695  -0.0003876   0.0005064  -0.0000011  -0.0000062  -0.9393711   0.2899272
0.1293963    -0.9972003  -0.0001208  -0.0003754   0.0004708  -0.0000038  -0.0000042  -0.9394349   0.2900448
0.1309870    -0.9972006  -0.0000062  -0.0003836   0.0004942   0.0000004  -0.0000140  -0.9394403   0.2901690
0.1325973    -0.9972159  -0.0000950  -0.0003809   0.0005081  -0.0000006   0.0000020  -0.9394429   0.2901727
0.1342273    -0.9972713  -0.0000758  -0.0003783   0.0005050  -0.0000030  -0.0000066  -0.9395119   0.2902830
0.1358774    -0.9971087   0.0000045  -0.0003733   0.0004891  -0.0000045   0.0000028  -0.9394840   0.2904587
0.1375478    -0.9972487  -0.0000820  -0.0003942   0.0005266   0.0000041  -0.0000011  -0.9395102   0.2904983
0.1392387    -0.9972202  -0.0001456  -0.0003870   0.0005153  -0.0000016  -0.0000030  -0.9394896   0.2906542
0.1409504    -0.9972238  -0.0000783  -0.0004011   0.0005124  -0.0000098  -0.0000030  -0.9395416   0.2907525
0.1426831    -0.9972632  -0.0000327  -0.0003826   0.0005251  -0.0000051  -0.0000032  -0.9395182   0.2907696
0.1444371    -0.9972367  -0.0001074  -0.0003890   0.0005468   0.0000040  -0.0000025  -0.9394529   0.2909111
0.1462127    -0.9971859   0.0000352  -0.0003819   0.0005518   0.0000011  -0.0000080  -0.9395321   0.2910522
0.1480102    -0.9972367  -0.0001451  -0.0003657   0.0005303  -0.0000016  -0.0000117  -0.9394888   0.2911476
0.1498297    -0.9971759  -0.0000785  -0.0004119   0.0004552  -0.0000046   0.0000006  -0.9394295   0.2911965
0.1516716    -0.9972806   0.0000256  -0.0003741   0.0005558  -0.0000031   0.0000037  -0.9394114   0.2913293
0.1535361    -0.9971528  -0.0000321  -0.0002751   0.0006140  -0.0000056  -0.0000089  -0.9394468   0.2914228
0.1554236    -0.9972075  -0.0001120  -0.0003924   0.0005446   0.0000006   0.0000022  -0.9394299   0.2915906
0.1573342    -0.9971538  -0.0001620  -0.0003839   0.0005263  -0.0000109  -0.0000090  -0.9393141   0.2916879
0.1592684    -0.9972159   0.0000162  -0.0004124   0.0005735   0.0000048   0.0000032  -0.9394186   0.2917255
0.1612263    -0.9971604  -0.0001114  -0.0003785   0.0005606   0.0000049  -0.0000010  -0.9393069   0.2918717
0.1632083    -0.9971512   0.0000044  -0.0003921   0.0006033   0.0000052  -0.0000046  -0.9393931   0.2919294
0.1652147    -0.9971322  -0.0001361  -0.0004216   0.0006593  -0.0000054   0.0000015  -0.9392935   0.2920767
0.1672457    -0.9971765  -0.0000557  -0.0003776   0.0005851   0.0000058  -0.0000092  -0.9392819   0.2921465
0.1693017    -0.9971582  -0.0000911  -0.0003584   0.0006224  -0.0000093  -0.0000026  -0.9392562   0.2921591
0.1713829    -0.9971916  -0.0001016  -0.0003525   0.0006321  -0.0000062  -0.0000029  -0.9392212   0.2923577
0.1734898    -0.9972501  -0.0000699  -0.0003672   0.0005992  -0.0000008   0.0000005  -0.9391912   0.2923584
0.1756225    -0.9972109  -0.0000646  -0.0003887   0.0006142   0.0000067  -0.0000024  -0.9391699   0.2925539
0.1777815    -0.9971320  -0.0001050  -0.0003663   0.0006225  -0.0000031  -0.0000086  -0.9390592   0.2925714
0.1799670    -0.9971593  -0.0000483  -0.0003534   0.0006679  -0.0000053  -0.0000102  -0.9390654   0.2927581
0.1821794    -0.9972435  -0.0001947  -0.0003746   0.0006169   0.0000027  -0.0000042  -0.9390483   0.2928551
0.1844190    -0.9971425  -0.0001992  -0.0004729   0.0006700  -0.0000014  -0.0000113  -0.9391059   0.2929285
0.1866861    -0.9970815  -0.0000814  -0.0003570   0.0006408  -0.0000025  -0.0000085  -0.9389236   0.2930493
0.1889811    -0.9971928  -0.0000683  -0.0003430   0.0006513  -0.0000052  -0.0000045  -0.9389341   0.2931909
0.1913043    -0.9973097  -0.0000541  -0.0003509   0.0006700  -0.0000022  -0.0000077  -0.9389398   0.2931881
0.1936560    -0.9971944   0.0000188  -0.0003556   0.0006516  -0.0000029   0.0000011  -0.9388743   0.2934055
0.1960367    -0.9971771  -0.0001622  -0.0003341   0.0006789  -0.0000034  -0.0000113  -0.9388666   0.2935421
0.1984466    -0.9971881  -0.0000213  -0.0003585   0.0006935  -0.0000069  -0.0000007  -0.9388003   0.2935264
0.2008861    -0.9971803  -0.0000847  -0.0003383   0.0006946  -0.0000035  -0.0000135  -0.9388468   0.2937072
0.2033557    -0.9970993  -0.0001218  -0.0003434   0.0006985  -0.0000017  -0.0000072  -0.9388149   0.2937507
0.2058556    -0.9971798   0.0000140  -0.0003485   0.0007004   0.0000063  -0.0000012  -0.9386165   0.2938308
0.2083862    -0.9971220  -0.0001502  -0.0003240   0.0007179  -0.0000007  -0.0000098  -0.9386430   0.2939738
0.2109480    -0.9971596  -0.0000923  -0.0003522   0.0007133  -0.0000041   0.0000037  -0.9386125   0.2940661
0.2135412    -0.9971317  -0.0000372  -0.0003426   0.0007548   0.0000026  -0.0000099  -0.9385548   0.2941996
0.2161663    -0.9972350  -0.0001480  -0.0003441   0.0007435   0.0000069  -0.0000061  -0.9385860   0.2942747
0.2188237    -0.9970881  -0.0000442  -0.0003309   0.0007632  -0.0000015  -0.0000051  -0.9385893   0.2944157
0.2215137    -0.9971448  -0.0000011  -0.0003143   0.0007378  -0.0000176  -0.0000081  -0.9384733   0.2944849
0.2242369    -0.9972166  -0.0000828  -0.0003264   0.0007735  -0.0000093  -0.0000156  -0.9383799   0.2946712
0.2269935    -0.9972026  -0.0001005  -0.0003294   0.0007744  -0.0000070  -0.0000102  -0.9383557   0.2947396
0.2297839    -0.9971060  -0.0001441  -0.0003172   0.0007739   0.0000008  -0.0000095  -0.9383288   0.2948782
0.2326087    -0.9971449  -0.0001116  -0.0003338   0.0007873  -0.0000072  -0.0000042  -0.9383012   0.2949777
0.2354682    -0.9971722  -0.0000815  -0.0003303   0.0007674   0.0000062  -0.0000025  -0.9382314   0.2950852
0.2383629    -0.9971632  -0.0001237  -0.0003199   0.0007770   0.0000095  -0.0000077  -0.9382402   0.2951383
0.2412932    -0.9971065  -0.0000598  -0.0003246   0.0008147  -0.0000204  -0.0000146  -0.9381400   0.2952565
0.2442594    -0.9971770  -0.0000339  -0.0003262   0.0008136  -0.0000093   0.0000065  -0.9381314   0.2954319
0.2472622    -0.9971947  -0.0000650  -0.0003327   0.0008299  -0.0000034  -0.0000044  -0.9381191   0.2955686
0.2503018    -0.9971070  -0.0000854  -0.0003105   0.0008088  -0.0000125  -0.0000093  -0.9379876   0.2957517
0.2533788    -0.9971807  -0.0000725  -0.0003109   0.0008242  -0.0000040   0.0000031  -0.9379655   0.2957465
0.2564937    -0.9972854  -0.0001028  -0.0003233   0.0008260  -0.0000017  -0.0000116  -0.9379517   0.2958429
0.2596468    -0.9971382  -0.0000055  -0.0003249   0.0008693  -0.0000103  -0.0000019  -0.9378675   0.2960615
0.2628387    -0.9971271  -0.0001059  -0.0003214   0.0008689   0.0000019   0.0000031  -0.9378421   0.2962113
0.2660699    -0.9972401   0.0000355  -0.0003098   0.0008612   0.0000030  -0.0000001  -0.9377637   0.2962477
0.2693407    -0.9972195  -0.0000218  -0.0003200   0.0008774   0.0000029   0.0000017  -0.9376920   0.2964796
0.2726518    -0.9971488  -0.0000180  -0.0003347   0.0008942   0.0000098  -0.0000065  -0.9376563   0.2965318
0.2760036    -0.9972585  -0.0001117  -0.0003070   0.0009152  -0.0000009  -0.0000004  -0.9376370   0.2967253
0.2793966    -0.9972324  -0.0001151  -0.0003169   0.0009046   0.0000015  -0.0000069  -0.9375655   0.2967840
0.2828312    -0.9971406  -0.0000869  -0.0003573   0.0009738  -0.0000054  -0.0000065  -0.9375553   0.2969881
0.2863082    -0.9971499  -0.0001522  -0.0002420   0.0008939  -0.0000069  -0.0000156  -0.9374514   0.2970842
0.2898278    -0.9971416  -0.0001050  -0.0003301   0.0009624   0.0000011  -0.0000148  -0.9373987   0.2972562
0.2933907    -0.9971765  -0.0001296  -0.0002865   0.0010053  -0.0000071  -0.0000110  -0.9374491   0.2973166
0.2969975    -0.9970923  -0.0001000  -0.0003137   0.0009609   0.0000025  -0.0000002  -0.9373918   0.2974570
0.3006485    -0.9972481  -0.0000253  -0.0003206   0.0008906  -0.0000037  -0.0000003  -0.9372446   0.2976492
0.3043445    -0.9971586  -0.0001372  -0.0003196   0.0009695   0.0000030  -0.0000090  -0.9372233   0.2977212
0.3080858    -0.9971820  -0.0000492  -0.0002940   0.0009804   0.0000008  -0.0000047  -0.9371217   0.2978439
0.3118732    -0.9972514  -0.0001248  -0.0002924   0.0009986  -0.0000029  -0.0000037  -0.9370846   0.2981255
0.3157071    -0.9971916  -0.0001586  -0.0002985   0.0009869   0.0000001  -0.0000051  -0.9369519   0.2981806
0.3195882    -0.9972109  -0.0001060  -0.0002964   0.0010191  -0.0000056  -0.0000075  -0.9369621   0.2983713
0.3235170    -0.9971277  -0.0001841  -0.0002932   0.0010122   0.0000005  -0.0000101  -0.9368877   0.2985743
0.3274941    -0.9970815  -0.0002129  -0.0003108   0.0010384  -0.0000171  -0.0000030  -0.9368245   0.2986018
0.3315200    -0.9970953  -0.0001257  -0.0002866   0.0010549  -0.0000011  -0.0000002  -0.9366881   0.2987612
0.3355955    -0.9971396  -0.0001348  -0.0002950   0.0011139   0.0000024  -0.0000098  -0.9367534   0.2988743
0.3397210    -0.9970828  -0.0002532  -0.0003005   0.0010627  -0.0000033  -0.0000140  -0.9366286   0.2991156
0.3438973    -0.9971407  -0.0002140  -0.0002876   0.0011795   0.0000025  -0.0000018  -0.9365542   0.2991742
0.3481249    -0.9972068  -0.0001845  -0.0003063   0.0010929  -0.0000090  -0.0000003  -0.9365513   0.2993079
0.3524045    -0.9971725  -0.0002019  -0.0002987   0.0010357   0.0000071  -0.0000049  -0.9364981   0.2994654
0.3567367    -0.9971115  -0.0000251  -0.0002872   0.0011021   0.0000048  -0.0000006  -0.9364733   0.2996630
0.3611221    -0.9971668  -0.0002253  -0.0002961   0.0011242  -0.0000009  -0.0000053  -0.9363157   0.2998125
0.3655615    -0.9970522  -0.0001414  -0.0002829   0.0011428   0.0000008   0.0000035  -0.9362350   0.2999891
0.3700554    -0.9971020  -0.0001608  -0.0002809   0.0011558  -0.0000078   0.0000013  -0.9361766   0.3001423
0.3746046    -0.9971142  -0.0000969  -0.0002787   0.0011441  -0.0000074   0.0000052  -0.9360952   0.3002810
0.3792097    -0.9972057  -0.0001353  -0.0002845   0.0011655   0.0000027  -0.0000014  -0.9360310   0.3005167
0.3838714    -0.9971781  -0.0002086  -0.0002979   0.0011962  -0.0000147   0.0000006  -0.9360487   0.3006684
0.3885905    -0.9971611  -0.0000332  -0.0002824   0.0011871   0.0000014  -0.0000025  -0.9359445   0.3008066
0.3933675    -0.9973287  -0.0000790  -0.0002679   0.0012286  -0.0000064  -0.0000079  -0.9358374   0.3010662
0.3982033    -0.9972143  -0.0002261  -0.0002799   0.0012122   0.0000045  -0.0000028  -0.9357388   0.3011775
0.4030985    -0.9972003  -0.0002075  -0.0002896   0.0012316  -0.0000013  -0.0000019  -0.9356822   0.3013380
0.4080538    -0.9971576  -0.0002327  -0.0002923   0.0012443   0.0000088  -0.0000011  -0.9356213   0.3015114
0.4130701    -0.9972691  -0.0001409  -0.0002614   0.0012626  -0.0000030  -0.0000011  -0.9354990   0.3017008
0.4181481    -0.9972016  -0.0002969  -0.0002619   0.0012977  -0.0000217  -0.0000123  -0.9354835   0.3019167
0.4232885    -0.9972036  -0.0001775  -0.0002676   0.0013057   0.0000013  -0.0000042  -0.9353929   0.3020374
0.4284921    -0.9972409  -0.0001574  -0.0002694   0.0013258   0.0000050  -0.0000019  -0.9353126   0.3021829
0.4337597    -0.9971572  -0.0002162  -0.0002572   0.0013323  -0.0000025  -0.0000129  -0.9351899   0.3024178
0.4390920    -0.9971610  -0.0001222  -0.0002737   0.0013379   0.0000014  -0.0000040  -0.9351455   0.3026475
0.4444898    -0.9972617  -0.0001992  -0.0002596   0.0013674   0.0000003  -0.0000071  -0.9350953   0.3028394
0.4499541    -0.9970547  -0.0002085  -0.0002612   0.0013690   0.0000018   0.0000071  -0.9349420   0.3029515
0.4554854    -0.9971793  -0.0002550  -0.0002713   0.0013714  -0.0000024   0.0000004  -0.9349191   0.3031716
0.4610848    -0.9971111  -0.0002468  -0.0002594   0.0013893   0.0000036  -0.0000010  -0.9347462   0.3034583
0.4667531    -0.9972556  -0.0001916  -0.0002662   0.0014264  -0.0000048  -0.0000122  -0.9347264   0.3035858
0.4724910    -0.9971265  -0.0002692  -0.0002536   0.0014421   0.0000114  -0.0000039  -0.9345766   0.3037551
0.4782994    -0.9971790  -0.0002221  -0.0002635   0.0014114  -0.0000062  -0.0000052  -0.9345650   0.3040264
0.4841793    -0.9971797  -0.0002415  -0.0002755   0.0014507   0.0000106   0.0000023  -0.9344129   0.3041643
0.4901314    -0.9971887  -0.0001566  -0.0002600   0.0014755   0.0000062  -0.0000086  -0.9344641   0.3044346
0.4961567    -0.9972163  -0.0003319  -0.0002593   0.0014714  -0.0000058  -0.0000014  -0.9343045   0.3046205
0.5022561    -0.9971409  -0.0001282  -0.0002796   0.0014989  -0.0000017  -0.0000053  -0.9341865   0.3048411
0.5084304    -0.9971264  -0.0001550  -0.0002667   0.0015069  -0.0000013  -0.0000019  -0.9340425   0.3051119
0.5146807    -0.9971176  -0.0002729  -0.0002480   0.0015307  -0.0000092  -0.0000063  -0.9339961   0.3052493
0.5210078    -0.9971894  -0.0002090  -0.0002456   0.0015839   0.0000043  -0.0000041  -0.9338725   0.3054744
0.5274126    -0.9972433  -0.0002335  -0.0002472   0.0015687  -0.0000064  -0.0000075  -0.9338402   0.3057256
0.5338963    -0.9972148  -0.0002816  -0.0002751   0.0015868   0.0000003   0.0000057  -0.9337405   0.3059158
0.5404596    -0.9971683  -0.0002980  -0.0002268   0.0016029  -0.0000084   0.0000050  -0.9336710   0.3062319
0.5471036    -0.9972024  -0.0003613  -0.0002341   0.0016259  -0.0000094  -0.0000065  -0.9335276   0.3063257
0.5538292    -0.9973387  -0.0002429  -0.0002500   0.0016420   0.0000020  -0.0000054  -0.9334165   0.3066357
0.5606376    -0.9971480  -0.0002090  -0.0002552   0.0016621  -0.0000026  -0.0000073  -0.9332411   0.3068205
0.5675297    -0.9971921  -0.0002950  -0.0002282   0.0016981  -0.0000022  -0.0000028  -0.9331879   0.3071370
0.5745064    -0.9972427  -0.0003408  -0.0002425   0.0017055   0.0000018   0.0000011  -0.9330557   0.3073340
0.5815690    -0.9971626  -0.0002563  -0.0002098   0.0017125   0.0000020   0.0000047  -0.9330523   0.3075216
0.5887183    -0.9971966  -0.0002522  -0.0002926   0.0017192  -0.0000109  -0.0000114  -0.9328489   0.3077647
0.5959556    -0.9972446  -0.0003118  -0.0002447   0.0017333  -0.0000057  -0.0000093  -0.9327533   0.3080503
0.6032818    -0.9970917  -0.0003391  -0.0002304   0.0017612  -0.0000051  -0.0000031  -0.9326622   0.3083318
0.6106981    -0.9972806  -0.0003299  -0.0002211   0.0018064   0.0000033  -0.0000101  -0.9325332   0.3086434
0.6182056    -0.9971985  -0.0002858  -0.0002258   0.0018044   0.0000045  -0.0000047  -0.9324797   0.3087512
0.6258053    -0.9973119  -0.0002318  -0.0002503   0.0018186  -0.0000036   0.0000009  -0.9323100   0.3090988
0.6334985    -0.9971020  -0.0002836  -0.0002279   0.0018302   0.0000043  -0.0000057  -0.9322906   0.3093580
0.6412862    -0.9972107  -0.0002492  -0.0002155   0.0018699  -0.0000087  -0.0000039  -0.9320162   0.3096498
0.6491697    -0.9972510  -0.0002735  -0.0002214   0.0019097  -0.0000025   0.0000017  -0.9320639   0.3099768
0.6571501    -0.9972092  -0.0002548  -0.0001954   0.0019259  -0.0000156  -0.0000076  -0.9318527   0.3101546
0.6652286    -0.9971026  -0.0003584  -0.0001936   0.0019495   0.0000013  -0.0000025  -0.9317385   0.3105023
0.6734064    -0.9971954  -0.0002984  -0.0002192   0.0019541  -0.0000007  -0.0000128  -0.9316249   0.3107810
0.6816848    -0.9972055  -0.0004060  -0.0002135   0.0019690  -0.0000108  -0.0000052  -0.9314518   0.3109770
0.6900649    -0.9970958  -0.0002159  -0.0001795   0.0019718  -0.0000001  -0.0000024  -0.9313558   0.3112493
0.6985480    -0.9972696  -0.0003149  -0.0002027   0.0020231  -0.0000011  -0.0000022  -0.9312130   0.3116300
0.7071355    -0.9972248  -0.0002695  -0.0001830   0.0020619   0.0000024  -0.0000047  -0.9311384   0.3119213
0.7158284    -0.9971684  -0.0002768  -0.0001990   0.0020835   0.0000018  -0.0000044  -0.9310515   0.3121998
0.7246283    -0.9971527  -0.0002650  -0.0002027   0.0020396  -0.0000065  -0.0000022  -0.9308397   0.3124587
0.7335363    -0.9972605  -0.0002838  -0.0001796   0.0021274   0.0000072  -0.0000030  -0.9308036   0.3127722
0.7425539    -0.9971173  -0.0003081  -0.0002076   0.0021275  -0.0000014  -0.0000051  -0.9306783   0.3131388
0.7516822    -0.9971841  -0.0002227  -0.0002007   0.0021570  -0.0000061   0.0000039  -0.9304417   0.3133883
0.7609229    -0.9972731  -0.0002766  -0.0002173   0.0022116  -0.0000108  -0.0000073  -0.9302693   0.3136903
0.7702771    -0.9971701  -0.0003305  -0.0001824   0.0022229   0.0000060  -0.0000118  -0.9301103   0.3139566
0.7797463    -0.9971887  -0.0003354  -0.0001933   0.0022550  -0.0000053  -0.0000039  -0.9299867   0.3143409
0.7893319    -0.9972580  -0.0002906  -0.0001876   0.0022766  -0.0000011  -0.0000039  -0.9298566   0.3146606
0.7990353    -0.9971148  -0.0003514  -0.0002012   0.0023226   0.0000108   0.0000006  -0.9297423   0.3149845
0.8088580    -0.9971466  -0.0002197  -0.0001959   0.0022969  -0.0000011  -0.0000043  -0.9295781   0.3153214
0.8188015    -0.9971992  -0.0003891  -0.0001951   0.0023752  -0.0000041  -0.0000032  -0.9294537   0.3156519
0.8288673    -0.9972439  -0.0003618  -0.0001746   0.0023824  -0.0000032  -0.0000065  -0.9292674   0.3159989
0.8390567    -0.9972143  -0.0003560  -0.0001896   0.0024205   0.0000029  -0.0000167  -0.9291964   0.3163791
0.8493714    -0.9971694  -0.0003627  -0.0001762   0.0024280   0.0000081  -0.0000012  -0.9290133   0.3166715
0.8598130    -0.9971723  -0.0003502  -0.0001817   0.0024689   0.0000073  -0.0000083  -0.9288463   0.3170546
0.8703829    -0.9972101  -0.0003484  -0.0001463   0.0024719   0.0000037  -0.0000044  -0.9286617   0.3173866
0.8810827    -0.9972656  -0.0004128  -0.0001608   0.0025271  -0.0000029  -0.0000054  -0.9285109   0.3178376
0.8919140    -0.9972657  -0.0003711  -0.0001797   0.0025414   0.0000023  -0.0000108  -0.9283561   0.3181357
0.9028786    -0.9972852  -0.0003429  -0.0001651   0.0025953  -0.0000092   0.0000004  -0.9281942   0.3185210
0.9139779    -0.9971658  -0.0004776  -0.0001458   0.0026046  -0.0000026  -0.0000067  -0.9280326   0.3189216
0.9252136    -0.9971915  -0.0004516  -0.0001657   0.0026466  -0.0000001  -0.0000139  -0.9278553   0.3192816
0.9365875    -0.9972640  -0.0004304  -0.0001713   0.0026604  -0.0000034   0.0000006  -0.9276938   0.3196557
0.9481012    -0.9971613  -0.0004575  -0.0001427   0.0026967  -0.0000017  -0.0000055  -0.9275186   0.3200543
0.9597564    -0.9972705  -0.0004044  -0.0001497   0.0027293  -0.0000017  -0.0000023  -0.9273121   0.3204456
0.9715549    -0.9972361  -0.0004183  -0.0001308   0.0027562  -0.0000036  -0.0000012  -0.9271461   0.3208858
0.9834985    -0.9972031  -0.0003875  -0.0001511   0.0027870  -0.0000065  -0.0000013  -0.9270109   0.3212321
0.9955889    -0.9972605  -0.0004572  -0.0001406   0.0028168  -0.0000032  -0.0000050  -0.9268638   0.3216050
1.0078279    -0.9972520  -0.0003894  -0.0001557   0.0028405   0.0000107  -0.0000079  -0.9265545   0.3220619
1.0202173    -0.9972632  -0.0004478  -0.0001455   0.0028792   0.0000011  -0.0000053  -0.9264578   0.3224213
1.0327591    -0.9971927  -0.0004193  -0.0001302   0.0029251  -0.0000039  -0.0000004  -0.9262505   0.3229331
1.0454551    -0.9971671  -0.0004693  -0.0001293   0.0029505   0.0000008  -0.0000101  -0.9260666   0.3233381
1.0583071    -0.9971530  -0.0004168  -0.0001089   0.0029587  -0.0000013   0.0000049  -0.9258682   0.3237213
1.0713171    -0.9972293  -0.0005166  -0.0001218   0.0030319  -0.0000064   0.0000018  -0.9255917   0.3241481
1.0844871    -0.9971866  -0.0004457  -0.0001264   0.0030443  -0.0000048   0.0000027  -0.9254617   0.3245377
1.0978189    -0.9971820  -0.0005127  -0.0001106   0.0030917   0.0000007   0.0000068  -0.9252756   0.3250599
1.1113147    -0.9972219  -0.0004095  -0.0001271   0.0031244  -0.0000006  -0.0000055  -0.9250334   0.3254274
1.1249763    -0.9972559  -0.0004404  -0.0001142   0.0031576  -0.0000013  -0.0000018  -0.9248774   0.3259905
1.1388059    -0.9972739  -0.0004831  -0.0001105   0.0031935  -0.0000019  -0.0000060  -0.9247198   0.3264517
1.1528056    -0.9972717  -0.0004944  -0.0001101   0.0032364  -0.0000044  -0.0000036  -0.9244583   0.3268988
1.1669773    -0.9972374  -0.0004974  -0.0000930   0.0032668  -0.0000009  -0.0000082  -0.9242727   0.3273953
1.1813232    -0.9972278  -0.0005660  -0.0001045   0.0033035  -0.0000031  -0.0000048  -0.9240773   0.3278585
1.1958455    -0.9972238  -0.0005731  -0.0001072   0.0033326   0.0000009   0.0000004  -0.9238039   0.3283554
1.2105463    -0.9973342  -0.0004947  -0.0000988   0.0033553  -0.0000031  -0.0000085  -0.9236208   0.3288517
1.2254278    -0.9972815  -0.0005349  -0.0000979   0.0034194  -0.0000064   0.0000002  -0.9233540   0.3293477
1.2404923    -0.9972451  -0.0006093  -0.0001097   0.0034739   0.0000005  -0.0000006  -0.9232183   0.3298264
1.2557420    -0.9972639  -0.0005438  -0.0000947   0.0035067   0.0000060  -0.0000034  -0.9229541   0.3303611
1.2711791    -0.9973396  -0.0004245  -0.0000910   0.0035460   0.0000058   0.0000032  -0.9226769   0.3308420
1.2868060    -0.9973086  -0.0005341  -0.0000782   0.0035825  -0.0000086   0.0000018  -0.9224299   0.3313969
1.3026251    -0.9973476  -0.0006756  -0.0000980   0.0035833   0.0000010  -0.0000178  -0.9221532   0.3319239
1.3186385    -0.9971659  -0.0005705  -0.0000729   0.0036459  -0.0000032  -0.0000001  -0.9219294   0.3324706
1.3348489    -0.9973014  -0.0005903  -0.0000593   0.0037125  -0.0000022  -0.0000067  -0.9217568   0.3330027
1.3512585    -0.9972552  -0.0005572  -0.0000798   0.0037625  -0.0000067  -0.0000152  -0.9214508   0.3335168
1.3678698    -0.9972419  -0.0004909  -0.0000663   0.0037966  -0.0000091  -0.0000157  -0.9212825   0.3340755
1.3846854    -0.9972181  -0.0005548  -0.0000362   0.0038262   0.0000027  -0.0000135  -0.9210106   0.3347380
1.4017077    -0.9972702  -0.0005846  -0.0000535   0.0038719   0.0000041   0.0000045  -0.9207423   0.3352204
1.4189392    -0.9974244  -0.0005599  -0.0000580   0.0039315   0.0000006   0.0000001  -0.9205003   0.3357456
1.4363825    -0.9972652  -0.0006309  -0.0000943   0.0040136  -0.0000072  -0.0000012  -0.9202484   0.3363581
1.4540403    -0.9972666  -0.0006730  -0.0000436   0.0040215  -0.0000064  -0.0000011  -0.9199559   0.3369570
1.4719152    -0.9972784  -0.0006173  -0.0000371   0.0040605   0.0000078   0.0000075  -0.9197156   0.3376479
1.4900098    -0.9972435  -0.0006330  -0.0000429   0.0040958   0.0000059  -0.0000025  -0.9193985   0.3381595
1.5083269    -0.9973625  -0.0006535  -0.0000484   0.0041535  -0.0000053   0.0000013  -0.9191216   0.3387463
1.5268691    -0.9973108  -0.0006334  -0.0000274   0.0041873   0.0000075  -0.0000016  -0.9188447   0.3393919
1.5456392    -0.9972821  -0.0006302  -0.0000176   0.0042559  -0.0000034  -0.0000016  -0.9186352   0.3399954
1.5646402    -0.9971740  -0.0005204  -0.0000274   0.0042862   0.0000027  -0.0000022  -0.9183255   0.3407034
1.5838747    -0.9971663  -0.0006724  -0.0000164   0.0043522  -0.0000058   0.0000018  -0.9180071   0.3413056
1.6033456    -0.9973854  -0.0006397  -0.0000275   0.0043988  -0.0000038   0.0000005  -0.9178175   0.3419714
1.6230559    -0.9973101  -0.0005912   0.0000052   0.0044609   0.0000040  -0.0000088  -0.9174998   0.3426997
1.6430085    -0.9973763  -0.0006735  -0.0000078   0.0045005  -0.0000092  -0.0000087  -0.9171685   0.3433497
1.6632064    -0.9974224  -0.0007214  -0.0000129   0.0045677  -0.0000108  -0.0000073  -0.9168588   0.3440620
1.6836526    -0.9972764  -0.0006966  -0.0000082   0.0046327   0.0000037  -0.0000099  -0.9166106   0.3447857
1.7043502    -0.9972708  -0.0007433   0.0000149   0.0046665   0.0000002  -0.0000113  -0.9161800   0.3455200
1.7253021    -0.9972696  -0.0007536   0.0000102   0.0047175  -0.0000079  -0.0000040  -0.9159925   0.3461715
1.7465117    -0.9972917  -0.0008050   0.0000182   0.0047865   0.0000025  -0.0000055  -0.9157903   0.3469968
1.7679820    -0.9972230  -0.0007832   0.0000007   0.0048404  -0.0000045   0.0000031  -0.9154066   0.3477171
1.7897162    -0.9973242  -0.0007150   0.0000338   0.0048714  -0.0000016  -0.0000074  -0.9151174   0.3484560
1.8117176    -0.9973286  -0.0006656   0.0000114   0.0048814  -0.0000088  -0.0000035  -0.9147761   0.3493066
1.8339895    -0.9973226  -0.0007140   0.0000285   0.0049934  -0.0000118  -0.0000034  -0.9144893   0.3500739
1.8565352    -0.9972423  -0.0007352   0.0000374   0.0050569  -0.0000061  -0.0000007  -0.9141587   0.3508992
1.8793580    -0.9973124  -0.0007192   0.0000222   0.0051333   0.0000050  -0.0000067  -0.9138773   0.3516445
1.9024614    -0.9973478  -0.0007336   0.0000511   0.0051504   0.0000034   0.0000019  -0.9136433   0.3524820
1.9258488    -0.9973509  -0.0007813   0.0000540   0.0052493  -0.0000040  -0.0000066  -0.9132013   0.3533232
1.9495237    -0.9972873  -0.0007671   0.0000471   0.0052802  -0.0000036  -0.0000086  -0.9128573   0.3542622
1.9734897    -0.9973164  -0.0007641   0.0000473   0.0053563  -0.0000027  -0.0000027  -0.9124967   0.3551210
1.9977503    -0.9972737  -0.0008280   0.0000538   0.0054183  -0.0000022  -0.0000100  -0.9121862   0.3560367
2.0223091    -0.9973561  -0.0008170   0.0000467   0.0054825   0.0000036  -0.0000066  -0.9117146   0.3569520
2.0471698    -0.9972855  -0.0007874   0.0000547   0.0055345   0.0000021  -0.0000058  -0.9112576   0.3578717
2.0723362    -0.9972791  -0.0007986   0.0000835   0.0056059  -0.0000052  -0.0000109  -0.9108508   0.3587810
2.0978119    -0.9973744  -0.0008238   0.0000625   0.0056482  -0.0000046  -0.0000081  -0.9103719   0.3597379
2.1236008    -0.9972644  -0.0008831   0.0000607   0.0057564  -0.0000093  -0.0000004  -0.9098752   0.3606545
2.1497067    -0.9973414  -0.0008572   0.0000734   0.0058056  -0.0000046  -0.0000022  -0.9093895   0.3616367
2.1761336    -0.9973619  -0.0008381   0.0000708   0.0058889  -0.0000068  -0.0000094  -0.9089004   0.3624516
2.2028853    -0.9973339  -0.0008674   0.0000974   0.0059503  -0.0000069  -0.0000036  -0.9082573   0.3634525
2.2299659    -0.9972240  -0.0008209   0.0000969   0.0059897  -0.0000041  -0.0000103  -0.9079217   0.3643863
2.2573794    -0.9972707  -0.0009871   0.0000907   0.0060640  -0.0000005   0.0000045  -0.9073349   0.3653268
2.2851299    -0.9973036  -0.0009763   0.0000896   0.0061480  -0.0000203  -0.0000078  -0.9067572   0.3662666
2.3132216    -0.9972839  -0.0009381   0.0001342   0.0062202  -0.0000061  -0.0000051  -0.9062437   0.3671181
2.3416586    -0.9973559  -0.0008888   0.0001057   0.0062909   0.0000013  -0.0000147  -0.9056892   0.3680784
2.3704451    -0.9973459  -0.0009795   0.0001019   0.0063469  -0.0000051  -0.0000091  -0.9051684   0.3691096
2.3995856    -0.9972774  -0.0009737   0.0000923   0.0064441  -0.0000066  -0.0000082  -0.9045189   0.3700807
2.4290843    -0.9973484  -0.0009064   0.0001103   0.0065069  -0.0000003  -0.0000136  -0.9041214   0.3709168
2.4589456    -0.9973129  -0.0009183   0.0001368   0.0065735  -0.0000015  -0.0000055  -0.9035454   0.3719175
2.4891740    -0.9974063  -0.0009691   0.0001538   0.0066628   0.0000065   0.0000046  -0.9030067   0.3729132
2.5197740    -0.9973885  -0.0010121   0.0001566   0.0067511  -0.0000101  -0.0000049  -0.9025121   0.3739415
2.5507502    -0.9973197  -0.0010102   0.0001344   0.0068243  -0.0000041   0.0000006  -0.9019500   0.3748543
2.5821072    -0.9973495  -0.0010105   0.0001640   0.0069097   0.0000005  -0.0000009  -0.9013914   0.3758758
2.6138496    -0.9973513  -0.0011113   0.0001582   0.0069886  -0.0000073  -0.0000027  -0.9007222   0.3768633
2.6459823    -0.9974113  -0.0009812   0.0001308   0.0070287  -0.0000029   0.0000048  -0.9001987   0.3779199
2.6785100    -0.9972748  -0.0009959   0.0001718   0.0071472  -0.0000082  -0.0000121  -0.8996597   0.3790409
2.7114376    -0.9973123  -0.0011668   0.0001921   0.0072257  -0.0000063  -0.0000062  -0.8990225   0.3800620
2.7447699    -0.9973981  -0.0011401   0.0002073   0.0073141   0.0000017  -0.0000063  -0.8984440   0.3810689
2.7785120    -0.9973326  -0.0011506   0.0001205   0.0073788  -0.0000026  -0.0000068  -0.8978285   0.3821643
2.8126689    -0.9972427  -0.0011002   0.0001836   0.0074900  -0.0000122   0.0000035  -0.8973122   0.3833147
2.8472457    -0.9973358  -0.0011200   0.0002142   0.0075624  -0.0000035  -0.0000070  -0.8967607   0.3844286
2.8822476    -0.9973483  -0.0010707   0.0001918   0.0076457   0.0000060   0.0000022  -0.8961782   0.3855124
2.9176798    -0.9973396  -0.0011580   0.0002074   0.0077515  -0.0000007  -0.0000141  -0.8955195   0.3866086
2.9535475    -0.9973340  -0.0011503   0.0001855   0.0078942  -0.0000058  -0.0000054  -0.8949483   0.3878070
2.9898562    -0.9974648  -0.0011362   0.0002316   0.0079235  -0.0000028  -0.0000049  -0.8942470   0.3890268
3.0266112    -0.9974276  -0.0011617   0.0002366   0.0080727  -0.0000014  -0.0000102  -0.8936296   0.3901293
3.0638180    -0.9973836  -0.0012096   0.0002688   0.0081223  -0.0000027  -0.0000106  -0.8929854   0.3913348
3.1014823    -0.9973266  -0.0011413   0.0002192   0.0081990   0.0000122   0.0000001  -0.8923790   0.3926033
3.1396096    -0.9973639  -0.0011396   0.0002599   0.0083128   0.0000007  -0.0000151  -0.8916534   0.3937399
3.1782055    -0.9974467  -0.0012368   0.0002421   0.0083980  -0.0000052  -0.0000060  -0.8910269   0.3950064
3.2172760    -0.9974907  -0.0011963   0.0002896   0.0084828  -0.0000021  -0.0000025  -0.8903442   0.3962763
3.2568267    -0.9973622  -0.0012853   0.0002679   0.0085911   0.0000000   0.0000010  -0.8897056   0.3975141
3.2968637    -0.9973518  -0.0014059   0.0002793   0.0086956   0.0000079  -0.0000071  -0.8889123   0.3988380
3.3373928    -0.9974952  -0.0013471   0.0002933   0.0088036  -0.0000055  -0.0000043  -0.8882090   0.4000991
3.3784202    -0.9974387  -0.0012875   0.0002965   0.0089034   0.0000017  -0.0000115  -0.8874257   0.4014749
3.4199519    -0.9972997  -0.0013258   0.0002778   0.0089858  -0.0000018  -0.0000072  -0.8867184   0.4027799
3.4619942    -0.9974757  -0.0014697   0.0002860   0.0091140   0.0000094  -0.0000015  -0.8859021   0.4040620
3.5045533    -0.9974918  -0.0014323   0.0003140   0.0091889  -0.0000130  -0.0000043  -0.8851955   0.4055343
3.5476356    -0.9974824  -0.0014667   0.0003121   0.0093187  -0.0000032  -0.0000072  -0.8844131   0.4068135
3.5912475    -0.9974557  -0.0013951   0.0003308   0.0094239   0.0000050  -0.0000068  -0.8835820   0.4081858
3.6353956    -0.9974306  -0.0014549   0.0003340   0.0095183  -0.0000033   0.0000033  -0.8828196   0.4096963
3.6800864    -0.9975510  -0.0013609   0.0003162   0.0096894  -0.0000019  -0.0000012  -0.8820544   0.4111741
3.7253266    -0.9974115  -0.0015001   0.0003612   0.0097509  -0.0000012   0.0000029  -0.8812237   0.4125975
3.7711229    -0.9974250  -0.0014495   0.0003361   0.0098681   0.0000036  -0.0000073  -0.8804596   0.4140384
3.8174822    -0.9974842  -0.0015596   0.0003417   0.0099811   0.0000054  -0.0000037  -0.8795996   0.4154965
3.8644115    -0.9974912  -0.0015080   0.0003500   0.0101218  -0.0000027  -0.0000005  -0.8788628   0.4170898
3.9119176    -0.9974695  -0.0014578   0.0003858   0.0102114   0.0000050  -0.0000047  -0.8780034   0.4186069
3.9600077    -0.9974257  -0.0015012   0.0003642   0.0103462  -0.0000003  -0.0000106  -0.8772529   0.4201030
4.0086890    -0.9973812  -0.0015233   0.0003615   0.0104753  -0.0000001  -0.0000011  -0.8762245   0.4216955
4.0579688    -0.9973672  -0.0016102   0.0003852   0.0106017   0.0000105  -0.0000087  -0.8753939   0.4232443
4.1078544    -0.9973683  -0.0016129   0.0004163   0.0107321   0.0000009  -0.0000062  -0.8745147   0.4247613
4.1583532    -0.9974437  -0.0016616   0.0003927   0.0108335  -0.0000076  -0.0000134  -0.8735491   0.4263804
4.2094729    -0.9975432  -0.0016392   0.0004026   0.0109792  -0.0000130  -0.0000085  -0.8727399   0.4279787
4.2612209    -0.9975293  -0.0017129   0.0004115   0.0111183   0.0000049  -0.0000003  -0.8717528   0.4295703
4.3136051    -0.9974731  -0.0017104   0.0004241   0.0112356   0.0000094  -0.0000038  -0.8707551   0.4312195
4.3666333    -0.9974653  -0.0016926   0.0004332   0.0113580  -0.0000042  -0.0000094  -0.8698497   0.4329018
4.4203134    -0.9975278  -0.0017714   0.0004884   0.0114561  -0.0000094  -0.0000055  -0.8687537   0.4345216
4.4746534    -0.9975355  -0.0017960   0.0004861   0.0116392  -0.0000100  -0.0000040  -0.8676684   0.4362446
4.5296613    -0.9974257  -0.0017925   0.0004484   0.0118020  -0.0000140  -0.0000062  -0.8666960   0.4379928
4.5853455    -0.9973642  -0.0018865   0.0004582   0.0119169   0.0000126  -0.0000056  -0.8655878   0.4397037
4.6417143    -0.9974538  -0.0018034   0.0004810   0.0120606   0.0000038  -0.0000010  -0.8644354   0.4412928
4.6987760    -0.9973619  -0.0018033   0.0004965   0.0121914  -0.0000146  -0.0000077  -0.8633619   0.4429503
4.7565392    -0.9975034  -0.0018030   0.0005012   0.0123364  -0.0000048  -0.0000118  -0.8622112   0.4446939
4.8150125    -0.9974517  -0.0019646   0.0005036   0.0124513   0.0000012  -0.0000054  -0.8610678   0.4463435
4.8742045    -0.9975035  -0.0019460   0.0005042   0.0126301   0.0000013  -0.0000100  -0.8598778   0.4479819
4.9341243    -0.9975331  -0.0020082   0.0005405   0.0128021  -0.0000079  -0.0000109  -0.8588102   0.4494953
4.9947807    -0.9974703  -0.0019977   0.0005191   0.0129233  -0.0000006  -0.0000013  -0.8578174   0.4510817
5.0561827    -0.9974875  -0.0019822   0.0005245   0.0131082  -0.0000007  -0.0000055  -0.8568059   0.4527803
5.1183396    -0.9974245  -0.0020738   0.0005198   0.0132475   0.0000014  -0.0000067  -0.8558557   0.4544847
5.1812606    -0.9975256  -0.0020628   0.0005567   0.0133220   0.0000041   0.0000007  -0.8549632   0.4562606
5.2449550    -0.9975495  -0.0021475   0.0005730   0.0135354  -0.0000038  -0.0000165  -0.8540537   0.4582926
5.3094325    -0.9974680  -0.0019931   0.0005743   0.0136801  -0.0000002  -0.0000129  -0.8530595   0.4601084
5.3747026    -0.9974318  -0.0020620   0.0005910   0.0138894  -0.0000032  -0.0000010  -0.8520304   0.4623129
5.4407751    -0.9975899  -0.0020697   0.0006017   0.0140388   0.0000050  -0.0000045  -0.8508710   0.4642557
5.5076599    -0.9975441  -0.0020761   0.0006162   0.0141858  -0.0000117  -0.0000096  -0.8497691   0.4663224
5.5753669    -0.9974818  -0.0021699   0.0005643   0.0142395   0.0000046  -0.0000046  -0.8485973   0.4684798
5.6439062    -0.9975108  -0.0022410   0.0006381   0.0145439   0.0000020  -0.0000020  -0.8474325   0.4705647
5.7132881    -0.9975283  -0.0022825   0.0006509   0.0147367  -0.0000053  -0.0000021  -0.8461542   0.4727491
5.7835229    -0.9975249  -0.0022704   0.0006426   0.0148890   0.0000120  -0.0000015  -0.8448744   0.4749231
5.8546211    -0.9976097  -0.0022802   0.0006440   0.0150739   0.0000019  -0.0000059  -0.8436650   0.4771559
5.9265934    -0.9976024  -0.0023476   0.0007429   0.0152255   0.0000031  -0.0000032  -0.8422969   0.4793258
5.9994504    -0.9975371  -0.0023798   0.0006971   0.0153913  -0.0000047  -0.0000054  -0.8409209   0.4814409
6.0732031    -0.9975710  -0.0023943   0.0006858   0.0156208  -0.0000113  -0.0000100  -0.8395623   0.4836481
6.1478624    -0.9975264  -0.0023345   0.0007040   0.0158020   0.0000063  -0.0000045  -0.8381859   0.4858738
6.2234396    -0.9975205  -0.0024165   0.0007132   0.0159872  -0.0000013  -0.0000036  -0.8366054   0.4881844
6.2999458    -0.9976259  -0.0024378   0.0007172   0.0161819  -0.0000015  -0.0000074  -0.8352632   0.4904485
6.3773925    -0.9975748  -0.0024670   0.0007206   0.0163334  -0.0000065  -0.0000109  -0.8337530   0.4927246
6.4557914    -0.9976083  -0.0025204   0.0007407   0.0165705   0.0000019  -0.0000044  -0.8322471   0.4949631
6.5351539    -0.9976264  -0.0026127   0.0007367   0.0167344  -0.0000016   0.0000001  -0.8307492   0.4973691
6.6154922    -0.9975382  -0.0024786   0.0007744   0.0169640   0.0000017  -0.0000067  -0.8291662   0.4997310
6.6968180    -0.9975540  -0.0025102   0.0007528   0.0171919  -0.0000013  -0.0000054  -0.8275994   0.5021189
6.7791436    -0.9976363  -0.0025932   0.0008098   0.0173158  -0.0000036  -0.0000061  -0.8260330   0.5044637
6.8624812    -0.9975739  -0.0026021   0.0008182   0.0175910  -0.0000017  -0.0000108  -0.8244187   0.5069328
6.9468433    -0.9976321  -0.0026853   0.0007627   0.0177148  -0.0000075   0.0000006  -0.8228260   0.5093485
7.0322425    -0.9975242  -0.0027186   0.0008474   0.0179502  -0.0000001  -0.0000017  -0.8211146   0.5118158
7.1186916    -0.9975925  -0.0028182   0.0008454   0.0181816   0.0000055  -0.0000068  -0.8194095   0.5143454
7.2062034    -0.9976454  -0.0028896   0.0008829   0.0184070  -0.0000054  -0.0000028  -0.8176992   0.5169044
7.2947909    -0.9976503  -0.0026907   0.0008875   0.0186477  -0.0000060  -0.0000003  -0.8159561   0.5194736
7.3844675    -0.9974756  -0.0029316   0.0009194   0.0188397  -0.0000109  -0.0000018  -0.8142863   0.5220747
7.4752466    -0.9975582  -0.0029207   0.0009385   0.0190561   0.0000062  -0.0000064  -0.8124937   0.5246904
7.5671416    -0.9976925  -0.0029035   0.0008999   0.0192886  -0.0000101   0.0000033  -0.8107805   0.5273408
7.6601662    -0.9975784  -0.0029276   0.0009711   0.0195344  -0.0000032  -0.0000058  -0.8089321   0.5300260
7.7543345    -0.9976060  -0.0030205   0.0009522   0.0197694  -0.0000011  -0.0000027  -0.8070409   0.5328550
7.8496604    -0.9976034  -0.0030340   0.0009829   0.0199863  -0.0000081  -0.0000079  -0.8052010   0.5356596
7.9461581    -0.9976143  -0.0030797   0.0010287   0.0202515  -0.0000041  -0.0000001  -0.8031845   0.5385086
8.0438422    -0.9976650  -0.0030887   0.0009936   0.0204959  -0.0000019   0.0000034  -0.8012046   0.5413537
8.1427270    -0.9976816  -0.0031373   0.0010766   0.0208400   0.0000042   0.0000010  -0.7990345   0.5443276
8.2428275    -0.9975866  -0.0031562   0.0010348   0.0210449   0.0000016   0.0000028  -0.7968067   0.5471867
8.3441586    -0.9976081  -0.0031116   0.0010828   0.0212447  -0.0000017   0.0000017  -0.7946318   0.5499687
8.4467353    -0.9975489  -0.0032802   0.0010568   0.0214708   0.0000085  -0.0000037  -0.7923743   0.5529673
8.5505731    -0.9976732  -0.0033217   0.0010746   0.0217186   0.0000036  -0.0000037  -0.7900742   0.5557386
8.6556873    -0.9976046  -0.0032871   0.0011343   0.0220036   0.0000022  -0.0000069  -0.7877981   0.5586649
8.7620937    -0.9976337  -0.0033139   0.0011062   0.0221886  -0.0000146  -0.0000022  -0.7855033   0.5615264
8.8698082    -0.9977379  -0.0033039   0.0012357   0.0225112   0.0000006  -0.0000076  -0.7831491   0.5644380
8.9788469    -0.9976772  -0.0034381   0.0011664   0.0228733   0.0000057  -0.0000060  -0.7808526   0.5673655
9.0892260    -0.9975891  -0.0034788   0.0011872   0.0230463  -0.0000017  -0.0000065  -0.7784899   0.5703176
9.2009621    -0.9977614  -0.0035811   0.0012138   0.0233485  -0.0000012  -0.0000011  -0.7759998   0.5733714
9.3140717    -0.9977213  -0.0035246   0.0012412   0.0236034   0.0000038   0.0000058  -0.7735743   0.5763568
9.4285718    -0.9976575  -0.0036081   0.0011989   0.0239414  -0.0000053  -0.0000121  -0.7711036   0.5794398
9.5444795    -0.9976733  -0.0037340   0.0012735   0.0241667  -0.0000082   0.0000062  -0.7685506   0.5825374
9.6618121    -0.9976334  -0.0037120   0.0013008   0.0244463   0.0000018  -0.0000043  -0.7660223   0.5856292
9.7805870    -0.9976938  -0.0038042   0.0012852   0.0247055   0.0000009   0.0000032  -0.7634060   0.5888029
9.9008221    -0.9976514  -0.0038601   0.0013302   0.0250374   0.0000039  -0.0000012  -0.7607542   0.5920226
10.0225353   -0.9976682  -0.0038222   0.0013681   0.0253279  -0.0000049  -0.0000083  -0.7581033   0.5951324
10.1457447   -0.9976297  -0.0039312   0.0013860   0.0256275  -0.0000039  -0.0000058  -0.7553612   0.5984296
10.2704688   -0.9978134  -0.0038619   0.0014677   0.0259509  -0.0000041  -0.0000085  -0.7526769   0.6017045
10.3967261   -0.9976744  -0.0040915   0.0014243   0.0262546  -0.0000061  -0.0000066  -0.7498397   0.6050384
10.5245356   -0.9976749  -0.0040654   0.0014879   0.0265948  -0.0000079  -0.0000076  -0.7469667   0.6082174
10.6539162   -0.9976906  -0.0040467   0.0014915   0.0269268   0.0000029   0.0000029  -0.7440703   0.6115378
10.7848873   -0.9976772  -0.0041347   0.0015109   0.0271958   0.0000005  -0.0000063  -0.7411368   0.6149778
10.9174685   -0.9978375  -0.0042375   0.0015684   0.0275667  -0.0000070  -0.0000035  -0.7381281   0.6183689
11.0516796   -0.9977301  -0.0041581   0.0015350   0.0278600  -0.0000045   0.0000037  -0.7349763   0.6217995
11.1875405   -0.9976731  -0.0041601   0.0015284   0.0281308   0.0000009  -0.0000076  -0.7319551   0.6253218
11.3250716   -0.9977352  -0.0043224   0.0015904   0.0285438  -0.0000013  -0.0000002  -0.7288001   0.6287838
11.4642934   -0.9977599  -0.0043594   0.0016083   0.0288567  -0.0000070  -0.0000020  -0.7255736   0.6322627
11.6052267   -0.9977696  -0.0044557   0.0016426   0.0292122  -0.0000104  -0.0000051  -0.7223402   0.6358978
11.7478926   -0.9977596  -0.0044927   0.0016822   0.0295596  -0.0000036   0.0000009  -0.7190147   0.6394037
11.8923122   -0.9977293  -0.0045582   0.0017033   0.0298972   0.0000007   0.0000002  -0.7156511   0.6429700
12.0385073   -0.9977226  -0.0046229   0.0016968   0.0302359  -0.0000075  -0.0000003  -0.7121713   0.6466395
12.1864995   -0.9977892  -0.0046554   0.0017555   0.0306105  -0.0000044  -0.0000095  -0.7086981   0.6502674
12.3363111   -0.9978281  -0.0047158   0.0017903   0.0309778  -0.0000098  -0.0000015  -0.7052440   0.6539590
12.4879643   -0.9977114  -0.0046966   0.0018010   0.0313570  -0.0000047  -0.0000026  -0.7015574   0.6576797
12.6414818   -0.9977719  -0.0046930   0.0018171   0.0317231   0.0000050  -0.0000068  -0.6978449   0.6613944
12.7968866   -0.9976639  -0.0048056   0.0018040   0.0320855   0.0000019  -0.0000131  -0.6941116   0.6651428
12.9542018   -0.9977477  -0.0048344   0.0019153   0.0324683   0.0000027   0.0000004  -0.6903715   0.6689079
13.1134509   -0.9977489  -0.0049042   0.0019018   0.0328531  -0.0000100  -0.0000035  -0.6864955   0.6727020
13.2746577   -0.9977345  -0.0051352   0.0019392   0.0332394  -0.0000033  -0.0000037  -0.6825288   0.6765492
13.4378462   -0.9977729  -0.0051102   0.0019750   0.0336732   0.0000116  -0.0000093  -0.6785797   0.6805044
13.6030409   -0.9977203  -0.0051410   0.0020322   0.0340461   0.0000024  -0.0000091  -0.6744924   0.6843455
13.7702663   -0.9977689  -0.0051840   0.0019982   0.0344353  -0.0000078   0.0000053  -0.6703140   0.6882447
13.9395475   -0.9977216  -0.0052077   0.0020940   0.0348527  -0.0000009  -0.0000010  -0.6661352   0.6921232
14.1109097   -0.9978135  -0.0052674   0.0021330   0.0352453  -0.0000038  -0.0000051  -0.6618006   0.6961022
14.2843785   -0.9977687  -0.0054400   0.0021930   0.0357097   0.0000052   0.0000030  -0.6574447   0.7000021
14.4599797   -0.9977630  -0.0054476   0.0022454   0.0360863   0.0000036  -0.0000067  -0.6530176   0.7040575
14.6377397   -0.9978174  -0.0055468   0.0022522   0.0365766  -0.0000093  -0.0000076  -0.6485291   0.7080584
14.8176850   -0.9977795  -0.0056078   0.0023619   0.0369806  -0.0000131   0.0000027  -0.6439510   0.7120446
14.9998423   -0.9977698  -0.0056530   0.0023232   0.0374070  -0.0000022  -0.0000131  -0.6392536   0.7161155
15.1842390   -0.9979133  -0.0057137   0.0023867   0.0379071  -0.0000130   0.0000049  -0.6344815   0.7202062
15.3709024   -0.9977943  -0.0057592   0.0023546   0.0383326  -0.0000048   0.0000017  -0.6297241   0.7242485
15.5598606   -0.9977622  -0.0058305   0.0024398   0.0387903  -0.0000054  -0.0000108  -0.6248621   0.7283607
15.7511417   -0.9977301  -0.0059264   0.0024256   0.0392598   0.0000019  -0.0000063  -0.6198680   0.7325479
15.9447743   -0.9977326  -0.0059879   0.0025167   0.0397363   0.0000020  -0.0000005  -0.6148227   0.7366409
16.1407872   -0.9978318  -0.0060019   0.0025490   0.0402251  -0.0000153  -0.0000110  -0.6095775   0.7408179
16.3392097   -0.9977557  -0.0060784   0.0025937   0.0407031  -0.0000056   0.0000011  -0.6043237   0.7450111
16.5400716   -0.9977928  -0.0061459   0.0026150   0.0411830  -0.0000077   0.0000002  -0.5990279   0.7492048
16.7434026   -0.9978546  -0.0062483   0.0027110   0.0416877  -0.0000112  -0.0000024  -0.5935454   0.7533613
16.9492333   -0.9977809  -0.0063558   0.0027093   0.0421596   0.0000049   0.0000022  -0.5880423   0.7577115
17.1575942   -0.9978816  -0.0062590   0.0027885   0.0426960  -0.0000039   0.0000064  -0.5824226   0.7618352
17.3685166   -0.9978345  -0.0064433   0.0028200   0.0431674  -0.0000002   0.0000013  -0.5767305   0.7661086
17.5820320   -0.9977846  -0.0066055   0.0028542   0.0436948  -0.0000036  -0.0000010  -0.5708657   0.7702965
17.7981721   -0.9978537  -0.0066470   0.0028948   0.0442334  -0.0000008  -0.0000063  -0.5649477   0.7746078
18.0169693   -0.9978749  -0.0067244   0.0029137   0.0447688  -0.0000148   0.0000015  -0.5589829   0.7788677
18.2384562   -0.9978506  -0.0067293   0.0029781   0.0452980  -0.0000088  -0.0000066  -0.5528978   0.7832294
18.4626659   -0.9978369  -0.0068786   0.0030220   0.0459024   0.0000017  -0.0000043  -0.5466180   0.7874117
18.6896319   -0.9978001  -0.0068706   0.0031087   0.0464772  -0.0000066   0.0000047  -0.5403799   0.7916946
18.9193880   -0.9979156  -0.0069547   0.0031535   0.0470316  -0.0000040  -0.0000020  -0.5338648   0.7960754
19.1519686   -0.9978896  -0.0070795   0.0032166   0.0474983   0.0000009  -0.0000067  -0.5272533   0.8003731
19.3874083   -0.9979674  -0.0072201   0.0032620   0.0481373  -0.0000090  -0.0000072  -0.5205907   0.8046701
19.6257423   -0.9979019  -0.0073465   0.0033279   0.0487124  -0.0000034  -0.0000054  -0.5139282   0.8090026
19.8670063   -0.9980418  -0.0073854   0.0034068   0.0492660  -0.0000003  -0.0000053  -0.5070653   0.8132444
20.1112361   -0.9980664  -0.0074249   0.0034646   0.0498816   0.0000014   0.0000039  -0.5000667   0.8175503
20.3584684   -0.9979918  -0.0075641   0.0035788   0.0504299  -0.0000109  -0.0000031  -0.4928451   0.8218131
20.6087399   -0.9979752  -0.0075961   0.0036291   0.0510719   0.0000064  -0.0000074  -0.4856078   0.8260492
20.8620881   -0.9978442  -0.0077313   0.0036775   0.0516623  -0.0000070   0.0000015  -0.4781752   0.8303917
21.1185507   -0.9979575  -0.0078237   0.0037494   0.0522674  -0.0000055   0.0000029  -0.4706816   0.8346281
21.3781661   -0.9979438  -0.0078824   0.0038279   0.0529253  -0.0000035  -0.0000010  -0.4630449   0.8387695
21.6409730   -0.9979180  -0.0079866   0.0038718   0.0535573  -0.0000039  -0.0000078  -0.4552968   0.8429882
21.9070107   -0.9978434  -0.0080968   0.0039570   0.0541808  -0.0000070   0.0000040  -0.4474480   0.8472129
22.1763188   -0.9979276  -0.0083088   0.0040053   0.0547950  -0.0000040   0.0000040  -0.4393970   0.8514093
22.4489376   -0.9979235  -0.0082617   0.0040626   0.0554618  -0.0000043  -0.0000038  -0.4312338   0.8556008
22.7249077   -0.9979926  -0.0082960   0.0041382   0.0562039  -0.0000006  -0.0000028  -0.4229033   0.8597198
23.0042705   -0.9979035  -0.0085370   0.0042276   0.0568322  -0.0000025   0.0000032  -0.4144679   0.8638397
23.2870675   -0.9979900  -0.0086564   0.0042877   0.0575538  -0.0000063   0.0000051  -0.4059703   0.8679089
23.5733409   -0.9980911  -0.0085653   0.0043789   0.0582448  -0.0000101  -0.0000119  -0.3971808   0.8719871
23.8631337   -0.9980303  -0.0088096   0.0043539   0.0588379  -0.0000095   0.0000009  -0.3882574   0.8759217
24.1564889   -0.9980590  -0.0089274   0.0044641   0.0595834  -0.0000145   0.0000020  -0.3793041   0.8799030
24.4534504   -0.9980166  -0.0090087   0.0045846   0.0602418  -0.0000039  -0.0000033  -0.3701540   0.8837846
24.7540625   -0.9980093  -0.0091698   0.0047130   0.0610536  -0.0000011  -0.0000056  -0.3608652   0.8877116
25.0583701   -0.9980203  -0.0091984   0.0047924   0.0617968   0.0000015  -0.0000007  -0.3513553   0.8915770
25.3664186   -0.9980343  -0.0092877   0.0048518   0.0625245  -0.0000058  -0.0000061  -0.3416299   0.8953736
25.6782541   -0.9979672  -0.0092766   0.0049677   0.0633422   0.0000039  -0.0000031  -0.3318719   0.8991532
25.9939230   -0.9979136  -0.0094626   0.0050479   0.0640332  -0.0000041  -0.0000050  -0.3219447   0.9027781
26.3134725   -0.9980520  -0.0096157   0.0051615   0.0648515   0.0000036  -0.0000035  -0.3118192   0.9063520
26.6369503   -0.9980691  -0.0097764   0.0052374   0.0656243  -0.0000030  -0.0000139  -0.3015927   0.9099376
26.9644047   -0.9980050  -0.0099321   0.0053354   0.0663934   0.0000019   0.0000037  -0.2911556   0.9134289
27.2958846   -0.9981182  -0.0100257   0.0054953   0.0672262  -0.0000076   0.0000021  -0.2805167   0.9167797
27.6314394   -0.9980594  -0.0100291   0.0055316   0.0680278  -0.0000017  -0.0000051  -0.2698048   0.9201340
27.9711193   -0.9980271  -0.0102278   0.0056272   0.0688693   0.0000071  -0.0000031  -0.2588429   0.9232956
28.3149750   -0.9981295  -0.0103408   0.0057413   0.0697126   0.0000039  -0.0000051  -0.2477763   0.9264440
28.6630578   -0.9980544  -0.0104289   0.0057890   0.0705978  -0.0000087  -0.0000003  -0.2365017   0.9294491
29.0154196   -0.9980967  -0.0105958   0.0060140   0.0714414  -0.0000064  -0.0000030  -0.2250419   0.9323611
29.3721131   -0.9981291  -0.0107672   0.0060878   0.0723453   0.0000014  -0.0000039  -0.2134533   0.9351741
29.7331915   -0.9980791  -0.0108008   0.0062808   0.0731487  -0.0000054  -0.0000036  -0.2016027   0.9379710
30.0987087   -0.9980624  -0.0110411   0.0063827   0.0740241  -0.0000033   0.0000123  -0.1897006   0.9405994
30.4687194   -0.9981743  -0.0109970   0.0064791   0.0750009  -0.0000021  -0.0000058  -0.1775500   0.9431766
30.8432786   -0.9981434  -0.0112628   0.0067041   0.0758796  -0.0000102   0.0000030  -0.1652043   0.9454509
31.2224424   -0.9981203  -0.0113066   0.0068027   0.0768659   0.0000061   0.0000027  -0.1527992   0.9476807
31.6062674   -0.9981293  -0.0113947   0.0070134   0.0777210  -0.0000091  -0.0000072  -0.1400337   0.9498177
31.9948108   -0.9981607  -0.0116654   0.0072077   0.0785807   0.0000000   0.0000043  -0.1271896   0.9518871
32.3881306   -0.9982741  -0.0116931   0.0073214   0.0795445  -0.0000007  -0.0000042  -0.1141830   0.9537462
32.7862857   -0.9981353  -0.0118703   0.0074751   0.0804219  -0.0000070  -0.0000062  -0.1009629   0.9553778
33.1893353   -0.9981872  -0.0120298   0.0075418   0.0813384  -0.0000018  -0.0000006  -0.0875903   0.9570247
33.5973398   -0.9982244  -0.0121100   0.0076355   0.0822646   0.0000037  -0.0000116  -0.0740442   0.9583378
34.0103599   -0.9982437  -0.0122427   0.0076714   0.0832812  -0.0000011   0.0000036  -0.0602129   0.9594876
34.4284574   -0.9982261  -0.0123895   0.0075072   0.0844379  -0.0000075  -0.0000028  -0.0465159   0.9606917
34.8516946   -0.9981800  -0.0125808   0.0079053   0.0856167  -0.0000053   0.0000028  -0.0322434   0.9616950
35.2801349   -0.9981942  -0.0127804   0.0081960   0.0868439  -0.0000032  -0.0000036  -0.0177784   0.9624635
35.7138420   -0.9982907  -0.0128805   0.0084889   0.0878156  -0.0000069  -0.0000060  -0.0032039   0.9628964
36.1528808   -0.9982474  -0.0131433   0.0086609   0.0889027  -0.0000086  -0.0000063   0.0115347   0.9632563
36.5973168   -0.9982382  -0.0132396   0.0088809   0.0900031   0.0000000  -0.0000055   0.0264333   0.9633738
37.0472164   -0.9983527  -0.0134168   0.0090767   0.0909622  -0.0000010  -0.0000025   0.0415912   0.9631242
37.5026467   -0.9982222  -0.0135494   0.0093516   0.0922362   0.0000005  -0.0000051   0.0569194   0.9628974
37.9636757   -0.9983374  -0.0137817   0.0097623   0.0931588  -0.0000025  -0.0000048   0.0726387   0.9619464
38.4303722   -0.9983660  -0.0138403   0.0099596   0.0942240   0.0000012  -0.0000023   0.0881824   0.9611452
38.9028060   -0.9983382  -0.0138993   0.0101721   0.0953998   0.0000032   0.0000041   0.1040381   0.9599848
39.3810475   -0.9983576  -0.0141178   0.0103763   0.0964068  -0.0000019   0.0000034   0.1201362   0.9586652
39.8651681   -0.9983899  -0.0142575   0.0105827   0.0975452  -0.0000008   0.0000047   0.1362896   0.9569852
40.3552402   -0.9983958  -0.0143731   0.0107897   0.0987095   0.0000052   0.0000025   0.1527017   0.9550329
40.8513368   -0.9983950  -0.0145515   0.0110506   0.0998830  -0.0000009  -0.0000083   0.1693457   0.9526915
41.3535320   -0.9983906  -0.0147092   0.0112520   0.1010084  -0.0000069  -0.0000035   0.1860114   0.9501695
41.8619009   -0.9984374  -0.0149695   0.0115263   0.1021310  -0.0000012   0.0000013   0.2030277   0.9472720
42.3765193   -0.9984316  -0.0150851   0.0117628   0.1034070   0.0000010  -0.0000008   0.2201222   0.9440599
42.8974639   -0.9984101  -0.0152082   0.0119944   0.1044690  -0.0000026   0.0000052   0.2373514   0.9404513
43.4248127   -0.9984354  -0.0155054   0.0122638   0.1056252   0.0000010  -0.0000060   0.2547651   0.9366341
43.9586443   -0.9985364  -0.0156555   0.0124722   0.1070000   0.0000045  -0.0000092   0.2723270   0.9323410
44.4990385   -0.9984503  -0.0156881   0.0126924   0.1082367  -0.0000060   0.0000010   0.2900678   0.9276746
45.0460758   -0.9985059  -0.0159796   0.0129501   0.1094876   0.0000030   0.0000042   0.3079234   0.9226692
45.5998380   -0.9985211  -0.0161124   0.0131850   0.1106890  -0.0000014  -0.0000026   0.3258964   0.9172927
46.1604077   -0.9984485  -0.0162534   0.0133938   0.1120354  -0.0000057  -0.0000096   0.3439905   0.9114112
46.7278686   -0.9985020  -0.0164143   0.0135680   0.1132623  -0.0000078  -0.0000061   0.3622095   0.9051561
47.3023055   -0.9983712  -0.0166189   0.0136806   0.1146358  -0.0000035   0.0000063   0.3805383   0.8984954
47.8838040   -0.9983847  -0.0168326   0.0138388   0.1160994   0.0000035  -0.0000116   0.3990787   0.8913030
48.4724511   -0.9983342  -0.0169993   0.0140151   0.1175752  -0.0000043   0.0000037   0.4175483   0.8837820
49.0683345   -0.9982669  -0.0172988   0.0142970   0.1191744  -0.0000065   0.0000016   0.4362200   0.8757527
49.6715433   -0.9983926  -0.0175201   0.0147203   0.1206578  -0.0000056  -0.0000091   0.4548566   0.8672616
50.2821675   -0.9984628  -0.0176377   0.0151192   0.1220175  -0.0000049  -0.0000026   0.4737366   0.8581977
50.9002982   -0.9984033  -0.0178060   0.0153986   0.1234319  -0.0000001  -0.0000023   0.4925113   0.8486204
51.5260277   -0.9984563  -0.0179744   0.0154549   0.1247286   0.0000016  -0.0000145   0.5114078   0.8386844
52.1594495   -0.9983446  -0.0182207   0.0156171   0.1264222   0.0000007  -0.0000111   0.5302185   0.8281260
52.8006581   -0.9983075  -0.0184144   0.0158367   0.1280884   0.0000019  -0.0000070   0.5491565   0.8169084
53.4497492   -0.9982261  -0.0186224   0.0160849   0.1299292   0.0000038  -0.0000035   0.5682259   0.8053365
54.1068198   -0.9983490  -0.0190914   0.0167219   0.1317724   0.0000014  -0.0000070   0.5870810   0.7931806
54.7719678   -0.9984462  -0.0191749   0.0172125   0.1332809  -0.0000080  -0.0000108   0.6059003   0.7804755
55.4452927   -0.9982848  -0.0194039   0.0175344   0.1345268  -0.0000031   0.0000036   0.6248029   0.7668483
56.1268950   -0.9983724  -0.0195941   0.0177124   0.1362573  -0.0000012  -0.0000006   0.6436129   0.7528409
56.8168763   -0.9982618  -0.0198613   0.0177549   0.1382018  -0.0000113  -0.0000002   0.6623330   0.7382715
57.5153398   -0.9982805  -0.0201897   0.0183550   0.1402066  -0.0000006  -0.0000099   0.6809259   0.7230836
58.2223896   -0.9982130  -0.0204987   0.0190348   0.1421690   0.0000062  -0.0000063   0.6993919   0.7071741
58.9381314   -0.9984088  -0.0207478   0.0198421   0.1437380   0.0000077  -0.0000018   0.7177304   0.6906869
59.6626719   -0.9984049  -0.0209042   0.0203701   0.1452119   0.0000018  -0.0000044   0.7358872   0.6734457
60.3961194   -0.9983523  -0.0211880   0.0206105   0.1469313  -0.0000076  -0.0000076   0.7539451   0.6555725
61.1385834   -0.9983669  -0.0213061   0.0211009   0.1486065   0.0000077  -0.0000151   0.7717916   0.6369847
61.8901746   -0.9984144  -0.0216427   0.0214568   0.1506003  -0.0000007  -0.0000055   0.7892939   0.6177425
62.6510053   -0.9984058  -0.0218735   0.0221206   0.1520591  -0.0000042  -0.0000129   0.8065969   0.5978861
63.4211891   -0.9983541  -0.0220569   0.0223177   0.1537806  -0.0000005   0.0000010   0.8236544   0.5771804
64.2008409   -0.9982029  -0.0224603   0.0224228   0.1559021  -0.0000013  -0.0000071   0.8403290   0.5559154
64.9900772   -0.9981475  -0.0226369   0.0225063   0.1579803   0.0000060  -0.0000039   0.8567017   0.5338548
65.7890158   -0.9980951  -0.0231046   0.0228981   0.1610300   0.0000066  -0.0000067   0.8726612   0.5111127
66.5977759   -0.9981822  -0.0235452   0.0240723   0.1633737  -0.0000110   0.0000004   0.8881822   0.4875516
67.4164783   -0.9982687  -0.0238709   0.0252522   0.1654642   0.0000024  -0.0000098   0.9034119   0.4632958
68.2452452   -0.9984014  -0.0240722   0.0262935   0.1673077  -0.0000016  -0.0000030   0.9180764   0.4384124
69.0842003   -0.9983930  -0.0243604   0.0270606   0.1690453  -0.0000021  -0.0000152   0.9322427   0.4127304
69.9334689   -0.9985202  -0.0245957   0.0281911   0.1710930  -0.0000106  -0.0000085   0.9455765   0.3863505
70.7931778   -0.9985263  -0.0248422   0.0287583   0.1721817   0.0000082  -0.0000021   0.9591080   0.3591561
71.6634552   -0.9983265  -0.0251592   0.0287402   0.1738333  -0.0000035  -0.0000070   0.9716677   0.3310241
72.5444312   -0.9981662  -0.0252603   0.0289400   0.1760597   0.0000123   0.0000005   0.9836817   0.3023485
73.4362373   -0.9981384  -0.0255745   0.0287089   0.1787300  -0.0000012  -0.0000107   0.9948434   0.2729349
74.3390065   -0.9980172  -0.0259741   0.0297873   0.1815994   0.0000080  -0.0000129   1.0046945   0.2431284
75.2528737   -0.9980448  -0.0264184   0.0304412   0.1842551  -0.0000040  -0.0000102   1.0143737   0.2123149
76.1779753   -0.9980114  -0.0268559   0.0316687   0.1873420  -0.0000051  -0.0000124   1.0232854   0.1808396
77.1144493   -0.9982398  -0.0273127   0.0330875   0.1897297  -0.0000026  -0.0000045   1.0313023   0.1486103
78.0624357   -0.9983661  -0.0276185   0.0345166   0.1919470  -0.0000029  -0.0000080   1.0384154   0.1157628
79.0220759   -0.9985556  -0.0277871   0.0359656   0.1936454   0.0000002  -0.0000036   1.0445212   0.0821697
79.9935132   -0.9984936  -0.0280273   0.0365537   0.1950392   0.0000041  -0.0000131   1.0496229   0.0480313
80.9768926   -0.9983226  -0.0281335   0.0367174   0.1970254  -0.0000064  -0.0000116   1.0537186   0.0132410
81.9723609   -0.9981178  -0.0285792   0.0367442   0.1999777   0.0000053  -0.0000071   1.0567157  -0.0222640
82.9800667   -0.9978865  -0.0290467   0.0368004   0.2030970  -0.0000016  -0.0000180   1.0586042  -0.0582525
84.0001605   -0.9977756  -0.0297591   0.0379728   0.2071376   0.0000053  -0.0000160   1.0593000  -0.0947391
85.0327946   -0.9978958  -0.0305141   0.0397691   0.2108876   0.0000022  -0.0000081   1.0586965  -0.1319093
86.0781231   -0.9981901  -0.0310744   0.0424175   0.2134954   0.0000029  -0.0000101   1.0568105  -0.1694968
87.1363020   -0.9985267  -0.0313678   0.0447043   0.2159101   0.0000048  -0.0000041   1.0536046  -0.2074041
88.2074894   -0.9986925  -0.0316308   0.0466088   0.2180285  -0.0000051  -0.0000155   1.0489040  -0.2458368
89.2918452   -0.9989942  -0.0317944   0.0482893   0.2196880  -0.0000005  -0.0000021   1.0430306  -0.2849234
90.3895312   -0.9990716  -0.0320167   0.0495954   0.2216009  -0.0000024  -0.0000180   1.0355088  -0.3237174
91.5007114   -0.9989307  -0.0321748   0.0508255   0.2233393  -0.0000084  -0.0000163   1.0264270  -0.3630294
92.6255515   -0.9990458  -0.0324014   0.0516744   0.2253685  -0.0000034  -0.0000041   1.0155656  -0.4024850
93.7642195   -0.9988554  -0.0327098   0.0522459   0.2276010  -0.0000052  -0.0000188   1.0031624  -0.4420937
94.9168855   -0.9988190  -0.0330468   0.0534772   0.2303158  -0.0000125  -0.0000104   0.9892346  -0.4818269
96.0837215   -0.9987821  -0.0335891   0.0548955   0.2328974  -0.0000039  -0.0000178   0.9734644  -0.5215695
97.2649017   -0.9987693  -0.0336783   0.0560367   0.2353035  -0.0000004  -0.0000104   0.9559370  -0.5609835
98.4606024   -0.9987364  -0.0340171   0.0566851   0.2377107  -0.0000038  -0.0000064   0.9365502  -0.6005025
99.6710021   -0.9985020  -0.0343777   0.0573065   0.2406749  -0.0000145  -0.0000062   0.9153443  -0.6396754
100.8962816  -0.9981776  -0.0347509   0.0579387   0.2439269  -0.0000102  -0.0000124   0.8922365  -0.6784421
102.1366237  -0.9979753  -0.0354156   0.0587161   0.2476382   0.0000052  -0.0000179   0.8671283  -0.7166929
103.3922136  -0.9978640  -0.0361542   0.0600121   0.2521950  -0.0000096  -0.0000112   0.8401955  -0.7544722
104.6632389  -0.9979577  -0.0369733   0.0629439   0.2562997  -0.0000105  -0.0000055   0.8113415  -0.7912682
105.9498891  -0.9984579  -0.0370773   0.0657073   0.2589839  -0.0000069  -0.0000089   0.7803574  -0.8250929
107.2523564  -0.9990867  -0.0380192   0.0704187   0.2611943  -0.0000016  -0.0000085   0.7458400  -0.8653272
108.5708353  -0.9989188  -0.0381663   0.0725035   0.2628348  -0.0000106  -0.0000041   0.7121824  -0.8993932
109.9055225  -0.9981620  -0.0379815   0.0700261   0.2627514   0.0000076  -0.0000064   0.6774515  -0.9319120
111.2566174  -0.9987826  -0.0383625   0.0735296   0.2671308  -0.0000017  -0.0000120   0.6366632  -0.9623526
112.6243216  -0.9986479  -0.0385763   0.0751551   0.2694864   0.0000017  -0.0000150   0.5956314  -0.9930429
114.0088393  -0.9984238  -0.0388564   0.0760570   0.2720613  -0.0000127  -0.0000032   0.5528684  -1.0220177
115.4103773  -0.9981600  -0.0392328   0.0771338   0.2749515  -0.0000076  -0.0000214   0.5080600  -1.0493846
116.8291446  -0.9979546  -0.0395587   0.0780182   0.2780987   0.0000125  -0.0000049   0.4616156  -1.0748125
118.2653533  -0.9976101  -0.0399442   0.0785222   0.2814815  -0.0000004  -0.0000118   0.4131618  -1.0983546
119.7192175  -0.9971908  -0.0404997   0.0790652   0.2851009  -0.0000147  -0.0000006   0.3630310  -1.1198741
121.1909545  -0.9965632  -0.0409840   0.0794601   0.2896700  -0.0000096  -0.0000137   0.3112472  -1.1389094
122.6807839  -0.9961423  -0.0416433   0.0800858   0.2941946  -0.0000186  -0.0000183   0.2578829  -1.1556283
124.1889281  -0.9955387  -0.0426658   0.0810758   0.3002375   0.0000025  -0.0000021   0.2030196  -1.1697805
125.7156123  -0.9952643  -0.0438912   0.0829090   0.3065898  -0.0000108  -0.0000053   0.1468018  -1.1813263
127.2610644  -0.9950718  -0.0449659   0.0863468   0.3127992  -0.0000061  -0.0000096   0.0899457  -1.1898236
128.8255151  -0.9952832  -0.0463197   0.0903956   0.3187661  -0.0000125  -0.0000101   0.0310541  -1.1954536
130.4091980  -0.9953257  -0.0473113   0.0944670   0.3240816  -0.0000132  -0.0000125  -0.0282397  -1.1979713
132.0123495  -0.9956582  -0.0484762   0.0995850   0.3289800  -0.0000062  -0.0000027  -0.0885005  -1.1971293
133.6352088  -0.9960889  -0.0494203   0.1044524   0.3331818  -0.0000239  -0.0000059  -0.1491135  -1.1931309
135.2780184  -0.9964482  -0.0502856   0.1093701   0.3370364  -0.0000031  -0.0000057  -0.2103454  -1.1854267
136.9410235  -0.9968324  -0.0508470   0.1141199   0.3397998  -0.0000093  -0.0000137  -0.2717939  -1.1740384
138.6244722  -0.9972512  -0.0516589   0.1186282   0.3430433  -0.0000096  -0.0000023  -0.3330388  -1.1591738
140.3286160  -0.9974936  -0.0522586   0.1232160   0.3462885  -0.0000127  -0.0000127  -0.3943408  -1.1406394
142.0537093  -0.9972937  -0.0531755   0.1271877   0.3488689  -0.0000183  -0.0000196  -0.4577303  -1.1193078
143.8000095  -0.9982878  -0.0528109   0.1315635   0.3518999  -0.0000058   0.0000000  -0.5114804  -1.0920313
145.5677774  -0.9990998  -0.0536778   0.1359416   0.3559536   0.0000058  -0.0000122  -0.5686752  -1.0596310
147.3572769  -0.9984250  -0.0545411   0.1396314   0.3579904  -0.0000021  -0.0000169  -0.6296031  -1.0274029
149.1687752  -0.9983799  -0.0547500   0.1436690   0.3609144   0.0000015  -0.0000091  -0.6842854  -0.9897038
151.0025426  -0.9986863  -0.0554658   0.1473968   0.3637605  -0.0000053  -0.0000193  -0.7376444  -0.9478988
152.8588530  -0.9987455  -0.0559387   0.1514125   0.3669113  -0.0000013  -0.0000092  -0.7884430  -0.9023780
154.7379834  -0.9986095  -0.0563841   0.1553231   0.3700990  -0.0000086  -0.0000110  -0.8368112  -0.8532143
156.6402144  -0.9987937  -0.0570949   0.1593794   0.3731743  -0.0000084  -0.0000061  -0.8822036  -0.8005717
158.5658301  -0.9987792  -0.0578203   0.1634194   0.3763482  -0.0000037   0.0000147  -0.9241073  -0.7445390
160.5151177  -0.9989202  -0.0584146   0.1675827   0.3794945   0.0000014  -0.0000065  -0.9630209  -0.6849737
162.4883685  -0.9988566  -0.0592396   0.1718391   0.3835297   0.0000013  -0.0000028  -0.9967976  -0.6237559
164.4858769  -0.9987723  -0.0595795   0.1761615   0.3861831   0.0000046  -0.0000033  -1.0278789  -0.5582318
166.5079411  -0.9990457  -0.0603047   0.1805858   0.3897626  -0.0000070  -0.0000102  -1.0539276  -0.4910024
168.5548630  -0.9988300  -0.0609187   0.1847976   0.3926421  -0.0000107   0.0000016  -1.0755896  -0.4214285
170.6269483  -0.9988561  -0.0616303   0.1891293   0.3958883  -0.0000006  -0.0000172  -1.0920161  -0.3500769
172.7245062  -0.9989985  -0.0623252   0.1938161   0.3994129   0.0000046  -0.0000030  -1.1035268  -0.2774294
174.8478498  -0.9988095  -0.0632150   0.1982812   0.4030113   0.0000061  -0.0000036  -1.1094082  -0.2032648
176.9972963  -0.9986651  -0.0638283   0.2028369   0.4067147   0.0000235  -0.0000062  -1.1102204  -0.1277967
179.1731664  -0.9989881  -0.0651659   0.2077829   0.4129968  -0.0000187  -0.0000088  -1.1019377  -0.0580540
181.3757850  -0.9992282  -0.0651898   0.2145047   0.4118246  -0.0000020  -0.0000058  -1.0923748   0.0172629
183.6054809  -0.9984929  -0.0665554   0.2174343   0.4171768  -0.0000115  -0.0000014  -1.0773858   0.0954521
185.8625870  -0.9985919  -0.0675056   0.2226938   0.4205610  -0.0000271  -0.0000083  -1.0548059   0.1676861
188.1474402  -0.9984580  -0.0683153   0.2281655   0.4239373  -0.0000045  -0.0000041  -1.0266452   0.2388777
190.4603817  -0.9984385  -0.0694498   0.2335158   0.4273786  -0.0000241  -0.0000166  -0.9928692   0.3077410
192.8017567  -0.9984450  -0.0703740   0.2388677   0.4305635   0.0000113  -0.0000080  -0.9528826   0.3737659
195.1719148  -0.9986562  -0.0719616   0.2446666   0.4343238  -0.0000411   0.0000164  -0.9079903   0.4365081
197.5712099  -0.9986930  -0.0733088   0.2506198   0.4369365   0.0000064  -0.0000064  -0.8584258   0.4960860
200.0000000  -0.9988039  -0.0751624   0.2549054   0.4387995  -0.0000129  -0.0000066  -0.8026131   0.5505821
