! ListType=Log
# MHZ S RI R 50
0.0010000    -0.9975118  -0.0007243  -0.0006841   0.0001820  -0.0000115  -0.0000299  -0.9088780   0.2599563
0.0010123    -0.9971202  -0.0004113  -0.0009148   0.0005510   0.0000121  -0.0000287  -0.9094622   0.2603417
0.0010247    -0.9979772  -0.0002904  -0.0004652   0.0008527  -0.0000157   0.0000266  -0.9095897   0.2591301
0.0010373    -0.9973271  -0.0006762   0.0001907   0.0005517  -0.0000085  -0.0000056  -0.9097936   0.2598523
0.0010501    -0.9975818  -0.0011535  -0.0000221   0.0008441  -0.0000136  -0.0000118  -0.9091506   0.2596915
0.0010630    -0.9973807  -0.0000202   0.0005527   0.0005916   0.0000229   0.0000125  -0.9105505   0.2595735
0.0010761    -0.9977044  -0.0001840  -0.0002361   0.0003712  -0.0000149   0.0000095  -0.9107037   0.2587981
0.0010893    -0.9966947  -0.0002704  -0.0007345   0.0015551   0.0000198  -0.0000037  -0.9110865   0.2599258
0.0011027    -0.9977117  -0.0004549  -0.0000509   0.0005867   0.0000030  -0.0000187  -0.9110775   0.2587990
0.0011162    -0.9978838   0.0000913  -0.0006672   0.0007159  -0.0000056   0.0000030  -0.9120701   0.2584382
0.0011300    -0.9975416  -0.0008205  -0.0004306   0.0003275  -0.0000259  -0.0000173  -0.9112969   0.2587179
0.0011439    -0.9969365  -0.0000398  -0.0001362  -0.0000110   0.0000190  -0.0000020  -0.9120502   0.2590832
0.0011579    -0.9979608  -0.0002661   0.0000598   0.0003003  -0.0000080   0.0000011  -0.9120575   0.2578675
0.0011721    -0.9974675  -0.0001988  -0.0001368  -0.0000569   0.0000114  -0.0000118  -0.9124015   0.2585311
0.0011866    -0.9978265  -0.0006580  -0.0006189   0.0004425  -0.0000454  -0.0000152  -0.9122040   0.2582435
0.0012011    -0.9973907  -0.0006325  -0.0002972  -0.0000507  -0.0000151   0.0000003  -0.9128818   0.2582597
0.0012159    -0.9974204  -0.0001345   0.0003273   0.0006089   0.0000208   0.0000031  -0.9136437   0.2584854
0.0012309    -0.9976603  -0.0002027   0.0000642  -0.0001475   0.0000094   0.0000109  -0.9137401   0.2577885
0.0012460    -0.9975431  -0.0007935   0.0020987   0.0017561  -0.0000062  -0.0000060  -0.9134154   0.2581256
0.0012613    -0.9970921  -0.0002392   0.0002377   0.0008722   0.0000269  -0.0000021  -0.9147353   0.2579363
0.0012768    -0.9976915  -0.0002869  -0.0017193   0.0012961  -0.0000207   0.0000053  -0.9141770   0.2576231
0.0012925    -0.9971987  -0.0005535  -0.0003898   0.0001444   0.0000140   0.0000076  -0.9151106   0.2580592
0.0013084    -0.9974310  -0.0004026  -0.0007923  -0.0001413  -0.0000049   0.0000097  -0.9149123   0.2575421
0.0013245    -0.9968818  -0.0001601  -0.0001066   0.0007602   0.0000181  -0.0000016  -0.9155488   0.2580240
0.0013408    -0.9973238  -0.0005829  -0.0001947   0.0005164   0.0000024  -0.0000096  -0.9153819   0.2572752
0.0013572    -0.9973416   0.0000482   0.0002606   0.0006549   0.0000187   0.0000077  -0.9163567   0.2576933
0.0013739    -0.9980160  -0.0003402   0.0011525   0.0025098   0.0000133   0.0000164  -0.9162218   0.2575399
0.0013908    -0.9975383   0.0000710   0.0000537   0.0008033   0.0000136   0.0000045  -0.9169530   0.2576089
0.0014079    -0.9975557  -0.0002933  -0.0004639   0.0004813  -0.0000214  -0.0000005  -0.9167295   0.2573538
0.0014252    -0.9974043  -0.0000064  -0.0004269   0.0002192   0.0000186   0.0000247  -0.9176592   0.2572531
0.0014427    -0.9975033  -0.0003765  -0.0004908   0.0005269  -0.0000097  -0.0000156  -0.9173659   0.2571991
0.0014605    -0.9969814  -0.0000561   0.0001575   0.0002322   0.0000009  -0.0000180  -0.9180822   0.2573986
0.0014784    -0.9974448  -0.0003752  -0.0008677   0.0003602  -0.0000049   0.0000082  -0.9178605   0.2569127
0.0014966    -0.9974212  -0.0002195  -0.0000368  -0.0004610   0.0000002  -0.0000287  -0.9186111   0.2574162
0.0015150    -0.9974390  -0.0002174  -0.0004840  -0.0001564   0.0000270   0.0000241  -0.9189818   0.2573396
0.0015336    -0.9976398  -0.0003795   0.0000003   0.0005643  -0.0000074  -0.0000028  -0.9190102   0.2570696
0.0015525    -0.9975548  -0.0006959  -0.0004042   0.0003345  -0.0000076  -0.0000167  -0.9190290   0.2573496
0.0015716    -0.9977442  -0.0005746   0.0001087   0.0003105   0.0000126  -0.0000211  -0.9196280   0.2571869
0.0015909    -0.9973253  -0.0004007  -0.0008310  -0.0002611   0.0000100  -0.0000345  -0.9199847   0.2575694
0.0016104    -0.9977068  -0.0001096  -0.0003932   0.0002651  -0.0000243   0.0000094  -0.9203199   0.2569523
0.0016302    -0.9977986  -0.0005201   0.0000333   0.0000475   0.0000135  -0.0000063  -0.9203642   0.2573044
0.0016503    -0.9974956   0.0000159  -0.0003006   0.0005053   0.0000088  -0.0000100  -0.9213751   0.2574882
0.0016706    -0.9973270  -0.0005071  -0.0001008   0.0000909   0.0000033  -0.0000045  -0.9211996   0.2574022
0.0016911    -0.9977105  -0.0000636  -0.0002888   0.0014339  -0.0000210  -0.0000159  -0.9218180   0.2570958
0.0017119    -0.9975733  -0.0003961  -0.0006062   0.0000400  -0.0000161  -0.0000298  -0.9218589   0.2574357
0.0017329    -0.9975548  -0.0002471   0.0000136  -0.0000133  -0.0000031   0.0000134  -0.9220861   0.2573962
0.0017542    -0.9975885  -0.0001476  -0.0004156   0.0004860   0.0000071   0.0000175  -0.9225671   0.2571541
0.0017758    -0.9974785  -0.0003892  -0.0001109   0.0004794  -0.0000018  -0.0000029  -0.9227763   0.2574617
0.0017976    -0.9974899  -0.0002328  -0.0004408  -0.0001363   0.0000059  -0.0000063  -0.9233452   0.2574793
0.0018197    -0.9975164  -0.0002555  -0.0002061  -0.0000631  -0.0000150  -0.0000040  -0.9231438   0.2573279
0.0018421    -0.9972874  -0.0003229   0.0003689   0.0000470   0.0000151  -0.0000070  -0.9238326   0.2577191
0.0018648    -0.9977209  -0.0004274  -0.0001679   0.0003587  -0.0000028   0.0000040  -0.9239003   0.2574820
0.0018877    -0.9975914  -0.0007624  -0.0009188  -0.0003289  -0.0000105  -0.0000158  -0.9239804   0.2577066
0.0019109    -0.9975951  -0.0004594  -0.0001860  -0.0000690  -0.0000036   0.0000066  -0.9248491   0.2579357
0.0019344    -0.9977523  -0.0004378  -0.0004051   0.0007577  -0.0000050  -0.0000064  -0.9247153   0.2577397
0.0019582    -0.9975881  -0.0005433  -0.0008439  -0.0009149   0.0000018  -0.0000051  -0.9248236   0.2579512
0.0019822    -0.9972309  -0.0001333  -0.0012025  -0.0007194   0.0000061   0.0000007  -0.9256894   0.2580907
0.0020066    -0.9976756  -0.0002886  -0.0000934  -0.0023553   0.0000030   0.0000010  -0.9257598   0.2582423
0.0020313    -0.9977088  -0.0001384   0.0005210   0.0007460   0.0000072   0.0000076  -0.9261621   0.2581689
0.0020562    -0.9977233  -0.0002715   0.0001586  -0.0001454  -0.0000161  -0.0000018  -0.9265384   0.2580705
0.0020815    -0.9975360  -0.0006143  -0.0003041   0.0005841   0.0000003  -0.0000015  -0.9265952   0.2584793
0.0021071    -0.9977010  -0.0005229   0.0002535   0.0001363  -0.0000104  -0.0000033  -0.9270215   0.2585237
0.0021330    -0.9974454  -0.0003168   0.0000990   0.0002810  -0.0000010  -0.0000229  -0.9272019   0.2587586
0.0021592    -0.9972978  -0.0002548  -0.0001239   0.0002979  -0.0000025  -0.0000190  -0.9277383   0.2588852
0.0021858    -0.9978622  -0.0002828  -0.0002017   0.0005073  -0.0000026  -0.0000044  -0.9279115   0.2586740
0.0022126    -0.9975402  -0.0007143  -0.0001661   0.0005238  -0.0000054  -0.0000144  -0.9280733   0.2590422
0.0022398    -0.9976225  -0.0002544  -0.0002111   0.0004604  -0.0000122   0.0000062  -0.9283379   0.2590142
0.0022674    -0.9974938  -0.0004901   0.0001906   0.0005081   0.0000047  -0.0000181  -0.9287816   0.2593020
0.0022953    -0.9973613  -0.0002777  -0.0000121  -0.0001107   0.0000060  -0.0000025  -0.9290308   0.2594769
0.0023235    -0.9975716   0.0000008  -0.0002715   0.0002019  -0.0000061  -0.0000002  -0.9294341   0.2594680
0.0023520    -0.9978428  -0.0002113   0.0000245   0.0002387  -0.0000078  -0.0000054  -0.9292532   0.2594361
0.0023809    -0.9976041  -0.0002446  -0.0002566  -0.0003801  -0.0000079   0.0000077  -0.9299422   0.2596373
0.0024102    -0.9976149  -0.0003944  -0.0004794   0.0002918   0.0000131   0.0000064  -0.9298942   0.2598229
0.0024398    -0.9976380  -0.0003308  -0.0002795  -0.0000651   0.0000033   0.0000032  -0.9303333   0.2599209
0.0024698    -0.9975555  -0.0004646  -0.0002682   0.0001806   0.0000079  -0.0000170  -0.9305707   0.2602177
0.0025002    -0.9976270  -0.0003202  -0.0002689  -0.0005222  -0.0000013  -0.0000042  -0.9307198   0.2603729
0.0025309    -0.9974720  -0.0003414  -0.0001536   0.0003170  -0.0000087  -0.0000112  -0.9309336   0.2606611
0.0025621    -0.9975352  -0.0004600  -0.0001640   0.0002186   0.0000070  -0.0000087  -0.9313972   0.2606534
0.0025935    -0.9974281  -0.0002110  -0.0000994   0.0002948  -0.0000057  -0.0000035  -0.9316742   0.2605261
0.0026254    -0.9977516  -0.0003016  -0.0002012   0.0003472  -0.0000042  -0.0000026  -0.9317934   0.2605545
0.0026577    -0.9977573  -0.0004632  -0.0003992   0.0001731  -0.0000107  -0.0000105  -0.9319015   0.2609742
0.0026904    -0.9973630  -0.0004558   0.0000502   0.0000885  -0.0000128  -0.0000062  -0.9320964   0.2613407
0.0027235    -0.9975875  -0.0003348  -0.0003402   0.0002898  -0.0000013  -0.0000137  -0.9327563   0.2611832
0.0027569    -0.9977720  -0.0003335  -0.0002837   0.0000970  -0.0000088  -0.0000033  -0.9327095   0.2612955
0.0027908    -0.9975141  -0.0004332   0.0001773   0.0002748   0.0000059  -0.0000083  -0.9327881   0.2617246
0.0028251    -0.9972810  -0.0003853   0.0002309  -0.0000858   0.0000069   0.0000018  -0.9332618   0.2618815
0.0028599    -0.9976064  -0.0001926  -0.0001779   0.0002211  -0.0000022   0.0000010  -0.9334185   0.2618729
0.0028950    -0.9978434  -0.0001581  -0.0002414   0.0001907   0.0000031   0.0000025  -0.9336124   0.2618484
0.0029306    -0.9977733  -0.0003451  -0.0003557  -0.0002359  -0.0000042  -0.0000190  -0.9337557   0.2620064
0.0029666    -0.9976663  -0.0002894  -0.0002606  -0.0001374   0.0000131  -0.0000065  -0.9339990   0.2622600
0.0030031    -0.9978336  -0.0003146   0.0002579   0.0005991  -0.0000049   0.0000133  -0.9341076   0.2625548
0.0030400    -0.9977896  -0.0003069  -0.0002545  -0.0001209  -0.0000027  -0.0000165  -0.9343379   0.2628196
0.0030774    -0.9978703  -0.0004006   0.0022051   0.0018224  -0.0000097  -0.0000045  -0.9345217   0.2629743
0.0031152    -0.9976388  -0.0003031   0.0000177  -0.0000143   0.0000102   0.0000018  -0.9348862   0.2629809
0.0031535    -0.9977043  -0.0004625  -0.0000206   0.0003209  -0.0000035  -0.0000120  -0.9349260   0.2633534
0.0031923    -0.9975924  -0.0003347   0.0003766   0.0001948   0.0000126  -0.0000124  -0.9353236   0.2634966
0.0032315    -0.9975195  -0.0003900  -0.0004831   0.0001976  -0.0000004  -0.0000064  -0.9355121   0.2636469
0.0032713    -0.9976755  -0.0002371   0.0000323   0.0004711   0.0000023  -0.0000089  -0.9356770   0.2636865
0.0033115    -0.9975481  -0.0002666   0.0000041   0.0000615   0.0000084  -0.0000006  -0.9357024   0.2639999
0.0033522    -0.9974900  -0.0002825  -0.0000154   0.0003387  -0.0000109  -0.0000057  -0.9360229   0.2644064
0.0033934    -0.9976465  -0.0003590  -0.0000849   0.0000710   0.0000014   0.0000021  -0.9362628   0.2642656
0.0034351    -0.9978817  -0.0002204  -0.0000733   0.0002474  -0.0000013   0.0000084  -0.9364516   0.2645556
0.0034773    -0.9978543  -0.0002921  -0.0000087  -0.0000363   0.0000084  -0.0000086  -0.9364323   0.2647053
0.0035201    -0.9979505  -0.0002348  -0.0000890   0.0000507   0.0000056  -0.0000029  -0.9367876   0.2648143
0.0035634    -0.9979728  -0.0004429  -0.0003882   0.0000631   0.0000070  -0.0000048  -0.9368663   0.2649771
0.0036072    -0.9978628  -0.0002648  -0.0001310   0.0008000  -0.0000008  -0.0000046  -0.9369396   0.2652301
0.0036515    -0.9977020  -0.0003741  -0.0002252   0.0002511  -0.0000051   0.0000044  -0.9372120   0.2655556
0.0036964    -0.9975355  -0.0003904  -0.0000730   0.0003356  -0.0000114   0.0000007  -0.9371598   0.2658447
0.0037418    -0.9977456  -0.0002069  -0.0005340   0.0006190   0.0000014  -0.0000077  -0.9373776   0.2659021
0.0037878    -0.9978332  -0.0002991  -0.0002555  -0.0001253   0.0000009  -0.0000191  -0.9374859   0.2660117
0.0038344    -0.9977705  -0.0003549  -0.0001913  -0.0000396   0.0000059  -0.0000063  -0.9376847   0.2663411
0.0038815    -0.9977348  -0.0003166  -0.0002500   0.0000689  -0.0000009   0.0000041  -0.9378065   0.2664228
0.0039293    -0.9978946  -0.0003265  -0.0001783   0.0002594   0.0000049  -0.0000071  -0.9379777   0.2663981
0.0039776    -0.9977867  -0.0002349  -0.0017698  -0.0003591  -0.0000018  -0.0000120  -0.9381920   0.2668196
0.0040265    -0.9977858  -0.0003224  -0.0018756   0.0003712   0.0000000   0.0000014  -0.9383100   0.2667670
0.0040759    -0.9978982  -0.0003072  -0.0002730   0.0000212  -0.0000007   0.0000008  -0.9384242   0.2671272
0.0041261    -0.9977526  -0.0002459  -0.0001979   0.0000723   0.0000015  -0.0000048  -0.9385339   0.2672093
0.0041768    -0.9977111  -0.0002349  -0.0000046  -0.0000360  -0.0000009   0.0000009  -0.9387328   0.2675105
0.0042281    -0.9976566  -0.0001979  -0.0001031   0.0000941   0.0000064  -0.0000054  -0.9388509   0.2677209
0.0042801    -0.9977329  -0.0002820  -0.0003188   0.0001938   0.0000041  -0.0000002  -0.9389324   0.2679158
0.0043327    -0.9978166  -0.0002340  -0.0001765   0.0001366  -0.0000035  -0.0000042  -0.9390299   0.2683019
0.0043860    -0.9977223  -0.0001534  -0.0003230   0.0001423  -0.0000025   0.0000091  -0.9392749   0.2683077
0.0044399    -0.9977379  -0.0000906  -0.0000337  -0.0000668   0.0000007  -0.0000043  -0.9393379   0.2684832
0.0044945    -0.9977729  -0.0001371  -0.0002976   0.0002501  -0.0000065  -0.0000034  -0.9394909   0.2686169
0.0045497    -0.9978150  -0.0002423  -0.0002326   0.0000205  -0.0000109  -0.0000034  -0.9394766   0.2688047
0.0046057    -0.9978275  -0.0002672   0.0002415  -0.0000286  -0.0000053   0.0000049  -0.9395575   0.2689400
0.0046623    -0.9976680  -0.0003624  -0.0000592   0.0000632   0.0000035  -0.0000071  -0.9395089   0.2692334
0.0047196    -0.9978333  -0.0003278   0.0000049   0.0000788  -0.0000083  -0.0000009  -0.9398293   0.2694102
0.0047776    -0.9978697  -0.0004808   0.0001353   0.0001378   0.0000065  -0.0000104  -0.9398891   0.2695281
0.0048363    -0.9976731  -0.0003666  -0.0001600   0.0001483   0.0000003  -0.0000094  -0.9399332   0.2697804
0.0048958    -0.9978616  -0.0002465  -0.0001029   0.0000067  -0.0000047  -0.0000137  -0.9400721   0.2700554
0.0049560    -0.9977436  -0.0000266  -0.0002966   0.0002038  -0.0000099  -0.0000067  -0.9402632   0.2701632
0.0050169    -0.9978646  -0.0002002  -0.0003010   0.0000705  -0.0000178   0.0000051  -0.9403351   0.2701639
0.0050786    -0.9979714  -0.0003019  -0.0001616  -0.0000126   0.0000062   0.0000011  -0.9403187   0.2703988
0.0051410    -0.9977939   0.0000202  -0.0000774   0.0001765  -0.0000039  -0.0000105  -0.9404152   0.2706001
0.0052042    -0.9978294  -0.0003062   0.0004528  -0.0004077   0.0000035  -0.0000032  -0.9405021   0.2708001
0.0052682    -0.9976783  -0.0003705  -0.0000835   0.0001649   0.0000060  -0.0000054  -0.9406327   0.2710467
0.0053330    -0.9977836  -0.0003391  -0.0008570  -0.0002178  -0.0000089  -0.0000088  -0.9406896   0.2711812
0.0053985    -0.9977818  -0.0003130  -0.0003714   0.0002846  -0.0000131  -0.0000073  -0.9407775   0.2713440
0.0054649    -0.9977358  -0.0002929  -0.0002567  -0.0002150   0.0000164  -0.0000018  -0.9409076   0.2714998
0.0055321    -0.9978027  -0.0002248  -0.0000122  -0.0001706  -0.0000015  -0.0000112  -0.9409565   0.2716945
0.0056001    -0.9978249  -0.0001431  -0.0002401   0.0001971   0.0000146   0.0000031  -0.9411138   0.2719386
0.0056689    -0.9978302  -0.0002894  -0.0003137   0.0000629  -0.0000082  -0.0000200  -0.9411273   0.2720064
0.0057386    -0.9977975  -0.0003693  -0.0001649   0.0001955   0.0000036  -0.0000155  -0.9411893   0.2721200
0.0058091    -0.9978429  -0.0002195   0.0000293   0.0002210   0.0000022   0.0000047  -0.9411386   0.2723728
0.0058806    -0.9977733  -0.0002252  -0.0001903   0.0000012  -0.0000013  -0.0000061  -0.9411190   0.2724188
0.0059529    -0.9977924  -0.0001506  -0.0001892  -0.0001717  -0.0000054  -0.0000104  -0.9412062   0.2727041
0.0060260    -0.9976484  -0.0002701  -0.0001151   0.0006510  -0.0000053  -0.0000183  -0.9412507   0.2727098
0.0061001    -0.9977440  -0.0003073  -0.0001963   0.0000373  -0.0000142  -0.0000055  -0.9413455   0.2729546
0.0061751    -0.9976874  -0.0002647  -0.0001327   0.0000558   0.0000003   0.0000049  -0.9413314   0.2731470
0.0062510    -0.9978504  -0.0003097  -0.0003323   0.0000270  -0.0000030  -0.0000002  -0.9415101   0.2732916
0.0063279    -0.9978806   0.0000005  -0.0001820   0.0000261  -0.0000043  -0.0000012  -0.9416430   0.2734560
0.0064056    -0.9978289  -0.0002830  -0.0002819  -0.0001116   0.0000044  -0.0000061  -0.9416371   0.2736081
0.0064844    -0.9978391  -0.0001665  -0.0002468   0.0000578   0.0000000  -0.0000076  -0.9416977   0.2736701
0.0065641    -0.9978331  -0.0002228  -0.0002623  -0.0000197  -0.0000063  -0.0000193  -0.9415242   0.2737903
0.0066448    -0.9977525  -0.0001954  -0.0001374   0.0000093   0.0000005  -0.0000093  -0.9416728   0.2739591
0.0067265    -0.9977379  -0.0002703  -0.0003479  -0.0000263  -0.0000082   0.0000041  -0.9417777   0.2741424
0.0068092    -0.9978651   0.0000236  -0.0002579  -0.0000346   0.0000036   0.0000010  -0.9418365   0.2743665
0.0068929    -0.9977981  -0.0002175  -0.0002786   0.0000193   0.0000128  -0.0000086  -0.9418909   0.2744498
0.0069776    -0.9979734   0.0000745  -0.0004690  -0.0000671   0.0000024  -0.0000116  -0.9420478   0.2746782
0.0070634    -0.9977669  -0.0000606  -0.0002956  -0.0000904   0.0000023  -0.0000052  -0.9419420   0.2748400
0.0071502    -0.9978842  -0.0002749  -0.0002989  -0.0001050   0.0000031  -0.0000154  -0.9419125   0.2748555
0.0072381    -0.9978327  -0.0001955  -0.0001359   0.0001848  -0.0000033  -0.0000122  -0.9418756   0.2750367
0.0073271    -0.9978271  -0.0002075  -0.0002752   0.0000209  -0.0000089  -0.0000030  -0.9420109   0.2752536
0.0074172    -0.9978009  -0.0000868  -0.0002661  -0.0000113   0.0000121  -0.0000083  -0.9421284   0.2753567
0.0075084    -0.9978590  -0.0002206  -0.0003207  -0.0000124   0.0000064  -0.0000108  -0.9421577   0.2755385
0.0076007    -0.9978418  -0.0001286  -0.0002258   0.0000631   0.0000004  -0.0000116  -0.9421461   0.2756577
0.0076941    -0.9978525  -0.0000835  -0.0002943  -0.0001092  -0.0000021   0.0000084  -0.9421786   0.2759126
0.0077887    -0.9978517  -0.0001321  -0.0001238  -0.0000085   0.0000107  -0.0000020  -0.9421820   0.2759312
0.0078844    -0.9978277  -0.0001307  -0.0002506   0.0000615  -0.0000035  -0.0000018  -0.9422685   0.2760016
0.0079814    -0.9977857  -0.0001041   0.0001094   0.0000021   0.0000006  -0.0000059  -0.9422404   0.2762762
0.0080795    -0.9977901  -0.0002243  -0.0004154   0.0002315   0.0000058  -0.0000034  -0.9423989   0.2763341
0.0081788    -0.9977303  -0.0001758  -0.0001380   0.0000615  -0.0000045   0.0000043  -0.9422137   0.2765218
0.0082793    -0.9979450  -0.0001373  -0.0001842   0.0001640  -0.0000005  -0.0000093  -0.9423942   0.2765888
0.0083811    -0.9978197  -0.0001749  -0.0002947  -0.0000029  -0.0000037   0.0000070  -0.9423573   0.2767983
0.0084842    -0.9977979  -0.0000927  -0.0003098   0.0000448  -0.0000016   0.0000005  -0.9423313   0.2768930
0.0085885    -0.9978674  -0.0002750  -0.0001799   0.0000913   0.0000015  -0.0000070  -0.9424398   0.2769427
0.0086940    -0.9978157  -0.0000951  -0.0002810   0.0000593   0.0000127  -0.0000141  -0.9423699   0.2771411
0.0088009    -0.9977639  -0.0001991  -0.0004147  -0.0001213   0.0000002   0.0000062  -0.9423860   0.2772914
0.0089091    -0.9978414  -0.0001221  -0.0001949   0.0001514   0.0000024  -0.0000112  -0.9423989   0.2774866
0.0090186    -0.9978960  -0.0002212  -0.0003216   0.0000735  -0.0000090  -0.0000046  -0.9424998   0.2774735
0.0091295    -0.9976506  -0.0002049  -0.0003971   0.0001151   0.0000055  -0.0000005  -0.9425199   0.2777457
0.0092417    -0.9978271  -0.0002092  -0.0003001   0.0001003   0.0000093  -0.0000054  -0.9424069   0.2777833
0.0093553    -0.9977835  -0.0000486  -0.0003280   0.0000951   0.0000041  -0.0000095  -0.9424297   0.2779104
0.0094703    -0.9977819  -0.0002131  -0.0003966   0.0000948   0.0000006   0.0000108  -0.9425230   0.2779699
0.0095868    -0.9978825  -0.0000672  -0.0004491  -0.0000096  -0.0000033  -0.0000074  -0.9424579   0.2781670
0.0097046    -0.9978014  -0.0000848  -0.0005065   0.0000919  -0.0000017   0.0000127  -0.9425030   0.2781965
0.0098239    -0.9979500  -0.0001375  -0.0003232   0.0000380  -0.0000008   0.0000001  -0.9425577   0.2783250
0.0099447    -0.9977938  -0.0002647  -0.0003020  -0.0000029  -0.0000004  -0.0000051  -0.9425478   0.2783615
0.0100669    -0.9978458  -0.0001506  -0.0003259   0.0001336  -0.0000093  -0.0000186  -0.9425242   0.2785836
0.0101907    -0.9978024  -0.0000744  -0.0003408   0.0002016  -0.0000033  -0.0000092  -0.9425358   0.2786114
0.0103160    -0.9978364  -0.0001693  -0.0003685   0.0001221   0.0000116  -0.0000083  -0.9425019   0.2787091
0.0104428    -0.9978111  -0.0001244  -0.0003164   0.0000528  -0.0000035   0.0000003  -0.9425838   0.2789201
0.0105712    -0.9979655  -0.0001326  -0.0002721   0.0001516   0.0000088   0.0000015  -0.9425830   0.2789347
0.0107011    -0.9979154  -0.0001478  -0.0003394   0.0001144   0.0000044  -0.0000051  -0.9426090   0.2791118
0.0108327    -0.9977990  -0.0000779  -0.0004578   0.0001371   0.0000012  -0.0000062  -0.9425325   0.2791449
0.0109658    -0.9978072  -0.0001022  -0.0004138   0.0001837  -0.0000070  -0.0000045  -0.9426464   0.2792784
0.0111006    -0.9977966   0.0000183  -0.0003646   0.0002096  -0.0000041  -0.0000068  -0.9426136   0.2795289
0.0112371    -0.9977843  -0.0000521  -0.0003062   0.0001044  -0.0000054   0.0000003  -0.9426557   0.2794251
0.0113752    -0.9977561  -0.0000169  -0.0002708   0.0001961  -0.0000107   0.0000007  -0.9425597   0.2795968
0.0115151    -0.9978029  -0.0001486  -0.0001489   0.0002400   0.0000003  -0.0000004  -0.9427017   0.2798539
0.0116566    -0.9978097   0.0000467  -0.0003116   0.0001193  -0.0000025  -0.0000093  -0.9425976   0.2797545
0.0117999    -0.9978461  -0.0000785  -0.0002573   0.0002181  -0.0000078  -0.0000039  -0.9426702   0.2800117
0.0119450    -0.9952544   0.0015747  -0.0002765   0.0001766  -0.0000012   0.0000006  -0.9434624   0.2782170
0.0120918    -0.9979798  -0.0001435  -0.0002208   0.0001580   0.0000006  -0.0000104  -0.9426943   0.2801527
0.0122405    -0.9977213  -0.0001853  -0.0003169   0.0000969  -0.0000107   0.0000039  -0.9427471   0.2801706
0.0123910    -0.9979237  -0.0000935  -0.0002576   0.0001329  -0.0000042  -0.0000100  -0.9426088   0.2804391
0.0125433    -0.9976897   0.0000624  -0.0002986   0.0001481  -0.0000016   0.0000043  -0.9427097   0.2803775
0.0126975    -0.9977762   0.0000625  -0.0001587   0.0001318  -0.0000036  -0.0000023  -0.9425424   0.2804387
0.0128536    -0.9979553  -0.0002819  -0.0002867   0.0001912   0.0000036  -0.0000033  -0.9426407   0.2806492
0.0130116    -0.9977585  -0.0000460  -0.0007756  -0.0000770   0.0000031   0.0000037  -0.9426215   0.2806846
0.0131716    -0.9978853  -0.0001403  -0.0002600   0.0002719  -0.0000045   0.0000010  -0.9426642   0.2806807
0.0133335    -0.9978462  -0.0001261  -0.0002291  -0.0000014  -0.0000017  -0.0000095  -0.9425145   0.2809397
0.0134974    -0.9980348   0.0000060  -0.0002011   0.0001278   0.0000014  -0.0000020  -0.9425677   0.2809175
0.0136633    -0.9978411   0.0000716  -0.0002205   0.0001259   0.0000013  -0.0000062  -0.9426221   0.2811150
0.0138313    -0.9978564   0.0000061  -0.0002061   0.0001846  -0.0000014  -0.0000050  -0.9425397   0.2811490
0.0140013    -0.9979358  -0.0000104   0.0001484   0.0001925  -0.0000043  -0.0000027  -0.9426175   0.2812854
0.0141734    -0.9979487  -0.0002209  -0.0001575   0.0000908  -0.0000133  -0.0000052  -0.9426482   0.2814176
0.0143477    -0.9979012  -0.0001680  -0.0005565   0.0000244   0.0000019  -0.0000050  -0.9426134   0.2813920
0.0145240    -0.9978091  -0.0000746  -0.0004041   0.0002074   0.0000018   0.0000028  -0.9426510   0.2814696
0.0147026    -0.9978161  -0.0000677  -0.0002942   0.0002431   0.0000098  -0.0000082  -0.9425887   0.2815431
0.0148833    -0.9978918  -0.0000867  -0.0001703   0.0001668  -0.0000038  -0.0000085  -0.9425701   0.2817147
0.0150663    -0.9979718  -0.0001244  -0.0002461   0.0003196   0.0000025  -0.0000094  -0.9425500   0.2817628
0.0152515    -0.9977607   0.0000036  -0.0002502   0.0002288  -0.0000064  -0.0000097  -0.9425577   0.2819218
0.0154390    -0.9978547  -0.0000273  -0.0001253   0.0001805  -0.0000151   0.0000062  -0.9425825   0.2819117
0.0156288    -0.9978595  -0.0000623  -0.0002856   0.0001710  -0.0000092  -0.0000074  -0.9426634   0.2819290
0.0158209    -0.9978807  -0.0000696  -0.0002871   0.0004041  -0.0000031  -0.0000088  -0.9425187   0.2819562
0.0160154    -0.9978215  -0.0000759  -0.0002942   0.0001565   0.0000012  -0.0000067  -0.9425096   0.2821765
0.0162123    -0.9976081  -0.0001584  -0.0002588   0.0002348  -0.0000041  -0.0000005  -0.9424733   0.2823458
0.0164116    -0.9979750  -0.0001214  -0.0002262   0.0003465   0.0000020  -0.0000133  -0.9425390   0.2823374
0.0166134    -0.9978026  -0.0001788  -0.0002553   0.0001810   0.0000025   0.0000024  -0.9424725   0.2825105
0.0168176    -0.9978848  -0.0000344  -0.0001716   0.0001851   0.0000023  -0.0000011  -0.9425681   0.2824212
0.0170243    -0.9979134  -0.0000259  -0.0003553   0.0003773  -0.0000044  -0.0000021  -0.9425075   0.2825839
0.0172336    -0.9978799   0.0000038  -0.0002562   0.0001639   0.0000039  -0.0000065  -0.9424701   0.2825693
0.0174455    -0.9978344  -0.0000669  -0.0002958   0.0002206  -0.0000069   0.0000054  -0.9424511   0.2826684
0.0176599    -0.9979383  -0.0001720  -0.0002573   0.0001372  -0.0000030  -0.0000096  -0.9424459   0.2827776
0.0178770    -0.9978652   0.0001019  -0.0002269   0.0002535  -0.0000056   0.0000042  -0.9424224   0.2829245
0.0180968    -0.9979412  -0.0000928  -0.0002899   0.0002643  -0.0000086  -0.0000035  -0.9424302   0.2828374
0.0183193    -0.9979263  -0.0001453  -0.0002875   0.0000595   0.0000087  -0.0000044  -0.9424509   0.2830002
0.0185445    -0.9979305  -0.0000873  -0.0002104   0.0003517   0.0000103  -0.0000060  -0.9424455   0.2830423
0.0187724    -0.9978984  -0.0000156  -0.0000933  -0.0000073   0.0000036   0.0000011  -0.9423371   0.2830841
0.0190032    -0.9979314  -0.0000767  -0.0001145  -0.0000037  -0.0000030  -0.0000051  -0.9424280   0.2831313
0.0192368    -0.9977857  -0.0001939  -0.0002993   0.0002893   0.0000020   0.0000008  -0.9425254   0.2832695
0.0194733    -0.9977927  -0.0001359  -0.0002193   0.0002553   0.0000098  -0.0000044  -0.9424154   0.2833488
0.0197127    -0.9978197  -0.0000822  -0.0001518   0.0001934  -0.0000072  -0.0000149  -0.9423865   0.2834325
0.0199550    -0.9978967  -0.0001132  -0.0003537   0.0001439  -0.0000085  -0.0000115  -0.9424142   0.2834576
0.0202003    -0.9977511  -0.0000894  -0.0002129  -0.0000027  -0.0000027  -0.0000121  -0.9424186   0.2834956
0.0204487    -0.9977902  -0.0001208  -0.0001435   0.0000976  -0.0000126  -0.0000027  -0.9423482   0.2836018
0.0207001    -0.9978559  -0.0000148  -0.0001345   0.0001949  -0.0000050  -0.0000153  -0.9422820   0.2836091
0.0209545    -0.9978602  -0.0000593  -0.0001404   0.0002442  -0.0000042  -0.0000062  -0.9422991   0.2836966
0.0212121    -0.9978303  -0.0002556  -0.0001678   0.0001315   0.0000013   0.0000014  -0.9422630   0.2838958
0.0214729    -0.9977155  -0.0000565  -0.0001668   0.0001623  -0.0000082  -0.0000137  -0.9423046   0.2839225
0.0217369    -0.9979161  -0.0001317  -0.0001555   0.0001175   0.0000177  -0.0000012  -0.9422967   0.2839207
0.0220041    -0.9978505  -0.0001899  -0.0006932  -0.0003324  -0.0000034  -0.0000052  -0.9423316   0.2839710
0.0222746    -0.9978393  -0.0000388  -0.0002001   0.0001699   0.0000044  -0.0000094  -0.9421834   0.2840686
0.0225484    -0.9978629  -0.0002124  -0.0001369   0.0001640  -0.0000069   0.0000029  -0.9421589   0.2840821
0.0228256    -0.9979532  -0.0000167  -0.0001834   0.0002046  -0.0000015   0.0000000  -0.9422130   0.2841121
0.0231062    -0.9978443  -0.0000480  -0.0000296   0.0001032  -0.0000071  -0.0000067  -0.9422103   0.2841453
0.0233902    -0.9977839  -0.0000958  -0.0001571   0.0002419  -0.0000062   0.0000041  -0.9421501   0.2842650
0.0236778    -0.9977983  -0.0001218  -0.0000869   0.0001732   0.0000026  -0.0000065  -0.9421274   0.2843437
0.0239689    -0.9957555   0.0000611  -0.0003308   0.0000104  -0.0000034  -0.0000028  -0.9431943   0.2849166
0.0242635    -0.9978541  -0.0000378  -0.0001340   0.0002123   0.0000020  -0.0000015  -0.9421554   0.2844378
0.0245618    -0.9977968  -0.0000584  -0.0001338   0.0001695  -0.0000175  -0.0000006  -0.9420997   0.2845678
0.0248637    -0.9978417  -0.0000561  -0.0002128   0.0004820  -0.0000010  -0.0000011  -0.9421057   0.2846436
0.0251694    -0.9980483  -0.0000135  -0.0000899   0.0002403  -0.0000045  -0.0000092  -0.9421237   0.2846718
0.0254788    -0.9978004  -0.0000088  -0.0003879   0.0000138  -0.0000051  -0.0000060  -0.9420106   0.2847303
0.0257920    -0.9978830  -0.0001422  -0.0002375  -0.0001723   0.0000011  -0.0000116  -0.9420984   0.2848583
0.0261091    -0.9977298  -0.0000454  -0.0000628   0.0001759   0.0000032  -0.0000093  -0.9419308   0.2848252
0.0264301    -0.9977561  -0.0001044  -0.0000576   0.0001600   0.0000051  -0.0000114  -0.9420806   0.2849199
0.0267550    -0.9979012  -0.0000667  -0.0001097   0.0001490  -0.0000017   0.0000036  -0.9419236   0.2849455
0.0270839    -0.9977915  -0.0001257  -0.0000536   0.0001655  -0.0000150  -0.0000070  -0.9420152   0.2849370
0.0274168    -0.9976092  -0.0000954  -0.0001115   0.0001795  -0.0000071  -0.0000091  -0.9419723   0.2849874
0.0277539    -0.9978771  -0.0000218  -0.0001214   0.0002744  -0.0000055  -0.0000124  -0.9418585   0.2850718
0.0280951    -0.9978837  -0.0001332  -0.0001803   0.0001099  -0.0000084  -0.0000131  -0.9418695   0.2851680
0.0284404    -0.9979887  -0.0001022  -0.0001708   0.0001510  -0.0000050  -0.0000027  -0.9418926   0.2852433
0.0287901    -0.9979064  -0.0001038  -0.0001172   0.0001796  -0.0000104  -0.0000071  -0.9419360   0.2851845
0.0291440    -0.9977814  -0.0001064  -0.0001664   0.0001589   0.0000046  -0.0000088  -0.9418947   0.2853351
0.0295023    -0.9979086   0.0000378  -0.0001544   0.0002203   0.0000158   0.0000033  -0.9418181   0.2853636
0.0298649    -0.9977361  -0.0001876  -0.0002463   0.0001173   0.0000090  -0.0000008  -0.9418149   0.2853996
0.0302321    -0.9979243  -0.0001246  -0.0001671   0.0000866   0.0000043  -0.0000058  -0.9417208   0.2854923
0.0306037    -0.9977841  -0.0001325  -0.0000127   0.0000711  -0.0000045  -0.0000008  -0.9417143   0.2855678
0.0309799    -0.9978939  -0.0000463  -0.0000355   0.0000709  -0.0000045   0.0000013  -0.9418265   0.2855831
0.0313608    -0.9978552  -0.0000968  -0.0000780   0.0002011   0.0000041  -0.0000197  -0.9417779   0.2856653
0.0317463    -0.9978863  -0.0000276  -0.0001026   0.0001622  -0.0000047   0.0000050  -0.9416988   0.2857371
0.0321366    -0.9978461  -0.0000113   0.0000693   0.0000360   0.0000041  -0.0000031  -0.9417880   0.2857474
0.0325316    -0.9978561  -0.0000513  -0.0000686   0.0000907   0.0000030  -0.0000159  -0.9416747   0.2858300
0.0329316    -0.9978547   0.0000437  -0.0000631   0.0000844   0.0000071  -0.0000175  -0.9416642   0.2859160
0.0333364    -0.9979063  -0.0001395  -0.0000255   0.0001776   0.0000033  -0.0000037  -0.9416956   0.2859965
0.0337462    -0.9978804  -0.0000786  -0.0000386   0.0000089   0.0000003   0.0000066  -0.9415459   0.2858363
0.0341610    -0.9978316  -0.0001394  -0.0000362   0.0001744   0.0000031  -0.0000018  -0.9415890   0.2860550
0.0345810    -0.9978761   0.0000055  -0.0001091   0.0001003   0.0000025  -0.0000054  -0.9415994   0.2860402
0.0350061    -0.9978532  -0.0000533  -0.0001191   0.0001775   0.0000041   0.0000028  -0.9416480   0.2861025
0.0354365    -0.9979377   0.0000637  -0.0001334   0.0000996   0.0000008  -0.0000113  -0.9415532   0.2862356
0.0358721    -0.9979626  -0.0001804  -0.0001469   0.0001455   0.0000027   0.0000040  -0.9415274   0.2861881
0.0363131    -0.9977878   0.0000398  -0.0000118   0.0002084  -0.0000035  -0.0000022  -0.9415787   0.2862180
0.0367595    -0.9978710  -0.0002565  -0.0000462  -0.0000151  -0.0000029  -0.0000134  -0.9414277   0.2863980
0.0372114    -0.9978451  -0.0001422   0.0000736   0.0000748   0.0000021  -0.0000147  -0.9414660   0.2864445
0.0376688    -0.9978577  -0.0001313  -0.0001707   0.0001452  -0.0000015  -0.0000004  -0.9414265   0.2864517
0.0381319    -0.9979633  -0.0000660   0.0001615   0.0001243  -0.0000009  -0.0000148  -0.9414994   0.2864761
0.0386006    -0.9978426   0.0000228   0.0000478   0.0001164  -0.0000001  -0.0000062  -0.9414738   0.2866139
0.0390752    -0.9979122  -0.0001195  -0.0002114   0.0002754   0.0000058  -0.0000044  -0.9413666   0.2865701
0.0395555    -0.9978512  -0.0000609  -0.0000329   0.0001663  -0.0000018  -0.0000008  -0.9413887   0.2866159
0.0400418    -0.9978383  -0.0000940   0.0000237   0.0002484  -0.0000059  -0.0000090  -0.9414225   0.2867169
0.0405340    -0.9979327  -0.0000712  -0.0001827   0.0001642   0.0000032  -0.0000083  -0.9413678   0.2866962
0.0410323    -0.9978126  -0.0001048  -0.0001008   0.0002178   0.0000113  -0.0000063  -0.9412536   0.2867964
0.0415368    -0.9977530  -0.0001121  -0.0000827   0.0000965  -0.0000101   0.0000046  -0.9413906   0.2868516
0.0420474    -0.9978436  -0.0001281   0.0000197   0.0001344  -0.0000032  -0.0000059  -0.9413047   0.2867908
0.0425643    -0.9978525  -0.0001213  -0.0000751   0.0001400   0.0000041  -0.0000041  -0.9412317   0.2868349
0.0430875    -0.9978518  -0.0001364  -0.0000943   0.0001211   0.0000041  -0.0000004  -0.9413051   0.2869693
0.0436172    -0.9979046  -0.0001353  -0.0000979   0.0000240  -0.0000077  -0.0000074  -0.9412355   0.2870156
0.0441534    -0.9978780  -0.0000757  -0.0000726   0.0000391   0.0000004  -0.0000073  -0.9411886   0.2871031
0.0446962    -0.9978009  -0.0000386  -0.0000410   0.0000446  -0.0000045  -0.0000057  -0.9411981   0.2871376
0.0452457    -0.9978143  -0.0000025  -0.0000758   0.0000625   0.0000028  -0.0000074  -0.9411458   0.2871384
0.0458019    -0.9978159  -0.0000052  -0.0001591   0.0000804   0.0000017  -0.0000085  -0.9411226   0.2871739
0.0463649    -0.9977774  -0.0000092  -0.0001137   0.0001310   0.0000098   0.0000013  -0.9410879   0.2872438
0.0469349    -0.9978935  -0.0001145  -0.0001358   0.0000534  -0.0000076  -0.0000056  -0.9410962   0.2873527
0.0475119    -0.9978816  -0.0000518  -0.0001459   0.0000525   0.0000017  -0.0000071  -0.9410704   0.2873649
0.0480960    -0.9980272  -0.0000614  -0.0001522   0.0000966  -0.0000044  -0.0000019  -0.9409973   0.2874680
0.0486872    -0.9978141  -0.0001005  -0.0001594   0.0000662  -0.0000129  -0.0000110  -0.9409651   0.2874875
0.0492857    -0.9977747  -0.0001155  -0.0001597   0.0000772  -0.0000002  -0.0000042  -0.9409461   0.2875644
0.0498916    -0.9979396  -0.0000428  -0.0000686   0.0000816  -0.0000045  -0.0000018  -0.9408737   0.2876173
0.0505050    -0.9978755  -0.0001787   0.0000872  -0.0001693  -0.0000103  -0.0000166  -0.9409469   0.2876108
0.0511258    -0.9979919   0.0000347  -0.0000820   0.0000779  -0.0000017  -0.0000074  -0.9409396   0.2877756
0.0517543    -0.9978905  -0.0001232  -0.0001562   0.0001179  -0.0000078  -0.0000062  -0.9409543   0.2877150
0.0523906    -0.9978354  -0.0000692  -0.0001293   0.0001430   0.0000057  -0.0000072  -0.9408638   0.2877875
0.0530346    -0.9979157  -0.0000293  -0.0000220   0.0001603   0.0000032  -0.0000115  -0.9408033   0.2878187
0.0536866    -0.9977367  -0.0001672  -0.0001334   0.0001354  -0.0000095  -0.0000167  -0.9408350   0.2878571
0.0543466    -0.9978496  -0.0001186  -0.0001392   0.0001074  -0.0000052  -0.0000006  -0.9407425   0.2878680
0.0550146    -0.9979263   0.0000030  -0.0002251   0.0001248  -0.0000055  -0.0000045  -0.9407686   0.2879192
0.0556910    -0.9979131  -0.0001006  -0.0002278   0.0001143  -0.0000121  -0.0000102  -0.9406990   0.2879734
0.0563756    -0.9978540  -0.0000934  -0.0001240   0.0001283   0.0000018  -0.0000108  -0.9407175   0.2881117
0.0570686    -0.9978818  -0.0000632  -0.0001845   0.0000779   0.0000006  -0.0000166  -0.9406780   0.2881488
0.0577702    -0.9978412  -0.0001396  -0.0001709   0.0000491  -0.0000013  -0.0000054  -0.9406106   0.2882546
0.0584804    -0.9979137  -0.0002113  -0.0001089   0.0002029   0.0000011  -0.0000075  -0.9405687   0.2881916
0.0591993    -0.9978233  -0.0000292  -0.0002386   0.0001475   0.0000087   0.0000003  -0.9405477   0.2882490
0.0599270    -0.9978323  -0.0001153   0.0000563   0.0001952   0.0000084  -0.0000020  -0.9406534   0.2883762
0.0606637    -0.9978044  -0.0000773  -0.0000480   0.0002019  -0.0000008  -0.0000084  -0.9404613   0.2883609
0.0614095    -0.9978271  -0.0000448  -0.0001222   0.0000847  -0.0000130   0.0000009  -0.9405219   0.2883972
0.0621644    -0.9978414  -0.0001388  -0.0002023   0.0001413  -0.0000010  -0.0000074  -0.9405535   0.2885076
0.0629286    -0.9978758  -0.0000388  -0.0001353   0.0001326  -0.0000052  -0.0000012  -0.9404398   0.2884878
0.0637022    -0.9978417  -0.0000632  -0.0001502   0.0001400   0.0000020  -0.0000046  -0.9403573   0.2886245
0.0644853    -0.9978963  -0.0001044  -0.0001465   0.0001240  -0.0000014  -0.0000039  -0.9404157   0.2886764
0.0652780    -0.9978716  -0.0001567  -0.0001886   0.0001350   0.0000039  -0.0000084  -0.9403190   0.2886986
0.0660805    -0.9977713  -0.0001896  -0.0002540   0.0000279  -0.0000050  -0.0000067  -0.9402917   0.2888275
0.0668928    -0.9978377  -0.0000251  -0.0002210   0.0000924  -0.0000128  -0.0000122  -0.9402203   0.2888212
0.0677152    -0.9978918  -0.0001368  -0.0001065   0.0001172   0.0000000  -0.0000112  -0.9402024   0.2888230
0.0685476    -0.9979001  -0.0002349  -0.0002296   0.0000456  -0.0000072  -0.0000117  -0.9401862   0.2888922
0.0693903    -0.9978585  -0.0001787  -0.0002575   0.0001148  -0.0000004  -0.0000041  -0.9401122   0.2890172
0.0702433    -0.9978608  -0.0001682  -0.0002883   0.0000998  -0.0000029   0.0000041  -0.9401311   0.2890242
0.0711068    -0.9977435  -0.0001356  -0.0002843   0.0001516   0.0000037  -0.0000059  -0.9400895   0.2890692
0.0719810    -0.9977653  -0.0001127  -0.0003429   0.0000669  -0.0000091   0.0000050  -0.9400307   0.2890734
0.0728659    -0.9978581  -0.0000892  -0.0003745   0.0000577   0.0000052  -0.0000014  -0.9399982   0.2891921
0.0737616    -0.9978958  -0.0001980  -0.0001105   0.0001655  -0.0000012   0.0000004  -0.9399166   0.2892475
0.0746684    -0.9978326  -0.0001188  -0.0002655   0.0001552   0.0000073  -0.0000086  -0.9399425   0.2892933
0.0755863    -0.9978980  -0.0002582  -0.0002232   0.0000404  -0.0000051  -0.0000018  -0.9398644   0.2893296
0.0765155    -0.9978843  -0.0001450  -0.0002299   0.0001091  -0.0000040  -0.0000102  -0.9398543   0.2893451
0.0774561    -0.9978581  -0.0000749  -0.0002298   0.0001725   0.0000021  -0.0000132  -0.9397228   0.2894283
0.0784083    -0.9976836  -0.0001051  -0.0002909   0.0001273   0.0000033   0.0000006  -0.9396576   0.2894038
0.0793722    -0.9978322  -0.0001640  -0.0002867   0.0001449  -0.0000042  -0.0000104  -0.9396161   0.2895158
0.0803479    -0.9978506  -0.0000713  -0.0002729   0.0001629   0.0000014  -0.0000099  -0.9396115   0.2895176
0.0813357    -0.9977523  -0.0001119  -0.0002564   0.0002266  -0.0000006  -0.0000007  -0.9394970   0.2895606
0.0823356    -0.9978188  -0.0002160  -0.0003563   0.0001927  -0.0000053  -0.0000076  -0.9394075   0.2896695
0.0833477    -0.9977830  -0.0000895  -0.0003152   0.0001959   0.0000061  -0.0000029  -0.9393761   0.2896456
0.0843723    -0.9979029  -0.0002832  -0.0004297   0.0005003   0.0000086  -0.0000037  -0.9393115   0.2897923
0.0854095    -0.9977905  -0.0000885  -0.0002624   0.0001398  -0.0000026  -0.0000074  -0.9392051   0.2896720
0.0864595    -0.9978339  -0.0002010  -0.0002935   0.0002636  -0.0000029   0.0000073  -0.9391912   0.2898053
0.0875224    -0.9977979  -0.0001619  -0.0002489   0.0002792   0.0000034  -0.0000104  -0.9391330   0.2897833
0.0885983    -0.9977659  -0.0001745  -0.0004453   0.0004642  -0.0000022  -0.0000038  -0.9390844   0.2898074
0.0896875    -0.9977462  -0.0001171  -0.0004643   0.0000996   0.0000089  -0.0000091  -0.9389901   0.2898603
0.0907900    -0.9977166  -0.0001742  -0.0002503   0.0002803  -0.0000058  -0.0000009  -0.9389029   0.2897670
0.0919061    -0.9978259  -0.0002596  -0.0001045   0.0002827   0.0000026   0.0000009  -0.9387465   0.2898359
0.0930359    -0.9978020  -0.0002791  -0.0003413   0.0003289   0.0000012   0.0000016  -0.9387368   0.2897206
0.0941797    -0.9977469  -0.0002763  -0.0003421   0.0002824   0.0000025   0.0000095  -0.9386642   0.2897788
0.0953374    -0.9978318  -0.0003375  -0.0002691   0.0003364  -0.0000047   0.0000036  -0.9386589   0.2896874
0.0965094    -0.9977803  -0.0003128  -0.0004651   0.0003221   0.0000008  -0.0000022  -0.9385277   0.2897067
0.0976959    -0.9978077  -0.0002426  -0.0003966   0.0003078   0.0000064  -0.0000051  -0.9385353   0.2896980
0.0988969    -0.9977952  -0.0002973  -0.0003589   0.0003310  -0.0000068  -0.0000015  -0.9384663   0.2896201
0.1001126    -0.9978663  -0.0003180  -0.0002625   0.0003166  -0.0000042  -0.0000113  -0.9384273   0.2896009
0.1013433    -0.9978624  -0.0002854  -0.0003013   0.0003859  -0.0000066  -0.0000005  -0.9384162   0.2895283
0.1025892    -0.9977665  -0.0002825  -0.0003234   0.0003292  -0.0000089  -0.0000156  -0.9383242   0.2894642
0.1038503    -0.9978462  -0.0003178  -0.0002656   0.0001006  -0.0000061   0.0000026  -0.9383898   0.2893628
0.1051270    -0.9978128  -0.0002479  -0.0003210   0.0003864  -0.0000042   0.0000032  -0.9384645   0.2893710
0.1064193    -0.9978724  -0.0002600  -0.0001756   0.0004224  -0.0000009  -0.0000043  -0.9385210   0.2892712
0.1077276    -0.9978488  -0.0003047  -0.0002817   0.0004084  -0.0000010   0.0000042  -0.9385561   0.2893075
0.1090519    -0.9978596  -0.0003115  -0.0003007   0.0003737   0.0000081   0.0000023  -0.9386699   0.2891948
0.1103925    -0.9978943  -0.0003354  -0.0002861   0.0004394  -0.0000053  -0.0000082  -0.9386504   0.2892372
0.1117496    -0.9978902  -0.0002843  -0.0003654   0.0002767   0.0000070  -0.0000009  -0.9387449   0.2892651
0.1131233    -0.9979186  -0.0002755  -0.0005080   0.0005330  -0.0000109  -0.0000063  -0.9388706   0.2892237
0.1145140    -0.9979440  -0.0003026  -0.0003388   0.0004283  -0.0000020  -0.0000139  -0.9389367   0.2893050
0.1159217    -0.9979009  -0.0003083  -0.0003889   0.0004345  -0.0000058  -0.0000006  -0.9389502   0.2893045
0.1173468    -0.9978972  -0.0002893  -0.0005900   0.0004603   0.0000043  -0.0000100  -0.9390159   0.2893834
0.1187893    -0.9979407  -0.0003746  -0.0002992   0.0004938  -0.0000015  -0.0000112  -0.9391408   0.2894386
0.1202497    -0.9980158  -0.0002791  -0.0003290   0.0004509  -0.0000076  -0.0000202  -0.9391425   0.2894774
0.1217279    -0.9979018  -0.0002609  -0.0002897   0.0004927   0.0000047   0.0000067  -0.9391774   0.2895602
0.1232243    -0.9978845  -0.0002620  -0.0003304   0.0004902  -0.0000059  -0.0000097  -0.9393238   0.2897100
0.1247392    -0.9978484  -0.0002676  -0.0002594   0.0005347  -0.0000005  -0.0000021  -0.9393441   0.2897610
0.1262726    -0.9979147  -0.0002502  -0.0003152   0.0004939  -0.0000082  -0.0000107  -0.9393835   0.2898578
0.1278249    -0.9979368  -0.0003586  -0.0001308  -0.0005681  -0.0000011  -0.0000062  -0.9393711   0.2899272
0.1293963    -0.9979573  -0.0002457  -0.0003118   0.0008393  -0.0000038  -0.0000042  -0.9394349   0.2900448
0.1309870    -0.9979059  -0.0002755  -0.0002409   0.0004638   0.0000004  -0.0000140  -0.9394403   0.2901690
0.1325973    -0.9979195  -0.0002386  -0.0002718   0.0004447  -0.0000006   0.0000020  -0.9394429   0.2901727
0.1342273    -0.9978775  -0.0002849  -0.0001901   0.0004479  -0.0000030  -0.0000066  -0.9395119   0.2902830
0.1358774    -0.9979421  -0.0001961  -0.0001807   0.0003523  -0.0000045   0.0000028  -0.9394840   0.2904587
0.1375478    -0.9978489  -0.0002839  -0.0002455   0.0004862   0.0000041  -0.0000011  -0.9395102   0.2904983
0.1392387    -0.9978997  -0.0002770  -0.0002331   0.0003215  -0.0000016  -0.0000030  -0.9394896   0.2906542
0.1409504    -0.9979082  -0.0003597  -0.0002071   0.0004581  -0.0000098  -0.0000030  -0.9395416   0.2907525
0.1426831    -0.9978772  -0.0002332  -0.0001782   0.0004630  -0.0000051  -0.0000032  -0.9395182   0.2907696
0.1444371    -0.9978344  -0.0003565  -0.0002032   0.0004408   0.0000040  -0.0000025  -0.9394529   0.2909111
0.1462127    -0.9978851  -0.0001352  -0.0001534   0.0004282   0.0000011  -0.0000080  -0.9395321   0.2910522
0.1480102    -0.9979029  -0.0003957  -0.0001890   0.0003738  -0.0000016  -0.0000117  -0.9394888   0.2911476
0.1498297    -0.9978961  -0.0002759  -0.0001626   0.0004855  -0.0000046   0.0000006  -0.9394295   0.2911965
0.1516716    -0.9978426  -0.0002074  -0.0001967   0.0004162  -0.0000031   0.0000037  -0.9394114   0.2913293
0.1535361    -0.9978943  -0.0002605  -0.0002408   0.0005773  -0.0000056  -0.0000089  -0.9394468   0.2914228
0.1554236    -0.9978827  -0.0002849  -0.0002049   0.0004852   0.0000006   0.0000022  -0.9394299   0.2915906
0.1573342    -0.9978551  -0.0003943  -0.0001967   0.0005068  -0.0000109  -0.0000090  -0.9393141   0.2916879
0.1592684    -0.9978386  -0.0002455  -0.0002152   0.0005388   0.0000048   0.0000032  -0.9394186   0.2917255
0.1612263    -0.9978140  -0.0002551  -0.0001558   0.0005199   0.0000049  -0.0000010  -0.9393069   0.2918717
0.1632083    -0.9977992  -0.0003399  -0.0002381   0.0005457   0.0000052  -0.0000046  -0.9393931   0.2919294
0.1652147    -0.9978465  -0.0003848  -0.0001561   0.0005582  -0.0000054   0.0000015  -0.9392935   0.2920767
0.1672457    -0.9978649  -0.0002481  -0.0002249   0.0005047   0.0000058  -0.0000092  -0.9392819   0.2921465
0.1693017    -0.9979285  -0.0003753  -0.0002643   0.0005198  -0.0000093  -0.0000026  -0.9392562   0.2921591
0.1713829    -0.9978782  -0.0002624  -0.0002429   0.0005293  -0.0000062  -0.0000029  -0.9392212   0.2923577
0.1734898    -0.9979585  -0.0002943  -0.0001530   0.0005263  -0.0000008   0.0000005  -0.9391912   0.2923584
0.1756225    -0.9979160  -0.0003278  -0.0001993   0.0005808   0.0000067  -0.0000024  -0.9391699   0.2925539
0.1777815    -0.9978518  -0.0003631  -0.0001955   0.0006133  -0.0000031  -0.0000086  -0.9390592   0.2925714
0.1799670    -0.9978621  -0.0002742  -0.0002239   0.0006205  -0.0000053  -0.0000102  -0.9390654   0.2927581
0.1821794    -0.9978363  -0.0004225  -0.0001568   0.0005628   0.0000027  -0.0000042  -0.9390483   0.2928551
0.1844190    -0.9978598  -0.0003806  -0.0001708   0.0005933  -0.0000014  -0.0000113  -0.9391059   0.2929285
0.1866861    -0.9978513  -0.0003720  -0.0001251   0.0006135  -0.0000025  -0.0000085  -0.9389236   0.2930493
0.1889811    -0.9979296  -0.0003509  -0.0001504   0.0005780  -0.0000052  -0.0000045  -0.9389341   0.2931909
0.1913043    -0.9979508  -0.0003360  -0.0002790   0.0004835  -0.0000022  -0.0000077  -0.9389398   0.2931881
0.1936560    -0.9978458  -0.0004077  -0.0000120   0.0005410  -0.0000029   0.0000011  -0.9388743   0.2934055
0.1960367    -0.9979165  -0.0003253   0.0000434   0.0004533  -0.0000034  -0.0000113  -0.9388666   0.2935421
0.1984466    -0.9979692  -0.0003142  -0.0001770   0.0006248  -0.0000069  -0.0000007  -0.9388003   0.2935264
0.2008861    -0.9978148  -0.0003743  -0.0001390   0.0006495  -0.0000035  -0.0000135  -0.9388468   0.2937072
0.2033557    -0.9978099  -0.0004500  -0.0001124   0.0006321  -0.0000017  -0.0000072  -0.9388149   0.2937507
0.2058556    -0.9978849  -0.0003017  -0.0001274   0.0006733   0.0000063  -0.0000012  -0.9386165   0.2938308
0.2083862    -0.9977916  -0.0004529  -0.0001538   0.0006414  -0.0000007  -0.0000098  -0.9386430   0.2939738
0.2109480    -0.9979558  -0.0004659  -0.0000594   0.0007204  -0.0000041   0.0000037  -0.9386125   0.2940661
0.2135412    -0.9977885  -0.0003382  -0.0001016   0.0006549   0.0000026  -0.0000099  -0.9385548   0.2941996
0.2161663    -0.9978576  -0.0004322  -0.0000973   0.0006748   0.0000069  -0.0000061  -0.9385860   0.2942747
0.2188237    -0.9978063  -0.0003794  -0.0003413   0.0005850  -0.0000015  -0.0000051  -0.9385893   0.2944157
0.2215137    -0.9978658  -0.0003635  -0.0001843   0.0005977  -0.0000176  -0.0000081  -0.9384733   0.2944849
0.2242369    -0.9977799  -0.0004396  -0.0007781  -0.0000972  -0.0000093  -0.0000156  -0.9383799   0.2946712
0.2269935    -0.9978881  -0.0002808  -0.0000806   0.0006633  -0.0000070  -0.0000102  -0.9383557   0.2947396
0.2297839    -0.9978690  -0.0004799   0.0002320   0.0007726   0.0000008  -0.0000095  -0.9383288   0.2948782
0.2326087    -0.9978709  -0.0004031  -0.0002001   0.0008778  -0.0000072  -0.0000042  -0.9383012   0.2949777
0.2354682    -0.9978591  -0.0003837  -0.0005056   0.0006040   0.0000062  -0.0000025  -0.9382314   0.2950852
0.2383629    -0.9978964  -0.0004746  -0.0002468   0.0009264   0.0000095  -0.0000077  -0.9382402   0.2951383
0.2412932    -0.9978744  -0.0004633  -0.0001633   0.0009640  -0.0000204  -0.0000146  -0.9381400   0.2952565
0.2442594    -0.9978561  -0.0003982  -0.0000627   0.0003037  -0.0000093   0.0000065  -0.9381314   0.2954319
0.2472622    -0.9979007  -0.0004204   0.0000249   0.0009201  -0.0000034  -0.0000044  -0.9381191   0.2955686
0.2503018    -0.9978148  -0.0004181  -0.0001162   0.0007230  -0.0000125  -0.0000093  -0.9379876   0.2957517
0.2533788    -0.9979139  -0.0004292   0.0001229  -0.0001361  -0.0000040   0.0000031  -0.9379655   0.2957465
0.2564937    -0.9979678  -0.0004940  -0.0000324   0.0006028  -0.0000017  -0.0000116  -0.9379517   0.2958429
0.2596468    -0.9978319  -0.0004103  -0.0003603   0.0012608  -0.0000103  -0.0000019  -0.9378675   0.2960615
0.2628387    -0.9979448  -0.0004716  -0.0002870   0.0011384   0.0000019   0.0000031  -0.9378421   0.2962113
0.2660699    -0.9978714  -0.0005055  -0.0000907   0.0006829   0.0000030  -0.0000001  -0.9377637   0.2962477
0.2693407    -0.9978055  -0.0005709   0.0003528   0.0009154   0.0000029   0.0000017  -0.9376920   0.2964796
0.2726518    -0.9977880  -0.0004312  -0.0009301   0.0011211   0.0000098  -0.0000065  -0.9376563   0.2965318
0.2760036    -0.9979215  -0.0004094   0.0003879   0.0007866  -0.0000009  -0.0000004  -0.9376370   0.2967253
0.2793966    -0.9978681  -0.0005633  -0.0000219   0.0007992   0.0000015  -0.0000069  -0.9375655   0.2967840
0.2828312    -0.9979326  -0.0004631  -0.0000008   0.0008250  -0.0000054  -0.0000065  -0.9375553   0.2969881
0.2863082    -0.9978973  -0.0004590  -0.0003276   0.0008829  -0.0000069  -0.0000156  -0.9374514   0.2970842
0.2898278    -0.9979082  -0.0004847   0.0000584   0.0005900   0.0000011  -0.0000148  -0.9373987   0.2972562
0.2933907    -0.9978297  -0.0004640   0.0003044   0.0009283  -0.0000071  -0.0000110  -0.9374491   0.2973166
0.2969975    -0.9978245  -0.0005194  -0.0006378   0.0008628   0.0000025  -0.0000002  -0.9373918   0.2974570
0.3006485    -0.9977551  -0.0004390  -0.0003116   0.0009623  -0.0000037  -0.0000003  -0.9372446   0.2976492
0.3043445    -0.9978611  -0.0006127   0.0000730   0.0007298   0.0000030  -0.0000090  -0.9372233   0.2977212
0.3080858    -0.9978827  -0.0005683  -0.0000498   0.0009362   0.0000008  -0.0000047  -0.9371217   0.2978439
0.3118732    -0.9978536  -0.0005557   0.0002155   0.0008553  -0.0000029  -0.0000037  -0.9370846   0.2981255
0.3157071    -0.9979315  -0.0006289  -0.0000123   0.0008740   0.0000001  -0.0000051  -0.9369519   0.2981806
0.3195882    -0.9978790  -0.0005131   0.0000491   0.0008513  -0.0000056  -0.0000075  -0.9369621   0.2983713
0.3235170    -0.9977847  -0.0006459  -0.0000238   0.0008447   0.0000005  -0.0000101  -0.9368877   0.2985743
0.3274941    -0.9977724  -0.0006071   0.0000049   0.0009150  -0.0000171  -0.0000030  -0.9368245   0.2986018
0.3315200    -0.9978282  -0.0005671   0.0000334   0.0009104  -0.0000011  -0.0000002  -0.9366881   0.2987612
0.3355955    -0.9978649  -0.0005450   0.0000605   0.0008382   0.0000024  -0.0000098  -0.9367534   0.2988743
0.3397210    -0.9978112  -0.0007256  -0.0000297   0.0009124  -0.0000033  -0.0000140  -0.9366286   0.2991156
0.3438973    -0.9977969  -0.0006264   0.0000587   0.0009043   0.0000025  -0.0000018  -0.9365542   0.2991742
0.3481249    -0.9978665  -0.0007139   0.0000117   0.0009308  -0.0000090  -0.0000003  -0.9365513   0.2993079
0.3524045    -0.9978840  -0.0006701   0.0000616   0.0008337   0.0000071  -0.0000049  -0.9364981   0.2994654
0.3567367    -0.9978816  -0.0006158   0.0000619   0.0008964   0.0000048  -0.0000006  -0.9364733   0.2996630
0.3611221    -0.9978616  -0.0007163  -0.0000516   0.0009027  -0.0000009  -0.0000053  -0.9363157   0.2998125
0.3655615    -0.9978137  -0.0005766   0.0000593   0.0009199   0.0000008   0.0000035  -0.9362350   0.2999891
0.3700554    -0.9979030  -0.0007533   0.0000054   0.0009154  -0.0000078   0.0000013  -0.9361766   0.3001423
0.3746046    -0.9978594  -0.0007144  -0.0000021   0.0009244  -0.0000074   0.0000052  -0.9360952   0.3002810
0.3792097    -0.9979065  -0.0006575  -0.0002046   0.0009061   0.0000027  -0.0000014  -0.9360310   0.3005167
0.3838714    -0.9979201  -0.0006901   0.0000690   0.0010455  -0.0000147   0.0000006  -0.9360487   0.3006684
0.3885905    -0.9978654  -0.0006175   0.0000261   0.0009592   0.0000014  -0.0000025  -0.9359445   0.3008066
0.3933675    -0.9979889  -0.0006777   0.0000140   0.0009696  -0.0000064  -0.0000079  -0.9358374   0.3010662
0.3982033    -0.9979054  -0.0007607   0.0000008   0.0010183   0.0000045  -0.0000028  -0.9357388   0.3011775
0.4030985    -0.9980155  -0.0006824   0.0001061   0.0011208  -0.0000013  -0.0000019  -0.9356822   0.3013380
0.4080538    -0.9979459  -0.0007394  -0.0000071   0.0011012   0.0000088  -0.0000011  -0.9356213   0.3015114
0.4130701    -0.9979377  -0.0008478   0.0000086   0.0010609  -0.0000030  -0.0000011  -0.9354990   0.3017008
0.4181481    -0.9979652  -0.0008125   0.0000065   0.0010358  -0.0000217  -0.0000123  -0.9354835   0.3019167
0.4232885    -0.9979377  -0.0007664  -0.0000018   0.0010919   0.0000013  -0.0000042  -0.9353929   0.3020374
0.4284921    -0.9979372  -0.0007765   0.0000452   0.0010415   0.0000050  -0.0000019  -0.9353126   0.3021829
0.4337597    -0.9978124  -0.0007681   0.0000544   0.0010273  -0.0000025  -0.0000129  -0.9351899   0.3024178
0.4390920    -0.9979117  -0.0007952   0.0000235   0.0010292   0.0000014  -0.0000040  -0.9351455   0.3026475
0.4444898    -0.9978960  -0.0009356   0.0000235   0.0010818   0.0000003  -0.0000071  -0.9350953   0.3028394
0.4499541    -0.9978042  -0.0007772   0.0000080   0.0011077   0.0000018   0.0000071  -0.9349420   0.3029515
0.4554854    -0.9979424  -0.0008830   0.0000287   0.0010845  -0.0000024   0.0000004  -0.9349191   0.3031716
0.4610848    -0.9978724  -0.0009268   0.0000204   0.0010738   0.0000036  -0.0000010  -0.9347462   0.3034583
0.4667531    -0.9979640  -0.0007958  -0.0000030   0.0010831  -0.0000048  -0.0000122  -0.9347264   0.3035858
0.4724910    -0.9978769  -0.0008345   0.0000614   0.0011410   0.0000114  -0.0000039  -0.9345766   0.3037551
0.4782994    -0.9979027  -0.0008473   0.0000065   0.0010910  -0.0000062  -0.0000052  -0.9345650   0.3040264
0.4841793    -0.9978299  -0.0009073   0.0000421   0.0011643   0.0000106   0.0000023  -0.9344129   0.3041643
0.4901314    -0.9978519  -0.0009042   0.0000641   0.0011079   0.0000062  -0.0000086  -0.9344641   0.3044346
0.4961567    -0.9979278  -0.0009501   0.0000101   0.0011590  -0.0000058  -0.0000014  -0.9343045   0.3046205
0.5022561    -0.9978282  -0.0008494   0.0000896   0.0011258  -0.0000017  -0.0000053  -0.9341865   0.3048411
0.5084304    -0.9979124  -0.0008286   0.0000326   0.0011550  -0.0000013  -0.0000019  -0.9340425   0.3051119
0.5146807    -0.9979173  -0.0009203   0.0000206   0.0011287  -0.0000092  -0.0000063  -0.9339961   0.3052493
0.5210078    -0.9979367  -0.0008839  -0.0000010   0.0012281   0.0000043  -0.0000041  -0.9338725   0.3054744
0.5274126    -0.9979021  -0.0009290   0.0000355   0.0012477  -0.0000064  -0.0000075  -0.9338402   0.3057256
0.5338963    -0.9978698  -0.0009655   0.0000334   0.0012026   0.0000003   0.0000057  -0.9337405   0.3059158
0.5404596    -0.9978444  -0.0009223   0.0000290   0.0012003  -0.0000084   0.0000050  -0.9336710   0.3062319
0.5471036    -0.9979042  -0.0010319   0.0000245   0.0013092  -0.0000094  -0.0000065  -0.9335276   0.3063257
0.5538292    -0.9980240  -0.0010257   0.0000423   0.0013341   0.0000020  -0.0000054  -0.9334165   0.3066357
0.5606376    -0.9978936  -0.0009749  -0.0002932   0.0019403  -0.0000026  -0.0000073  -0.9332411   0.3068205
0.5675297    -0.9979126  -0.0010117   0.0007289   0.0020501  -0.0000022  -0.0000028  -0.9331879   0.3071370
0.5745064    -0.9979240  -0.0011628  -0.0009506   0.0019557   0.0000018   0.0000011  -0.9330557   0.3073340
0.5815690    -0.9979385  -0.0010061   0.0000573   0.0013670   0.0000020   0.0000047  -0.9330523   0.3075216
0.5887183    -0.9978665  -0.0010213   0.0000234   0.0013718  -0.0000109  -0.0000114  -0.9328489   0.3077647
0.5959556    -0.9979199  -0.0011509   0.0000423   0.0013384  -0.0000057  -0.0000093  -0.9327533   0.3080503
0.6032818    -0.9979234  -0.0011258   0.0001277   0.0014654  -0.0000051  -0.0000031  -0.9326622   0.3083318
0.6106981    -0.9980141  -0.0011059   0.0000529   0.0015249   0.0000033  -0.0000101  -0.9325332   0.3086434
0.6182056    -0.9979036  -0.0010093   0.0001006   0.0014401   0.0000045  -0.0000047  -0.9324797   0.3087512
0.6258053    -0.9980322  -0.0012531   0.0001108   0.0014400  -0.0000036   0.0000009  -0.9323100   0.3090988
0.6334985    -0.9978484  -0.0010719   0.0001492   0.0014541   0.0000043  -0.0000057  -0.9322906   0.3093580
0.6412862    -0.9978881  -0.0011918   0.0000258   0.0014879  -0.0000087  -0.0000039  -0.9320162   0.3096498
0.6491697    -0.9978697  -0.0011469  -0.0001261   0.0011123  -0.0000025   0.0000017  -0.9320639   0.3099768
0.6571501    -0.9979083  -0.0011270   0.0000272   0.0014390  -0.0000156  -0.0000076  -0.9318527   0.3101546
0.6652286    -0.9979309  -0.0012515   0.0000592   0.0014821   0.0000013  -0.0000025  -0.9317385   0.3105023
0.6734064    -0.9979490  -0.0012634   0.0000949   0.0015064  -0.0000007  -0.0000128  -0.9316249   0.3107810
0.6816848    -0.9979591  -0.0012510  -0.0003081   0.0014905  -0.0000108  -0.0000052  -0.9314518   0.3109770
0.6900649    -0.9979630  -0.0012029   0.0000106   0.0015713  -0.0000001  -0.0000024  -0.9313558   0.3112493
0.6985480    -0.9979613  -0.0012458   0.0000520   0.0015462  -0.0000011  -0.0000022  -0.9312130   0.3116300
0.7071355    -0.9979768  -0.0011697   0.0000302   0.0015198   0.0000024  -0.0000047  -0.9311384   0.3119213
0.7158284    -0.9979046  -0.0012808   0.0000469   0.0016465   0.0000018  -0.0000044  -0.9310515   0.3121998
0.7246283    -0.9979486  -0.0012725   0.0000603   0.0016347  -0.0000065  -0.0000022  -0.9308397   0.3124587
0.7335363    -0.9979818  -0.0012822   0.0000143   0.0016310   0.0000072  -0.0000030  -0.9308036   0.3127722
0.7425539    -0.9978934  -0.0013206  -0.0000026   0.0016376  -0.0000014  -0.0000051  -0.9306783   0.3131388
0.7516822    -0.9979059  -0.0013065   0.0000220   0.0017168  -0.0000061   0.0000039  -0.9304417   0.3133883
0.7609229    -0.9980347  -0.0013243   0.0000176   0.0016580  -0.0000108  -0.0000073  -0.9302693   0.3136903
0.7702771    -0.9979185  -0.0013811   0.0000089   0.0016678   0.0000060  -0.0000118  -0.9301103   0.3139566
0.7797463    -0.9979139  -0.0012866   0.0000326   0.0017617  -0.0000053  -0.0000039  -0.9299867   0.3143409
0.7893319    -0.9979392  -0.0012764   0.0000174   0.0017132  -0.0000011  -0.0000039  -0.9298566   0.3146606
0.7990353    -0.9978844  -0.0014659  -0.0001318   0.0020023   0.0000108   0.0000006  -0.9297423   0.3149845
0.8088580    -0.9979689  -0.0013226   0.0000227   0.0018075  -0.0000011  -0.0000043  -0.9295781   0.3153214
0.8188015    -0.9979328  -0.0015303   0.0000598   0.0018237  -0.0000041  -0.0000032  -0.9294537   0.3156519
0.8288673    -0.9979476  -0.0015359   0.0000267   0.0018403  -0.0000032  -0.0000065  -0.9292674   0.3159989
0.8390567    -0.9979806  -0.0015123   0.0000629   0.0018409   0.0000029  -0.0000167  -0.9291964   0.3163791
0.8493714    -0.9978290  -0.0014788   0.0001546   0.0018856   0.0000081  -0.0000012  -0.9290133   0.3166715
0.8598130    -0.9978916  -0.0014801  -0.0002091   0.0018564   0.0000073  -0.0000083  -0.9288463   0.3170546
0.8703829    -0.9979090  -0.0015594   0.0000834   0.0016265   0.0000037  -0.0000044  -0.9286617   0.3173866
0.8810827    -0.9979449  -0.0015634   0.0000614   0.0019734  -0.0000029  -0.0000054  -0.9285109   0.3178376
0.8919140    -0.9979540  -0.0015018   0.0002368   0.0017910   0.0000023  -0.0000108  -0.9283561   0.3181357
0.9028786    -0.9980180  -0.0015196  -0.0002326   0.0022123  -0.0000092   0.0000004  -0.9281942   0.3185210
0.9139779    -0.9980183  -0.0015299   0.0001429   0.0019552  -0.0000026  -0.0000067  -0.9280326   0.3189216
0.9252136    -0.9979080  -0.0016532  -0.0000098   0.0018546  -0.0000001  -0.0000139  -0.9278553   0.3192816
0.9365875    -0.9980669  -0.0017203   0.0001025   0.0020111  -0.0000034   0.0000006  -0.9276938   0.3196557
0.9481012    -0.9979476  -0.0016574   0.0001575   0.0018929  -0.0000017  -0.0000055  -0.9275186   0.3200543
0.9597564    -0.9979616  -0.0016686   0.0001084   0.0018721  -0.0000017  -0.0000023  -0.9273121   0.3204456
0.9715549    -0.9978859  -0.0017330   0.0000364   0.0021630  -0.0000036  -0.0000012  -0.9271461   0.3208858
0.9834985    -0.9979491  -0.0017157   0.0000298   0.0021509  -0.0000065  -0.0000013  -0.9270109   0.3212321
0.9955889    -0.9979982  -0.0017178   0.0000836   0.0021647  -0.0000032  -0.0000050  -0.9268638   0.3216050
1.0078279    -0.9980562  -0.0017166   0.0000243   0.0022385   0.0000107  -0.0000079  -0.9265545   0.3220619
1.0202173    -0.9979256  -0.0017896   0.0000396   0.0022589   0.0000011  -0.0000053  -0.9264578   0.3224213
1.0327591    -0.9979358  -0.0018249   0.0000622   0.0022477  -0.0000039  -0.0000004  -0.9262505   0.3229331
1.0454551    -0.9979092  -0.0017724   0.0000397   0.0022952   0.0000008  -0.0000101  -0.9260666   0.3233381
1.0583071    -0.9979790  -0.0017960  -0.0001627   0.0022788  -0.0000013   0.0000049  -0.9258682   0.3237213
1.0713171    -0.9979425  -0.0019089   0.0000443   0.0023860  -0.0000064   0.0000018  -0.9255917   0.3241481
1.0844871    -0.9979020  -0.0017444  -0.0001525   0.0024489  -0.0000048   0.0000027  -0.9254617   0.3245377
1.0978189    -0.9979658  -0.0018930   0.0000412   0.0024506   0.0000007   0.0000068  -0.9252756   0.3250599
1.1113147    -0.9979669  -0.0019204   0.0000408   0.0024265  -0.0000006  -0.0000055  -0.9250334   0.3254274
1.1249763    -0.9979827  -0.0019337   0.0000453   0.0024951  -0.0000013  -0.0000018  -0.9248774   0.3259905
1.1388059    -0.9980283  -0.0019136   0.0000803   0.0024878  -0.0000019  -0.0000060  -0.9247198   0.3264517
1.1528056    -0.9978699  -0.0019559   0.0000410   0.0025446  -0.0000044  -0.0000036  -0.9244583   0.3268988
1.1669773    -0.9979201  -0.0019861   0.0000243   0.0025856  -0.0000009  -0.0000082  -0.9242727   0.3273953
1.1813232    -0.9979165  -0.0020277   0.0000703   0.0025842  -0.0000031  -0.0000048  -0.9240773   0.3278585
1.1958455    -0.9979536  -0.0020888   0.0000641   0.0026354   0.0000009   0.0000004  -0.9238039   0.3283554
1.2105463    -0.9980118  -0.0020368   0.0000890   0.0026519  -0.0000031  -0.0000085  -0.9236208   0.3288517
1.2254278    -0.9978841  -0.0021179   0.0000676   0.0027373  -0.0000064   0.0000002  -0.9233540   0.3293477
1.2404923    -0.9979186  -0.0022833   0.0000179   0.0027237   0.0000005  -0.0000006  -0.9232183   0.3298264
1.2557420    -0.9980586  -0.0021058   0.0000693   0.0027871   0.0000060  -0.0000034  -0.9229541   0.3303611
1.2711791    -0.9979700  -0.0021705  -0.0000482   0.0027124   0.0000058   0.0000032  -0.9226769   0.3308420
1.2868060    -0.9980002  -0.0022519   0.0000504   0.0029008  -0.0000086   0.0000018  -0.9224299   0.3313969
1.3026251    -0.9979972  -0.0023436   0.0000551   0.0028673   0.0000010  -0.0000178  -0.9221532   0.3319239
1.3186385    -0.9979642  -0.0023033   0.0000584   0.0029139  -0.0000032  -0.0000001  -0.9219294   0.3324706
1.3348489    -0.9980601  -0.0023547   0.0000638   0.0030002  -0.0000022  -0.0000067  -0.9217568   0.3330027
1.3512585    -0.9979315  -0.0023397   0.0000925   0.0029481  -0.0000067  -0.0000152  -0.9214508   0.3335168
1.3678698    -0.9979555  -0.0023679   0.0000732   0.0030017  -0.0000091  -0.0000157  -0.9212825   0.3340755
1.3846854    -0.9978875  -0.0023721   0.0000432   0.0030055   0.0000027  -0.0000135  -0.9210106   0.3347380
1.4017077    -0.9980143  -0.0023883   0.0000754   0.0029959   0.0000041   0.0000045  -0.9207423   0.3352204
1.4189392    -0.9980720  -0.0024761   0.0000537   0.0030298   0.0000006   0.0000001  -0.9205003   0.3357456
1.4363825    -0.9979659  -0.0025991   0.0000551   0.0031585  -0.0000072  -0.0000012  -0.9202484   0.3363581
1.4540403    -0.9980382  -0.0025274   0.0001052   0.0031284  -0.0000064  -0.0000011  -0.9199559   0.3369570
1.4719152    -0.9980131  -0.0024745   0.0001335   0.0032197   0.0000078   0.0000075  -0.9197156   0.3376479
1.4900098    -0.9978952  -0.0025051   0.0000981   0.0032696   0.0000059  -0.0000025  -0.9193985   0.3381595
1.5083269    -0.9980692  -0.0025969   0.0000872   0.0033155  -0.0000053   0.0000013  -0.9191216   0.3387463
1.5268691    -0.9980413  -0.0026090   0.0001012   0.0033838   0.0000075  -0.0000016  -0.9188447   0.3393919
1.5456392    -0.9979319  -0.0026996   0.0000597   0.0031725  -0.0000034  -0.0000016  -0.9186352   0.3399954
1.5646402    -0.9979240  -0.0026349   0.0001881   0.0035242   0.0000027  -0.0000022  -0.9183255   0.3407034
1.5838747    -0.9979717  -0.0027740   0.0001451   0.0035907  -0.0000058   0.0000018  -0.9180071   0.3413056
1.6033456    -0.9981199  -0.0027630   0.0001480   0.0035294  -0.0000038   0.0000005  -0.9178175   0.3419714
1.6230559    -0.9980078  -0.0027025   0.0001456   0.0035610   0.0000040  -0.0000088  -0.9174998   0.3426997
1.6430085    -0.9981395  -0.0029194   0.0001199   0.0036066  -0.0000092  -0.0000087  -0.9171685   0.3433497
1.6632064    -0.9980310  -0.0028599   0.0001478   0.0036570  -0.0000108  -0.0000073  -0.9168588   0.3440620
1.6836526    -0.9980507  -0.0028861   0.0002427   0.0034569   0.0000037  -0.0000099  -0.9166106   0.3447857
1.7043502    -0.9979096  -0.0028653   0.0000595   0.0038480   0.0000002  -0.0000113  -0.9161800   0.3455200
1.7253021    -0.9980159  -0.0029475   0.0002089   0.0040135  -0.0000079  -0.0000040  -0.9159925   0.3461715
1.7465117    -0.9980263  -0.0030052   0.0002023   0.0038480   0.0000025  -0.0000055  -0.9157903   0.3469968
1.7679820    -0.9979680  -0.0030596   0.0001289   0.0038407  -0.0000045   0.0000031  -0.9154066   0.3477171
1.7897162    -0.9980463  -0.0030577   0.0001607   0.0039148  -0.0000016  -0.0000074  -0.9151174   0.3484560
1.8117176    -0.9980773  -0.0030917   0.0002201   0.0039106  -0.0000088  -0.0000035  -0.9147761   0.3493066
1.8339895    -0.9979148  -0.0030715   0.0001813   0.0040100  -0.0000118  -0.0000034  -0.9144893   0.3500739
1.8565352    -0.9979509  -0.0031435   0.0001213   0.0040958  -0.0000061  -0.0000007  -0.9141587   0.3508992
1.8793580    -0.9980505  -0.0031110   0.0001936   0.0040279   0.0000050  -0.0000067  -0.9138773   0.3516445
1.9024614    -0.9980042  -0.0032140   0.0002135   0.0041369   0.0000034   0.0000019  -0.9136433   0.3524820
1.9258488    -0.9980928  -0.0032565   0.0002260   0.0041717  -0.0000040  -0.0000066  -0.9132013   0.3533232
1.9495237    -0.9980466  -0.0033136   0.0001183   0.0040285  -0.0000036  -0.0000086  -0.9128573   0.3542622
1.9734897    -0.9980938  -0.0033404   0.0002126   0.0043250  -0.0000027  -0.0000027  -0.9124967   0.3551210
1.9977503    -0.9981219  -0.0033644   0.0002499   0.0043184  -0.0000022  -0.0000100  -0.9121862   0.3560367
2.0223091    -0.9981241  -0.0033760   0.0001998   0.0043716   0.0000036  -0.0000066  -0.9117146   0.3569520
2.0471698    -0.9980121  -0.0034771   0.0002516   0.0044752   0.0000021  -0.0000058  -0.9112576   0.3578717
2.0723362    -0.9980234  -0.0034595   0.0002275   0.0044523  -0.0000052  -0.0000109  -0.9108508   0.3587810
2.0978119    -0.9980304  -0.0035530   0.0001716   0.0045269  -0.0000046  -0.0000081  -0.9103719   0.3597379
2.1236008    -0.9980469  -0.0035545   0.0001584   0.0046088  -0.0000093  -0.0000004  -0.9098752   0.3606545
2.1497067    -0.9980374  -0.0036295   0.0001565   0.0046542  -0.0000046  -0.0000022  -0.9093895   0.3616367
2.1761336    -0.9981766  -0.0037969   0.0001933   0.0047162  -0.0000068  -0.0000094  -0.9089004   0.3624516
2.2028853    -0.9980522  -0.0037427   0.0002889   0.0047304  -0.0000069  -0.0000036  -0.9082573   0.3634525
2.2299659    -0.9980724  -0.0036705   0.0002771   0.0048244  -0.0000041  -0.0000103  -0.9079217   0.3643863
2.2573794    -0.9980538  -0.0038968   0.0002863   0.0048746  -0.0000005   0.0000045  -0.9073349   0.3653268
2.2851299    -0.9980573  -0.0039097   0.0002953   0.0048683  -0.0000203  -0.0000078  -0.9067572   0.3662666
2.3132216    -0.9980568  -0.0039953   0.0003084   0.0049775  -0.0000061  -0.0000051  -0.9062437   0.3671181
2.3416586    -0.9980692  -0.0039466   0.0003232   0.0049921   0.0000013  -0.0000147  -0.9056892   0.3680784
2.3704451    -0.9980159  -0.0041083   0.0002982   0.0050563  -0.0000051  -0.0000091  -0.9051684   0.3691096
2.3995856    -0.9980391  -0.0041224   0.0000953   0.0051465  -0.0000066  -0.0000082  -0.9045189   0.3700807
2.4290843    -0.9981131  -0.0040977   0.0002795   0.0052130  -0.0000003  -0.0000136  -0.9041214   0.3709168
2.4589456    -0.9980817  -0.0041035   0.0003189   0.0052652  -0.0000015  -0.0000055  -0.9035454   0.3719175
2.4891740    -0.9981483  -0.0042351   0.0002852   0.0052785   0.0000065   0.0000046  -0.9030067   0.3729132
2.5197740    -0.9981336  -0.0042079   0.0003484   0.0053715  -0.0000101  -0.0000049  -0.9025121   0.3739415
2.5507502    -0.9981403  -0.0043002   0.0005412   0.0055371  -0.0000041   0.0000006  -0.9019500   0.3748543
2.5821072    -0.9982226  -0.0044019   0.0004049   0.0055044   0.0000005  -0.0000009  -0.9013914   0.3758758
2.6138496    -0.9981317  -0.0044848   0.0003692   0.0055776  -0.0000073  -0.0000027  -0.9007222   0.3768633
2.6459823    -0.9981575  -0.0044725   0.0004387   0.0056232  -0.0000029   0.0000048  -0.9001987   0.3779199
2.6785100    -0.9980338  -0.0045115   0.0004898   0.0056665  -0.0000082  -0.0000121  -0.8996597   0.3790409
2.7114376    -0.9980736  -0.0046265   0.0004105   0.0057233  -0.0000063  -0.0000062  -0.8990225   0.3800620
2.7447699    -0.9980971  -0.0046592   0.0004491   0.0058517   0.0000017  -0.0000063  -0.8984440   0.3810689
2.7785120    -0.9981058  -0.0046918   0.0004392   0.0059088  -0.0000026  -0.0000068  -0.8978285   0.3821643
2.8126689    -0.9980144  -0.0046674   0.0004354   0.0059462  -0.0000122   0.0000035  -0.8973122   0.3833147
2.8472457    -0.9981307  -0.0048080   0.0005037   0.0059621  -0.0000035  -0.0000070  -0.8967607   0.3844286
2.8822476    -0.9982055  -0.0048579   0.0004092   0.0060584   0.0000060   0.0000022  -0.8961782   0.3855124
2.9176798    -0.9980918  -0.0049522   0.0004377   0.0061801  -0.0000007  -0.0000141  -0.8955195   0.3866086
2.9535475    -0.9981378  -0.0049165   0.0004271   0.0062125  -0.0000058  -0.0000054  -0.8949483   0.3878070
2.9898562    -0.9981689  -0.0050348   0.0004639   0.0062234  -0.0000028  -0.0000049  -0.8942470   0.3890268
3.0266112    -0.9981396  -0.0052242   0.0004518   0.0063497  -0.0000014  -0.0000102  -0.8936296   0.3901293
3.0638180    -0.9980285  -0.0051554   0.0004574   0.0064158  -0.0000027  -0.0000106  -0.8929854   0.3913348
3.1014823    -0.9980204  -0.0052222   0.0004332   0.0064931   0.0000122   0.0000001  -0.8923790   0.3926033
3.1396096    -0.9980891  -0.0052281   0.0005152   0.0065262   0.0000007  -0.0000151  -0.8916534   0.3937399
3.1782055    -0.9981791  -0.0053821   0.0004328   0.0066923  -0.0000052  -0.0000060  -0.8910269   0.3950064
3.2172760    -0.9982270  -0.0055142   0.0004836   0.0068124  -0.0000021  -0.0000025  -0.8903442   0.3962763
3.2568267    -0.9981323  -0.0055582   0.0004420   0.0068447   0.0000000   0.0000010  -0.8897056   0.3975141
3.2968637    -0.9980588  -0.0055755   0.0004796   0.0068585   0.0000079  -0.0000071  -0.8889123   0.3988380
3.3373928    -0.9980845  -0.0056188   0.0005154   0.0069639  -0.0000055  -0.0000043  -0.8882090   0.4000991
3.3784202    -0.9980601  -0.0056613   0.0005037   0.0070631   0.0000017  -0.0000115  -0.8874257   0.4014749
3.4199519    -0.9981527  -0.0057252   0.0005186   0.0070767  -0.0000018  -0.0000072  -0.8867184   0.4027799
3.4619942    -0.9981812  -0.0059268   0.0005445   0.0071693   0.0000094  -0.0000015  -0.8859021   0.4040620
3.5045533    -0.9981766  -0.0058483   0.0005962   0.0072885  -0.0000130  -0.0000043  -0.8851955   0.4055343
3.5476356    -0.9982365  -0.0060718   0.0005545   0.0073348  -0.0000032  -0.0000072  -0.8844131   0.4068135
3.5912475    -0.9981795  -0.0060453   0.0006311   0.0073670   0.0000050  -0.0000068  -0.8835820   0.4081858
3.6353956    -0.9980167  -0.0061009   0.0005476   0.0075237  -0.0000033   0.0000033  -0.8828196   0.4096963
3.6800864    -0.9981923  -0.0061753   0.0005945   0.0075875  -0.0000019  -0.0000012  -0.8820544   0.4111741
3.7253266    -0.9982168  -0.0062772   0.0005874   0.0076556  -0.0000012   0.0000029  -0.8812237   0.4125975
3.7711229    -0.9981815  -0.0063233   0.0005757   0.0077649   0.0000036  -0.0000073  -0.8804596   0.4140384
3.8174822    -0.9982352  -0.0064030   0.0005768   0.0078244   0.0000054  -0.0000037  -0.8795996   0.4154965
3.8644115    -0.9982395  -0.0064136   0.0006018   0.0079668  -0.0000027  -0.0000005  -0.8788628   0.4170898
3.9119176    -0.9981021  -0.0064477   0.0006638   0.0080160   0.0000050  -0.0000047  -0.8780034   0.4186069
3.9600077    -0.9982260  -0.0064937   0.0005703   0.0081320  -0.0000003  -0.0000106  -0.8772529   0.4201030
4.0086890    -0.9981762  -0.0066428   0.0004712   0.0082208  -0.0000001  -0.0000011  -0.8762245   0.4216955
4.0579688    -0.9980992  -0.0067953   0.0006318   0.0082831   0.0000105  -0.0000087  -0.8753939   0.4232443
4.1078544    -0.9981040  -0.0068612   0.0006734   0.0084107   0.0000009  -0.0000062  -0.8745147   0.4247613
4.1583532    -0.9981746  -0.0070024   0.0006725   0.0084957  -0.0000076  -0.0000134  -0.8735491   0.4263804
4.2094729    -0.9981557  -0.0070571   0.0005909   0.0085845  -0.0000130  -0.0000085  -0.8727399   0.4279787
4.2612209    -0.9982820  -0.0071656   0.0006579   0.0087894   0.0000049  -0.0000003  -0.8717528   0.4295703
4.3136051    -0.9982248  -0.0072562   0.0006575   0.0087042   0.0000094  -0.0000038  -0.8707551   0.4312195
4.3666333    -0.9981545  -0.0072596   0.0006548   0.0089016  -0.0000042  -0.0000094  -0.8698497   0.4329018
4.4203134    -0.9982431  -0.0074990   0.0006543   0.0089959  -0.0000094  -0.0000055  -0.8687537   0.4345216
4.4746534    -0.9982307  -0.0073767   0.0007003   0.0091651  -0.0000100  -0.0000040  -0.8676684   0.4362446
4.5296613    -0.9981365  -0.0076658   0.0007051   0.0092112  -0.0000140  -0.0000062  -0.8666960   0.4379928
4.5853455    -0.9981908  -0.0077704   0.0006347   0.0092639   0.0000126  -0.0000056  -0.8655878   0.4397037
4.6417143    -0.9981753  -0.0078153   0.0007264   0.0094111   0.0000038  -0.0000010  -0.8644354   0.4412928
4.6987760    -0.9981758  -0.0078289   0.0006630   0.0095510  -0.0000146  -0.0000077  -0.8633619   0.4429503
4.7565392    -0.9982835  -0.0079288   0.0007102   0.0096499  -0.0000048  -0.0000118  -0.8622112   0.4446939
4.8150125    -0.9981226  -0.0081064   0.0007054   0.0096953   0.0000012  -0.0000054  -0.8610678   0.4463435
4.8742045    -0.9981616  -0.0082068   0.0008371   0.0098898   0.0000013  -0.0000100  -0.8598778   0.4479819
4.9341243    -0.9982759  -0.0082604   0.0007568   0.0099815  -0.0000079  -0.0000109  -0.8588102   0.4494953
4.9947807    -0.9981840  -0.0084772   0.0007782   0.0101471  -0.0000006  -0.0000013  -0.8578174   0.4510817
5.0561827    -0.9981630  -0.0084304   0.0008453   0.0101759  -0.0000007  -0.0000055  -0.8568059   0.4527803
5.1183396    -0.9982427  -0.0086502   0.0008331   0.0100764   0.0000014  -0.0000067  -0.8558557   0.4544847
5.1812606    -0.9983042  -0.0086270   0.0007564   0.0103605   0.0000041   0.0000007  -0.8549632   0.4562606
5.2449550    -0.9983421  -0.0088216   0.0007841   0.0105571  -0.0000038  -0.0000165  -0.8540537   0.4582926
5.3094325    -0.9981756  -0.0087934   0.0007447   0.0106755  -0.0000002  -0.0000129  -0.8530595   0.4601084
5.3747026    -0.9982039  -0.0089624   0.0008240   0.0106427  -0.0000032  -0.0000010  -0.8520304   0.4623129
5.4407751    -0.9982283  -0.0090679   0.0007901   0.0109421   0.0000050  -0.0000045  -0.8508710   0.4642557
5.5076599    -0.9982143  -0.0091844   0.0007736   0.0110745  -0.0000117  -0.0000096  -0.8497691   0.4663224
5.5753669    -0.9982865  -0.0093467   0.0008214   0.0111771   0.0000046  -0.0000046  -0.8485973   0.4684798
5.6439062    -0.9982646  -0.0094145   0.0009190   0.0113041   0.0000020  -0.0000020  -0.8474325   0.4705647
5.7132881    -0.9982966  -0.0096476   0.0008350   0.0114356  -0.0000053  -0.0000021  -0.8461542   0.4727491
5.7835229    -0.9983240  -0.0096790   0.0007917   0.0116019   0.0000120  -0.0000015  -0.8448744   0.4749231
5.8546211    -0.9983079  -0.0097808   0.0007523   0.0116313   0.0000019  -0.0000059  -0.8436650   0.4771559
5.9265934    -0.9983040  -0.0099955   0.0009259   0.0117864   0.0000031  -0.0000032  -0.8422969   0.4793258
5.9994504    -0.9982444  -0.0101153   0.0008228   0.0120048  -0.0000047  -0.0000054  -0.8409209   0.4814409
6.0732031    -0.9982837  -0.0101290   0.0007932   0.0120443  -0.0000113  -0.0000100  -0.8395623   0.4836481
6.1478624    -0.9982260  -0.0102075   0.0008350   0.0122647   0.0000063  -0.0000045  -0.8381859   0.4858738
6.2234396    -0.9983640  -0.0104425   0.0008176   0.0123990  -0.0000013  -0.0000036  -0.8366054   0.4881844
6.2999458    -0.9981790  -0.0105194   0.0010949   0.0124514  -0.0000015  -0.0000074  -0.8352632   0.4904485
6.3773925    -0.9982974  -0.0105770   0.0008759   0.0126744  -0.0000065  -0.0000109  -0.8337530   0.4927246
6.4557914    -0.9983340  -0.0107909   0.0010716   0.0128987   0.0000019  -0.0000044  -0.8322471   0.4949631
6.5351539    -0.9982677  -0.0108465   0.0008237   0.0129864  -0.0000016   0.0000001  -0.8307492   0.4973691
6.6154922    -0.9982713  -0.0109156   0.0008103   0.0130238   0.0000017  -0.0000067  -0.8291662   0.4997310
6.6968180    -0.9982621  -0.0111668   0.0007607   0.0131534  -0.0000013  -0.0000054  -0.8275994   0.5021189
6.7791436    -0.9982341  -0.0112865   0.0009030   0.0134842  -0.0000036  -0.0000061  -0.8260330   0.5044637
6.8624812    -0.9983742  -0.0114393   0.0009331   0.0136156  -0.0000017  -0.0000108  -0.8244187   0.5069328
6.9468433    -0.9983590  -0.0115066   0.0008668   0.0137719  -0.0000075   0.0000006  -0.8228260   0.5093485
7.0322425    -0.9982328  -0.0116089   0.0009519   0.0139213  -0.0000001  -0.0000017  -0.8211146   0.5118158
7.1186916    -0.9983328  -0.0118117   0.0008872   0.0141015   0.0000055  -0.0000068  -0.8194095   0.5143454
7.2062034    -0.9983409  -0.0121589   0.0009594   0.0142527  -0.0000054  -0.0000028  -0.8176992   0.5169044
7.2947909    -0.9983492  -0.0120818   0.0009825   0.0144715  -0.0000060  -0.0000003  -0.8159561   0.5194736
7.3844675    -0.9982105  -0.0123356   0.0010453   0.0145903  -0.0000109  -0.0000018  -0.8142863   0.5220747
7.4752466    -0.9983421  -0.0124458   0.0011167   0.0148368   0.0000062  -0.0000064  -0.8124937   0.5246904
7.5671416    -0.9983222  -0.0126016   0.0010524   0.0149621  -0.0000101   0.0000033  -0.8107805   0.5273408
7.6601662    -0.9982801  -0.0127673   0.0010782   0.0151573  -0.0000032  -0.0000058  -0.8089321   0.5300260
7.7543345    -0.9983235  -0.0130069   0.0010027   0.0152851  -0.0000011  -0.0000027  -0.8070409   0.5328550
7.8496604    -0.9982573  -0.0130306   0.0010349   0.0155578  -0.0000081  -0.0000079  -0.8052010   0.5356596
7.9461581    -0.9982031  -0.0132433   0.0010428   0.0157213  -0.0000041  -0.0000001  -0.8031845   0.5385086
8.0438422    -0.9982806  -0.0132997   0.0009985   0.0159508  -0.0000019   0.0000034  -0.8012046   0.5413537
8.1427270    -0.9982409  -0.0135356   0.0010913   0.0160594   0.0000042   0.0000010  -0.7990345   0.5443276
8.2428275    -0.9983114  -0.0137621   0.0010447   0.0162654   0.0000016   0.0000028  -0.7968067   0.5471867
8.3441586    -0.9983285  -0.0138642   0.0010891   0.0165118  -0.0000017   0.0000017  -0.7946318   0.5499687
8.4467353    -0.9983133  -0.0140261   0.0010657   0.0166752   0.0000085  -0.0000037  -0.7923743   0.5529673
8.5505731    -0.9983203  -0.0142745   0.0010803   0.0169049   0.0000036  -0.0000037  -0.7900742   0.5557386
8.6556873    -0.9982912  -0.0143896   0.0010299   0.0170750   0.0000022  -0.0000069  -0.7877981   0.5586649
8.7620937    -0.9982603  -0.0145071   0.0011451   0.0172320  -0.0000146  -0.0000022  -0.7855033   0.5615264
8.8698082    -0.9982727  -0.0147840   0.0011328   0.0175138   0.0000006  -0.0000076  -0.7831491   0.5644380
8.9788469    -0.9983929  -0.0149668   0.0011823   0.0177102   0.0000057  -0.0000060  -0.7808526   0.5673655
9.0892260    -0.9982623  -0.0152019   0.0011756   0.0178745  -0.0000017  -0.0000065  -0.7784899   0.5703176
9.2009621    -0.9983333  -0.0153393   0.0011772   0.0181519  -0.0000012  -0.0000011  -0.7759998   0.5733714
9.3140717    -0.9984506  -0.0154808   0.0012416   0.0183708   0.0000038   0.0000058  -0.7735743   0.5763568
9.4285718    -0.9983180  -0.0156915   0.0012025   0.0185754  -0.0000053  -0.0000121  -0.7711036   0.5794398
9.5444795    -0.9983254  -0.0159534   0.0012461   0.0187130  -0.0000082   0.0000062  -0.7685506   0.5825374
9.6618121    -0.9982972  -0.0160114   0.0012634   0.0190056   0.0000018  -0.0000043  -0.7660223   0.5856292
9.7805870    -0.9982799  -0.0163085   0.0012353   0.0192710   0.0000009   0.0000032  -0.7634060   0.5888029
9.9008221    -0.9983229  -0.0164976   0.0012620   0.0195653   0.0000039  -0.0000012  -0.7607542   0.5920226
10.0225353   -0.9983342  -0.0166669   0.0012920   0.0196789  -0.0000049  -0.0000083  -0.7581033   0.5951324
10.1457447   -0.9982867  -0.0169156   0.0013198   0.0198809  -0.0000039  -0.0000058  -0.7553612   0.5984296
10.2704688   -0.9983122  -0.0170481   0.0013201   0.0202013  -0.0000041  -0.0000085  -0.7526769   0.6017045
10.3967261   -0.9983037  -0.0173480   0.0013264   0.0204328  -0.0000061  -0.0000066  -0.7498397   0.6050384
10.5245356   -0.9983372  -0.0174583   0.0013195   0.0206976  -0.0000079  -0.0000076  -0.7469667   0.6082174
10.6539162   -0.9982607  -0.0177609   0.0013495   0.0208324   0.0000029   0.0000029  -0.7440703   0.6115378
10.7848873   -0.9983071  -0.0179055   0.0013296   0.0211547   0.0000005  -0.0000063  -0.7411368   0.6149778
10.9174685   -0.9983881  -0.0182304   0.0013469   0.0214059  -0.0000070  -0.0000035  -0.7381281   0.6183689
11.0516796   -0.9983491  -0.0183396   0.0014005   0.0215298  -0.0000045   0.0000037  -0.7349763   0.6217995
11.1875405   -0.9982741  -0.0185180   0.0013553   0.0218293   0.0000009  -0.0000076  -0.7319551   0.6253218
11.3250716   -0.9983197  -0.0187239   0.0014334   0.0221137  -0.0000013  -0.0000002  -0.7288001   0.6287838
11.4642934   -0.9982620  -0.0189929   0.0014404   0.0223910  -0.0000070  -0.0000020  -0.7255736   0.6322627
11.6052267   -0.9983112  -0.0192347   0.0014949   0.0226823  -0.0000104  -0.0000051  -0.7223402   0.6358978
11.7478926   -0.9982988  -0.0195022   0.0014948   0.0229687  -0.0000036   0.0000009  -0.7190147   0.6394037
11.8923122   -0.9983397  -0.0197980   0.0014601   0.0232736   0.0000007   0.0000002  -0.7156511   0.6429700
12.0385073   -0.9983120  -0.0199509   0.0015765   0.0235255  -0.0000075  -0.0000003  -0.7121713   0.6466395
12.1864995   -0.9982918  -0.0202338   0.0015537   0.0238181  -0.0000044  -0.0000095  -0.7086981   0.6502674
12.3363111   -0.9982568  -0.0205505   0.0015877   0.0240886  -0.0000098  -0.0000015  -0.7052440   0.6539590
12.4879643   -0.9982800  -0.0206916   0.0015650   0.0244649  -0.0000047  -0.0000026  -0.7015574   0.6576797
12.6414818   -0.9983930  -0.0208716   0.0016237   0.0247094   0.0000050  -0.0000068  -0.6978449   0.6613944
12.7968866   -0.9982202  -0.0212061   0.0016367   0.0250331   0.0000019  -0.0000131  -0.6941116   0.6651428
12.9542018   -0.9984040  -0.0213577   0.0016323   0.0252601   0.0000027   0.0000004  -0.6903715   0.6689079
13.1134509   -0.9984076  -0.0216497   0.0017084   0.0256281  -0.0000100  -0.0000035  -0.6864955   0.6727020
13.2746577   -0.9983523  -0.0220468   0.0017207   0.0258358  -0.0000033  -0.0000037  -0.6825288   0.6765492
13.4378462   -0.9983922  -0.0222348   0.0017119   0.0261955   0.0000116  -0.0000093  -0.6785797   0.6805044
13.6030409   -0.9982800  -0.0225451   0.0017762   0.0264756   0.0000024  -0.0000091  -0.6744924   0.6843455
13.7702663   -0.9982806  -0.0228196   0.0017943   0.0268311  -0.0000078   0.0000053  -0.6703140   0.6882447
13.9395475   -0.9982927  -0.0229731   0.0017828   0.0271569  -0.0000009  -0.0000010  -0.6661352   0.6921232
14.1109097   -0.9982753  -0.0232959   0.0018255   0.0274418  -0.0000038  -0.0000051  -0.6618006   0.6961022
14.2843785   -0.9982852  -0.0236516   0.0018509   0.0278043   0.0000052   0.0000030  -0.6574447   0.7000021
14.4599797   -0.9981608  -0.0239200   0.0018953   0.0281405   0.0000036  -0.0000067  -0.6530176   0.7040575
14.6377397   -0.9982890  -0.0241461   0.0018766   0.0284649  -0.0000093  -0.0000076  -0.6485291   0.7080584
14.8176850   -0.9982496  -0.0245355   0.0018762   0.0287560  -0.0000131   0.0000027  -0.6439510   0.7120446
14.9998423   -0.9983350  -0.0247745   0.0019812   0.0290918  -0.0000022  -0.0000131  -0.6392536   0.7161155
15.1842390   -0.9983456  -0.0251535   0.0020070   0.0294479  -0.0000130   0.0000049  -0.6344815   0.7202062
15.3709024   -0.9983263  -0.0253359   0.0019504   0.0298718  -0.0000048   0.0000017  -0.6297241   0.7242485
15.5598606   -0.9982664  -0.0257044   0.0020246   0.0301460  -0.0000054  -0.0000108  -0.6248621   0.7283607
15.7511417   -0.9982563  -0.0260498   0.0020381   0.0305436   0.0000019  -0.0000063  -0.6198680   0.7325479
15.9447743   -0.9982835  -0.0263284   0.0022638   0.0308531   0.0000020  -0.0000005  -0.6148227   0.7366409
16.1407872   -0.9983056  -0.0265357   0.0021203   0.0312910  -0.0000153  -0.0000110  -0.6095775   0.7408179
16.3392097   -0.9982434  -0.0269303   0.0021388   0.0317033  -0.0000056   0.0000011  -0.6043237   0.7450111
16.5400716   -0.9982781  -0.0272711   0.0022439   0.0317351  -0.0000077   0.0000002  -0.5990279   0.7492048
16.7434026   -0.9982355  -0.0276108   0.0021651   0.0324202  -0.0000112  -0.0000024  -0.5935454   0.7533613
16.9492333   -0.9982581  -0.0278885   0.0023567   0.0327913   0.0000049   0.0000022  -0.5880423   0.7577115
17.1575942   -0.9982918  -0.0281622   0.0022882   0.0331824  -0.0000039   0.0000064  -0.5824226   0.7618352
17.3685166   -0.9982060  -0.0286746   0.0022310   0.0335537  -0.0000002   0.0000013  -0.5767305   0.7661086
17.5820320   -0.9982732  -0.0290203   0.0024591   0.0340537  -0.0000036  -0.0000010  -0.5708657   0.7702965
17.7981721   -0.9982945  -0.0293333   0.0025590   0.0344086  -0.0000008  -0.0000063  -0.5649477   0.7746078
18.0169693   -0.9982165  -0.0296974   0.0025051   0.0346883  -0.0000148   0.0000015  -0.5589829   0.7788677
18.2384562   -0.9982010  -0.0300314   0.0024590   0.0352831  -0.0000088  -0.0000066  -0.5528978   0.7832294
18.4626659   -0.9981902  -0.0304343   0.0025948   0.0357828   0.0000017  -0.0000043  -0.5466180   0.7874117
18.6896319   -0.9981770  -0.0306960   0.0025010   0.0360618  -0.0000066   0.0000047  -0.5403799   0.7916946
18.9193880   -0.9982443  -0.0310475   0.0025814   0.0365238  -0.0000040  -0.0000020  -0.5338648   0.7960754
19.1519686   -0.9982598  -0.0316058   0.0025325   0.0369958   0.0000009  -0.0000067  -0.5272533   0.8003731
19.3874083   -0.9981721  -0.0319209   0.0026868   0.0374125  -0.0000090  -0.0000072  -0.5205907   0.8046701
19.6257423   -0.9982378  -0.0322325   0.0026660   0.0378212  -0.0000034  -0.0000054  -0.5139282   0.8090026
19.8670063   -0.9982132  -0.0326770   0.0027116   0.0383628  -0.0000003  -0.0000053  -0.5070653   0.8132444
20.1112361   -0.9982894  -0.0330487   0.0028331   0.0387628   0.0000014   0.0000039  -0.5000667   0.8175503
20.3584684   -0.9982182  -0.0334689   0.0028703   0.0392430  -0.0000109  -0.0000031  -0.4928451   0.8218131
20.6087399   -0.9981993  -0.0339007   0.0029057   0.0396962   0.0000064  -0.0000074  -0.4856078   0.8260492
20.8620881   -0.9981344  -0.0342662   0.0029550   0.0401334  -0.0000070   0.0000015  -0.4781752   0.8303917
21.1185507   -0.9981857  -0.0347340   0.0030729   0.0406016  -0.0000055   0.0000029  -0.4706816   0.8346281
21.3781661   -0.9981264  -0.0350957   0.0030472   0.0410855  -0.0000035  -0.0000010  -0.4630449   0.8387695
21.6409730   -0.9980898  -0.0355140   0.0030846   0.0416139  -0.0000039  -0.0000078  -0.4552968   0.8429882
21.9070107   -0.9980813  -0.0360262   0.0031453   0.0420651  -0.0000070   0.0000040  -0.4474480   0.8472129
22.1763188   -0.9981222  -0.0365377   0.0032031   0.0425055  -0.0000040   0.0000040  -0.4393970   0.8514093
22.4489376   -0.9980644  -0.0368613   0.0031961   0.0429741  -0.0000043  -0.0000038  -0.4312338   0.8556008
22.7249077   -0.9981193  -0.0373434   0.0032715   0.0436078  -0.0000006  -0.0000028  -0.4229033   0.8597198
23.0042705   -0.9981002  -0.0378084   0.0032871   0.0441486  -0.0000025   0.0000032  -0.4144679   0.8638397
23.2870675   -0.9980617  -0.0382811   0.0033164   0.0445860  -0.0000063   0.0000051  -0.4059703   0.8679089
23.5733409   -0.9981263  -0.0386671   0.0034244   0.0452204  -0.0000101  -0.0000119  -0.3971808   0.8719871
23.8631337   -0.9980517  -0.0391474   0.0034359   0.0456946  -0.0000095   0.0000009  -0.3882574   0.8759217
24.1564889   -0.9980147  -0.0396410   0.0034935   0.0462434  -0.0000145   0.0000020  -0.3793041   0.8799030
24.4534504   -0.9980709  -0.0401579   0.0036073   0.0467825  -0.0000039  -0.0000033  -0.3701540   0.8837846
24.7540625   -0.9979824  -0.0406692   0.0036593   0.0473200  -0.0000011  -0.0000056  -0.3608652   0.8877116
25.0583701   -0.9979968  -0.0410991   0.0037171   0.0479022   0.0000015  -0.0000007  -0.3513553   0.8915770
25.3664186   -0.9980444  -0.0414587   0.0036426   0.0485596  -0.0000058  -0.0000061  -0.3416299   0.8953736
25.6782541   -0.9979726  -0.0419464   0.0037143   0.0490458   0.0000039  -0.0000031  -0.3318719   0.8991532
25.9939230   -0.9978147  -0.0425893   0.0037981   0.0497414  -0.0000041  -0.0000050  -0.3219447   0.9027781
26.3134725   -0.9979434  -0.0431451   0.0038455   0.0502164   0.0000036  -0.0000035  -0.3118192   0.9063520
26.6369503   -0.9979188  -0.0437268   0.0038880   0.0509199  -0.0000030  -0.0000139  -0.3015927   0.9099376
26.9644047   -0.9978846  -0.0442118   0.0037618   0.0514500   0.0000019   0.0000037  -0.2911556   0.9134289
27.2958846   -0.9978997  -0.0447550   0.0040285   0.0520791  -0.0000076   0.0000021  -0.2805167   0.9167797
27.6314394   -0.9978649  -0.0452328   0.0041761   0.0527171  -0.0000017  -0.0000051  -0.2698048   0.9201340
27.9711193   -0.9977081  -0.0458322   0.0040772   0.0533622   0.0000071  -0.0000031  -0.2588429   0.9232956
28.3149750   -0.9978296  -0.0463968   0.0041427   0.0540826   0.0000039  -0.0000051  -0.2477763   0.9264440
28.6630578   -0.9977823  -0.0469697   0.0042760   0.0547221  -0.0000087  -0.0000003  -0.2365017   0.9294491
29.0154196   -0.9978490  -0.0475004   0.0042324   0.0553965  -0.0000064  -0.0000030  -0.2250419   0.9323611
29.3721131   -0.9978089  -0.0481925   0.0045302   0.0561049   0.0000014  -0.0000039  -0.2134533   0.9351741
29.7331915   -0.9977267  -0.0486051   0.0045846   0.0568349  -0.0000054  -0.0000036  -0.2016027   0.9379710
30.0987087   -0.9976703  -0.0493058   0.0047365   0.0574391  -0.0000033   0.0000123  -0.1897006   0.9405994
30.4687194   -0.9976836  -0.0498290   0.0048024   0.0580740  -0.0000021  -0.0000058  -0.1775500   0.9431766
30.8432786   -0.9975937  -0.0504914   0.0048114   0.0587415  -0.0000102   0.0000030  -0.1652043   0.9454509
31.2224424   -0.9976985  -0.0509834   0.0050076   0.0595389   0.0000061   0.0000027  -0.1527992   0.9476807
31.6062674   -0.9976070  -0.0517100   0.0050772   0.0602415  -0.0000091  -0.0000072  -0.1400337   0.9498177
31.9948108   -0.9976734  -0.0522885   0.0052254   0.0609181   0.0000000   0.0000043  -0.1271896   0.9518871
32.3881306   -0.9976211  -0.0529148   0.0053810   0.0615176  -0.0000007  -0.0000042  -0.1141830   0.9537462
32.7862857   -0.9974901  -0.0535646   0.0053858   0.0622591  -0.0000070  -0.0000062  -0.1009629   0.9553778
33.1893353   -0.9975516  -0.0543243   0.0054401   0.0629298  -0.0000018  -0.0000006  -0.0875903   0.9570247
33.5973398   -0.9974954  -0.0548634   0.0053352   0.0636201   0.0000037  -0.0000116  -0.0740442   0.9583378
34.0103599   -0.9975360  -0.0555435   0.0053583   0.0643056  -0.0000011   0.0000036  -0.0602129   0.9594876
34.4284574   -0.9974650  -0.0560557   0.0051874   0.0653330  -0.0000075  -0.0000028  -0.0465159   0.9606917
34.8516946   -0.9973428  -0.0568477   0.0053720   0.0664918  -0.0000053   0.0000028  -0.0322434   0.9616950
35.2801349   -0.9973399  -0.0576214   0.0057683   0.0672635  -0.0000032  -0.0000036  -0.0177784   0.9624635
35.7138420   -0.9973886  -0.0582570   0.0059439   0.0681625  -0.0000069  -0.0000060  -0.0032039   0.9628964
36.1528808   -0.9973488  -0.0590100   0.0061085   0.0687585  -0.0000086  -0.0000063   0.0115347   0.9632563
36.5973168   -0.9972927  -0.0597330   0.0062144   0.0696997   0.0000000  -0.0000055   0.0264333   0.9633738
37.0472164   -0.9972573  -0.0604008   0.0063588   0.0705492  -0.0000010  -0.0000025   0.0415912   0.9631242
37.5026467   -0.9970879  -0.0612775   0.0065918   0.0714404   0.0000005  -0.0000051   0.0569194   0.9628974
37.9636757   -0.9971504  -0.0620001   0.0069121   0.0720983  -0.0000025  -0.0000048   0.0726387   0.9619464
38.4303722   -0.9972200  -0.0626827   0.0071105   0.0729954   0.0000012  -0.0000023   0.0881824   0.9611452
38.9028060   -0.9971324  -0.0633507   0.0070596   0.0735496   0.0000032   0.0000041   0.1040381   0.9599848
39.3810475   -0.9970799  -0.0641979   0.0073579   0.0746172  -0.0000019   0.0000034   0.1201362   0.9586652
39.8651681   -0.9969404  -0.0650244   0.0074147   0.0753008  -0.0000008   0.0000047   0.1362896   0.9569852
40.3552402   -0.9969593  -0.0657092   0.0075981   0.0763910   0.0000052   0.0000025   0.1527017   0.9550329
40.8513368   -0.9969944  -0.0665094   0.0076947   0.0771615  -0.0000009  -0.0000083   0.1693457   0.9526915
41.3535320   -0.9969624  -0.0674277   0.0078235   0.0780732  -0.0000069  -0.0000035   0.1860114   0.9501695
41.8619009   -0.9968230  -0.0682377   0.0080302   0.0789634  -0.0000012   0.0000013   0.2030277   0.9472720
42.3765193   -0.9967702  -0.0690017   0.0081151   0.0796731   0.0000010  -0.0000008   0.2201222   0.9440599
42.8974639   -0.9967111  -0.0698211   0.0082754   0.0806901  -0.0000026   0.0000052   0.2373514   0.9404513
43.4248127   -0.9966106  -0.0706994   0.0084026   0.0815996   0.0000010  -0.0000060   0.2547651   0.9366341
43.9586443   -0.9967632  -0.0715630   0.0085292   0.0825411   0.0000045  -0.0000092   0.2723270   0.9323410
44.4990385   -0.9965722  -0.0723998   0.0086243   0.0834430  -0.0000060   0.0000010   0.2900678   0.9276746
45.0460758   -0.9966208  -0.0732918   0.0087674   0.0843120   0.0000030   0.0000042   0.3079234   0.9226692
45.5998380   -0.9965616  -0.0741798   0.0088908   0.0853479  -0.0000014  -0.0000026   0.3258964   0.9172927
46.1604077   -0.9963844  -0.0749973   0.0089790   0.0862340  -0.0000057  -0.0000096   0.3439905   0.9114112
46.7278686   -0.9964095  -0.0759366   0.0090011   0.0871148  -0.0000078  -0.0000061   0.3622095   0.9051561
47.3023055   -0.9962410  -0.0768726   0.0090035   0.0882082  -0.0000035   0.0000063   0.3805383   0.8984954
47.8838040   -0.9962556  -0.0778772   0.0088925   0.0892540   0.0000035  -0.0000116   0.3990787   0.8913030
48.4724511   -0.9961437  -0.0788557   0.0089593   0.0905160  -0.0000043   0.0000037   0.4175483   0.8837820
49.0683345   -0.9960505  -0.0797333   0.0090507   0.0917870  -0.0000065   0.0000016   0.4362200   0.8757527
49.6715433   -0.9959964  -0.0807783   0.0093348   0.0929316  -0.0000056  -0.0000091   0.4548566   0.8672616
50.2821675   -0.9959996  -0.0816744   0.0097348   0.0940793  -0.0000049  -0.0000026   0.4737366   0.8581977
50.9002982   -0.9958499  -0.0826522   0.0094449   0.0946889  -0.0000001  -0.0000023   0.4925113   0.8486204
51.5260277   -0.9958419  -0.0836617   0.0097232   0.0960657   0.0000016  -0.0000145   0.5114078   0.8386844
52.1594495   -0.9957336  -0.0847487   0.0088101   0.0964141   0.0000007  -0.0000111   0.5302185   0.8281260
52.8006581   -0.9955970  -0.0856807   0.0095036   0.0986745   0.0000019  -0.0000070   0.5491565   0.8169084
53.4497492   -0.9955235  -0.0867592   0.0096930   0.1002586   0.0000038  -0.0000035   0.5682259   0.8053365
54.1068198   -0.9953963  -0.0878648   0.0101293   0.1014679   0.0000014  -0.0000070   0.5870810   0.7931806
54.7719678   -0.9954316  -0.0888189   0.0105335   0.1028326  -0.0000080  -0.0000108   0.6059003   0.7804755
55.4452927   -0.9953204  -0.0899537   0.0106308   0.1037841  -0.0000031   0.0000036   0.6248029   0.7668483
56.1268950   -0.9952352  -0.0910486   0.0102722   0.1048576  -0.0000012  -0.0000006   0.6436129   0.7528409
56.8168763   -0.9952075  -0.0921433   0.0104536   0.1065878  -0.0000113  -0.0000002   0.6623330   0.7382715
57.5153398   -0.9950328  -0.0933180   0.0105477   0.1085329  -0.0000006  -0.0000099   0.6809259   0.7230836
58.2223896   -0.9948123  -0.0944639   0.0112701   0.1100409   0.0000062  -0.0000063   0.6993919   0.7071741
58.9381314   -0.9948416  -0.0955264   0.0119845   0.1112730   0.0000077  -0.0000018   0.7177304   0.6906869
59.6626719   -0.9947625  -0.0967065   0.0123493   0.1123160   0.0000018  -0.0000044   0.7358872   0.6734457
60.3961194   -0.9945458  -0.0978942   0.0124600   0.1134897  -0.0000076  -0.0000076   0.7539451   0.6555725
61.1385834   -0.9945272  -0.0990551   0.0124106   0.1151157   0.0000077  -0.0000151   0.7717916   0.6369847
61.8901746   -0.9943918  -0.1002224   0.0128694   0.1164132  -0.0000007  -0.0000055   0.7892939   0.6177425
62.6510053   -0.9942304  -0.1014591   0.0131480   0.1178379  -0.0000042  -0.0000129   0.8065969   0.5978861
63.4211891   -0.9941643  -0.1027125   0.0131977   0.1189882  -0.0000005   0.0000010   0.8236544   0.5771804
64.2008409   -0.9939726  -0.1040667   0.0128985   0.1202300  -0.0000013  -0.0000071   0.8403290   0.5559154
64.9900772   -0.9938982  -0.1051732   0.0124987   0.1223949   0.0000060  -0.0000039   0.8567017   0.5338548
65.7890158   -0.9936492  -0.1065390   0.0126464   0.1246667   0.0000066  -0.0000067   0.8726612   0.5111127
66.5977759   -0.9935610  -0.1078309   0.0133463   0.1272450  -0.0000110   0.0000004   0.8881822   0.4875516
67.4164783   -0.9934966  -0.1091459   0.0145397   0.1289625   0.0000024  -0.0000098   0.9034119   0.4632958
68.2452452   -0.9933428  -0.1104718   0.0154290   0.1303333  -0.0000016  -0.0000030   0.9180764   0.4384124
69.0842003   -0.9931849  -0.1116748   0.0161236   0.1317270  -0.0000021  -0.0000152   0.9322427   0.4127304
69.9334689   -0.9930300  -0.1130457   0.0168187   0.1332134  -0.0000106  -0.0000085   0.9455765   0.3863505
70.7931778   -0.9928490  -0.1146911   0.0174693   0.1339792   0.0000082  -0.0000021   0.9591080   0.3591561
71.6634552   -0.9926384  -0.1160540   0.0172887   0.1347366  -0.0000035  -0.0000070   0.9716677   0.3310241
72.5444312   -0.9924924  -0.1172591   0.0167053   0.1364031   0.0000123   0.0000005   0.9836817   0.3023485
73.4362373   -0.9923638  -0.1188315   0.0158247   0.1386102  -0.0000012  -0.0000107   0.9948434   0.2729349
74.3390065   -0.9921337  -0.1200514   0.0164359   0.1410432   0.0000080  -0.0000129   1.0046945   0.2431284
75.2528737   -0.9919832  -0.1216231   0.0167621   0.1437015  -0.0000040  -0.0000102   1.0143737   0.2123149
76.1779753   -0.9918604  -0.1231310   0.0177354   0.1463066  -0.0000051  -0.0000124   1.0232854   0.1808396
77.1144493   -0.9915736  -0.1246472   0.0190007   0.1484836  -0.0000026  -0.0000045   1.0313023   0.1486103
78.0624357   -0.9915230  -0.1261670   0.0204569   0.1502901  -0.0000029  -0.0000080   1.0384154   0.1157628
79.0220759   -0.9911816  -0.1276996   0.0216160   0.1513693   0.0000002  -0.0000036   1.0445212   0.0821697
79.9935132   -0.9911087  -0.1291449   0.0220281   0.1520685   0.0000041  -0.0000131   1.0496229   0.0480313
80.9768926   -0.9909226  -0.1306713   0.0215393   0.1532470  -0.0000064  -0.0000116   1.0537186   0.0132410
81.9723609   -0.9907379  -0.1323721   0.0206753   0.1554038   0.0000053  -0.0000071   1.0567157  -0.0222640
82.9800667   -0.9903266  -0.1338790   0.0201571   0.1584633  -0.0000016  -0.0000180   1.0586042  -0.0582525
84.0001605   -0.9901337  -0.1357031   0.0199788   0.1622983   0.0000053  -0.0000160   1.0593000  -0.0947391
85.0327946   -0.9898684  -0.1372961   0.0222893   0.1664934   0.0000022  -0.0000081   1.0586965  -0.1319093
86.0781231   -0.9896403  -0.1390774   0.0246200   0.1691485   0.0000029  -0.0000101   1.0568105  -0.1694968
87.1363020   -0.9895030  -0.1406887   0.0269849   0.1709396   0.0000048  -0.0000041   1.0536046  -0.2074041
88.2074894   -0.9892962  -0.1423530   0.0290008   0.1720952  -0.0000051  -0.0000155   1.0489040  -0.2458368
89.2918452   -0.9891760  -0.1440835   0.0305608   0.1736114  -0.0000005  -0.0000021   1.0430306  -0.2849234
90.3895312   -0.9888399  -0.1458017   0.0317184   0.1742436  -0.0000024  -0.0000180   1.0355088  -0.3237174
91.5007114   -0.9885690  -0.1474745   0.0326740   0.1752742  -0.0000084  -0.0000163   1.0264270  -0.3630294
92.6255515   -0.9883400  -0.1493960   0.0327444   0.1763302  -0.0000034  -0.0000041   1.0155656  -0.4024850
93.7642195   -0.9880386  -0.1510465   0.0325204   0.1779307  -0.0000052  -0.0000188   1.0031624  -0.4420937
94.9168855   -0.9877076  -0.1528809   0.0330342   0.1808048  -0.0000125  -0.0000104   0.9892346  -0.4818269
96.0837215   -0.9873822  -0.1547694   0.0343451   0.1823221  -0.0000039  -0.0000178   0.9734644  -0.5215695
97.2649017   -0.9869605  -0.1565658   0.0348294   0.1837213  -0.0000004  -0.0000104   0.9559370  -0.5609835
98.4606024   -0.9868030  -0.1584739   0.0346484   0.1854380  -0.0000038  -0.0000064   0.9365502  -0.6005025
99.6710021   -0.9865082  -0.1602590   0.0343812   0.1876284  -0.0000145  -0.0000062   0.9153443  -0.6396754
100.8962816  -0.9859920  -0.1622495   0.0342160   0.1904391  -0.0000102  -0.0000124   0.8922365  -0.6784421
102.1366237  -0.9857323  -0.1642553   0.0337742   0.1935305   0.0000052  -0.0000179   0.8671283  -0.7166929
103.3922136  -0.9852128  -0.1662245   0.0339146   0.1984091  -0.0000096  -0.0000112   0.8401955  -0.7544722
104.6632389  -0.9848674  -0.1684200   0.0369450   0.2030557  -0.0000105  -0.0000055   0.8113415  -0.7912682
105.9498891  -0.9845694  -0.1701865   0.0400168   0.2053515  -0.0000069  -0.0000089   0.7803574  -0.8250929
107.2523564  -0.9846982  -0.1725288   0.0445131   0.2066924  -0.0000016  -0.0000085   0.7458400  -0.8653272
108.5708353  -0.9841217  -0.1745230   0.0459657   0.2072121  -0.0000106  -0.0000041   0.7121824  -0.8993932
109.9055225  -0.9824788  -0.1765683   0.0444835   0.2065097   0.0000076  -0.0000064   0.6774515  -0.9319120
111.2566174  -0.9830708  -0.1786448   0.0462396   0.2091928  -0.0000017  -0.0000120   0.6366632  -0.9623526
112.6243216  -0.9827934  -0.1807761   0.0464724   0.2106800   0.0000017  -0.0000150   0.5956314  -0.9930429
114.0088393  -0.9822970  -0.1828768   0.0466883   0.2124871  -0.0000127  -0.0000032   0.5528684  -1.0220177
115.4103773  -0.9818003  -0.1851113   0.0461622   0.2146546  -0.0000076  -0.0000214   0.5080600  -1.0493846
116.8291446  -0.9814724  -0.1873037   0.0462217   0.2167617   0.0000125  -0.0000049   0.4616156  -1.0748125
118.2653533  -0.9809272  -0.1894926   0.0457078   0.2188326  -0.0000004  -0.0000118   0.4131618  -1.0983546
119.7192175  -0.9802527  -0.1918111   0.0441211   0.2224600  -0.0000147  -0.0000006   0.3630310  -1.1198741
121.1909545  -0.9797129  -0.1941139   0.0433409   0.2259761  -0.0000096  -0.0000137   0.3112472  -1.1389094
122.6807839  -0.9792133  -0.1964611   0.0417852   0.2310176  -0.0000186  -0.0000183   0.2578829  -1.1556283
124.1889281  -0.9784828  -0.1988444   0.0413791   0.2368308   0.0000025  -0.0000021   0.2030196  -1.1697805
125.7156123  -0.9781306  -0.2012812   0.0413904   0.2435209  -0.0000108  -0.0000053   0.1468018  -1.1813263
127.2610644  -0.9773947  -0.2037253   0.0443829   0.2508328  -0.0000061  -0.0000096   0.0899457  -1.1898236
128.8255151  -0.9769045  -0.2063370   0.0471600   0.2565725  -0.0000125  -0.0000101   0.0310541  -1.1954536
130.4091980  -0.9762615  -0.2088161   0.0509376   0.2625473  -0.0000132  -0.0000125  -0.0282397  -1.1979713
132.0123495  -0.9756855  -0.2115711   0.0550324   0.2674462  -0.0000062  -0.0000027  -0.0885005  -1.1971293
133.6352088  -0.9752438  -0.2140520   0.0594424   0.2723731  -0.0000239  -0.0000059  -0.1491135  -1.1931309
135.2780184  -0.9745277  -0.2166408   0.0645971   0.2757395  -0.0000031  -0.0000057  -0.2103454  -1.1854267
136.9410235  -0.9741583  -0.2194778   0.0691313   0.2795210  -0.0000093  -0.0000137  -0.2717939  -1.1740384
138.6244722  -0.9735172  -0.2221454   0.0738258   0.2818249  -0.0000096  -0.0000023  -0.3330388  -1.1591738
140.3286160  -0.9728019  -0.2249022   0.0778188   0.2842073  -0.0000127  -0.0000127  -0.3943408  -1.1406394
142.0537093  -0.9718721  -0.2275553   0.0817613   0.2861049  -0.0000183  -0.0000196  -0.4577303  -1.1193078
143.8000095  -0.9716342  -0.2298518   0.0851838   0.2884796  -0.0000058   0.0000000  -0.5114804  -1.0920313
145.5677774  -0.9715352  -0.2329669   0.0888467   0.2905299   0.0000058  -0.0000122  -0.5686752  -1.0596310
147.3572769  -0.9704020  -0.2359463   0.0922020   0.2926002  -0.0000021  -0.0000169  -0.6296031  -1.0274029
149.1687752  -0.9695280  -0.2382382   0.0952987   0.2947641   0.0000015  -0.0000091  -0.6842854  -0.9897038
151.0025426  -0.9686641  -0.2413801   0.0983305   0.2967737  -0.0000053  -0.0000193  -0.7376444  -0.9478988
152.8588530  -0.9679968  -0.2440790   0.1012069   0.2990708  -0.0000013  -0.0000092  -0.7884430  -0.9023780
154.7379834  -0.9672342  -0.2469305   0.1040653   0.3014190  -0.0000086  -0.0000110  -0.8368112  -0.8532143
156.6402144  -0.9664844  -0.2500027   0.1069153   0.3038038  -0.0000084  -0.0000061  -0.8822036  -0.8005717
158.5658301  -0.9656236  -0.2529299   0.1096661   0.3063686  -0.0000037   0.0000147  -0.9241073  -0.7445390
160.5151177  -0.9647346  -0.2559049   0.1125707   0.3082313   0.0000014  -0.0000065  -0.9630209  -0.6849737
162.4883685  -0.9636460  -0.2594953   0.1156109   0.3115047   0.0000013  -0.0000028  -0.9967976  -0.6237559
164.4858769  -0.9630768  -0.2620726   0.1185870   0.3127487   0.0000046  -0.0000033  -1.0278789  -0.5582318
166.5079411  -0.9621656  -0.2653748   0.1215111   0.3160901  -0.0000070  -0.0000102  -1.0539276  -0.4910024
168.5548630  -0.9611366  -0.2683635   0.1244337   0.3184358  -0.0000107   0.0000016  -1.0755896  -0.4214285
170.6269483  -0.9601994  -0.2715612   0.1272334   0.3208881  -0.0000006  -0.0000172  -1.0920161  -0.3500769
172.7245062  -0.9592284  -0.2747773   0.1302049   0.3238314   0.0000046  -0.0000030  -1.1035268  -0.2774294
174.8478498  -0.9581050  -0.2781054   0.1329787   0.3265295   0.0000061  -0.0000036  -1.1094082  -0.2032648
176.9972963  -0.9570106  -0.2816505   0.1364160   0.3297314   0.0000235  -0.0000062  -1.1102204  -0.1277967
179.1731664  -0.9554165  -0.2874877   0.1392173   0.3358244  -0.0000187  -0.0000088  -1.1019377  -0.0580540
181.3757850  -0.9558315  -0.2883752   0.1434293   0.3353781  -0.0000020  -0.0000058  -1.0923748   0.0172629
183.6054809  -0.9535297  -0.2919025   0.1458436   0.3391056  -0.0000115  -0.0000014  -1.0773858   0.0954521
185.8625870  -0.9525659  -0.2955488   0.1496287   0.3418748  -0.0000271  -0.0000083  -1.0548059   0.1676861
188.1474402  -0.9515336  -0.2990744   0.1530865   0.3450419  -0.0000045  -0.0000041  -1.0266452   0.2388777
190.4603817  -0.9502355  -0.3028441   0.1569519   0.3479820  -0.0000241  -0.0000166  -0.9928692   0.3077410
192.8017567  -0.9491780  -0.3065910   0.1604227   0.3508803   0.0000113  -0.0000080  -0.9528826   0.3737659
195.1719148  -0.9479513  -0.3104846   0.1641752   0.3537864  -0.0000411   0.0000164  -0.9079903   0.4365081
197.5712099  -0.9475128  -0.3142107   0.1687420   0.3566662   0.0000064  -0.0000064  -0.8584258   0.4960860
200.0000000  -0.9472495  -0.3171956   0.1719219   0.3587824  -0.0000129  -0.0000066  -0.8026131   0.5505821
