! ListType=Log
# MHZ S RI R 50
0.0010000    -0.9965480  -0.0004372  -0.0005408   0.0005105  -0.0000115  -0.0000299  -0.9088780   0.2599563
0.0010123    -0.9969371  -0.0003728  -0.0004030   0.0002855   0.0000121  -0.0000287  -0.9094622   0.2603417
0.0010247    -0.9962018  -0.0007574  -0.0004494   0.0006796  -0.0000157   0.0000266  -0.9095897   0.2591301
0.0010373    -0.9967388  -0.0005154  -0.0004000   0.0002310  -0.0000085  -0.0000056  -0.9097936   0.2598523
0.0010501    -0.9964405  -0.0002223  -0.0002023   0.0003420  -0.0000136  -0.0000118  -0.9091506   0.2596915
0.0010630    -0.9967991  -0.0000178  -0.0004678   0.0004617   0.0000229   0.0000125  -0.9105505   0.2595735
0.0010761    -0.9967546  -0.0004123  -0.0005910   0.0003908  -0.0000149   0.0000095  -0.9107037   0.2587981
0.0010893    -0.9964774  -0.0001648  -0.0006502   0.0004520   0.0000198  -0.0000037  -0.9110865   0.2599258
0.0011027    -0.9968526  -0.0005467  -0.0007426   0.0006608   0.0000030  -0.0000187  -0.9110775   0.2587990
0.0011162    -0.9968383  -0.0004070  -0.0004470   0.0006450  -0.0000056   0.0000030  -0.9120701   0.2584382
0.0011300    -0.9961564  -0.0005602  -0.0003645   0.0007327  -0.0000259  -0.0000173  -0.9112969   0.2587179
0.0011439    -0.9966664  -0.0002791  -0.0004140   0.0007071   0.0000190  -0.0000020  -0.9120502   0.2590832
0.0011579    -0.9960965  -0.0006599  -0.0004079   0.0005688  -0.0000080   0.0000011  -0.9120575   0.2578675
0.0011721    -0.9968535  -0.0004120  -0.0005046   0.0006252   0.0000114  -0.0000118  -0.9124015   0.2585311
0.0011866    -0.9963327  -0.0000552  -0.0005748   0.0005398  -0.0000454  -0.0000152  -0.9122040   0.2582435
0.0012011    -0.9967698  -0.0004762  -0.0005722   0.0003524  -0.0000151   0.0000003  -0.9128818   0.2582597
0.0012159    -0.9971010  -0.0006158  -0.0005774   0.0005118   0.0000208   0.0000031  -0.9136437   0.2584854
0.0012309    -0.9966045  -0.0006227  -0.0002772   0.0006676   0.0000094   0.0000109  -0.9137401   0.2577885
0.0012460    -0.9964693  -0.0003987  -0.0003684   0.0007705  -0.0000062  -0.0000060  -0.9134154   0.2581256
0.0012613    -0.9968038  -0.0004344  -0.0003114   0.0003443   0.0000269  -0.0000021  -0.9147353   0.2579363
0.0012768    -0.9964372  -0.0004895  -0.0006911   0.0006954  -0.0000207   0.0000053  -0.9141770   0.2576231
0.0012925    -0.9967591  -0.0004880  -0.0003694   0.0004591   0.0000140   0.0000076  -0.9151106   0.2580592
0.0013084    -0.9964856  -0.0004785  -0.0004994   0.0004431  -0.0000049   0.0000097  -0.9149123   0.2575421
0.0013245    -0.9966561  -0.0001299  -0.0004374   0.0003685   0.0000181  -0.0000016  -0.9155488   0.2580240
0.0013408    -0.9963977  -0.0005306  -0.0003841   0.0006484   0.0000024  -0.0000096  -0.9153819   0.2572752
0.0013572    -0.9967939  -0.0004109  -0.0004564   0.0001828   0.0000187   0.0000077  -0.9163567   0.2576933
0.0013739    -0.9967745  -0.0004567  -0.0003526   0.0005292   0.0000133   0.0000164  -0.9162218   0.2575399
0.0013908    -0.9970941  -0.0003057  -0.0004381   0.0006393   0.0000136   0.0000045  -0.9169530   0.2576089
0.0014079    -0.9965254  -0.0003143  -0.0005791   0.0004243  -0.0000214  -0.0000005  -0.9167295   0.2573538
0.0014252    -0.9966774  -0.0003331  -0.0003588   0.0003856   0.0000186   0.0000247  -0.9176592   0.2572531
0.0014427    -0.9965633  -0.0001500  -0.0005695   0.0003611  -0.0000097  -0.0000156  -0.9173659   0.2571991
0.0014605    -0.9965865  -0.0004477  -0.0007211   0.0006626   0.0000009  -0.0000180  -0.9180822   0.2573986
0.0014784    -0.9966917  -0.0003789  -0.0002824   0.0004868  -0.0000049   0.0000082  -0.9178605   0.2569127
0.0014966    -0.9966019  -0.0000690  -0.0002730   0.0003478   0.0000002  -0.0000287  -0.9186111   0.2574162
0.0015150    -0.9965074  -0.0005172  -0.0002076   0.0002822   0.0000270   0.0000241  -0.9189818   0.2573396
0.0015336    -0.9965568  -0.0003921  -0.0003985   0.0004761  -0.0000074  -0.0000028  -0.9190102   0.2570696
0.0015525    -0.9966058  -0.0003774  -0.0005340   0.0001857  -0.0000076  -0.0000167  -0.9190290   0.2573496
0.0015716    -0.9967731  -0.0005108  -0.0004011   0.0005679   0.0000126  -0.0000211  -0.9196280   0.2571869
0.0015909    -0.9968170  -0.0003947  -0.0004252   0.0005939   0.0000100  -0.0000345  -0.9199847   0.2575694
0.0016104    -0.9968596  -0.0004088  -0.0004068   0.0004525  -0.0000243   0.0000094  -0.9203199   0.2569523
0.0016302    -0.9969112  -0.0002108  -0.0002808   0.0002150   0.0000135  -0.0000063  -0.9203642   0.2573044
0.0016503    -0.9967540  -0.0002214  -0.0003186   0.0004217   0.0000088  -0.0000100  -0.9213751   0.2574882
0.0016706    -0.9968991  -0.0005430  -0.0005694   0.0003167   0.0000033  -0.0000045  -0.9211996   0.2574022
0.0016911    -0.9966036  -0.0005963  -0.0003712   0.0005848  -0.0000210  -0.0000159  -0.9218180   0.2570958
0.0017119    -0.9966149  -0.0001029  -0.0003384   0.0003088  -0.0000161  -0.0000298  -0.9218589   0.2574357
0.0017329    -0.9968066  -0.0001853  -0.0004869   0.0003852  -0.0000031   0.0000134  -0.9220861   0.2573962
0.0017542    -0.9966595  -0.0006372  -0.0005586   0.0002800   0.0000071   0.0000175  -0.9225671   0.2571541
0.0017758    -0.9970001  -0.0002893  -0.0005410   0.0002451  -0.0000018  -0.0000029  -0.9227763   0.2574617
0.0017976    -0.9967497  -0.0004145  -0.0003434   0.0004188   0.0000059  -0.0000063  -0.9233452   0.2574793
0.0018197    -0.9963735  -0.0002874  -0.0002494   0.0004579  -0.0000150  -0.0000040  -0.9231438   0.2573279
0.0018421    -0.9967276  -0.0003657  -0.0004975   0.0005447   0.0000151  -0.0000070  -0.9238326   0.2577191
0.0018648    -0.9964956  -0.0005546  -0.0003671   0.0002932  -0.0000028   0.0000040  -0.9239003   0.2574820
0.0018877    -0.9966737  -0.0004212  -0.0003673   0.0003719  -0.0000105  -0.0000158  -0.9239804   0.2577066
0.0019109    -0.9967184  -0.0006834  -0.0003687   0.0004253  -0.0000036   0.0000066  -0.9248491   0.2579357
0.0019344    -0.9967700  -0.0005175  -0.0003536   0.0003576  -0.0000050  -0.0000064  -0.9247153   0.2577397
0.0019582    -0.9968501  -0.0004515  -0.0002174   0.0002755   0.0000018  -0.0000051  -0.9248236   0.2579512
0.0019822    -0.9967254  -0.0004138  -0.0002954   0.0004322   0.0000061   0.0000007  -0.9256894   0.2580907
0.0020066    -0.9968138  -0.0002033  -0.0004729   0.0004139   0.0000030   0.0000010  -0.9257598   0.2582423
0.0020313    -0.9970615  -0.0003878  -0.0003423   0.0003757   0.0000072   0.0000076  -0.9261621   0.2581689
0.0020562    -0.9967668  -0.0004330  -0.0002555   0.0002828  -0.0000161  -0.0000018  -0.9265384   0.2580705
0.0020815    -0.9968571  -0.0004224  -0.0004011   0.0002383   0.0000003  -0.0000015  -0.9265952   0.2584793
0.0021071    -0.9966983  -0.0004792  -0.0004121   0.0002188  -0.0000104  -0.0000033  -0.9270215   0.2585237
0.0021330    -0.9966438  -0.0003008  -0.0004257   0.0003061  -0.0000010  -0.0000229  -0.9272019   0.2587586
0.0021592    -0.9967353  -0.0002701  -0.0004091   0.0004103  -0.0000025  -0.0000190  -0.9277383   0.2588852
0.0021858    -0.9969354  -0.0005308  -0.0003482   0.0002894  -0.0000026  -0.0000044  -0.9279115   0.2586740
0.0022126    -0.9969184  -0.0004999  -0.0003055   0.0000079  -0.0000054  -0.0000144  -0.9280733   0.2590422
0.0022398    -0.9969018  -0.0003117  -0.0004693   0.0002813  -0.0000122   0.0000062  -0.9283379   0.2590142
0.0022674    -0.9966531  -0.0003975  -0.0003628   0.0002559   0.0000047  -0.0000181  -0.9287816   0.2593020
0.0022953    -0.9967899  -0.0003382  -0.0003711   0.0002133   0.0000060  -0.0000025  -0.9290308   0.2594769
0.0023235    -0.9968513  -0.0004238  -0.0002752   0.0003660  -0.0000061  -0.0000002  -0.9294341   0.2594680
0.0023520    -0.9967725  -0.0003919  -0.0003428   0.0003549  -0.0000078  -0.0000054  -0.9292532   0.2594361
0.0023809    -0.9968927  -0.0005046  -0.0003880   0.0002407  -0.0000079   0.0000077  -0.9299422   0.2596373
0.0024102    -0.9968144  -0.0001708  -0.0004770   0.0002432   0.0000131   0.0000064  -0.9298942   0.2598229
0.0024398    -0.9967742  -0.0003756  -0.0005613   0.0002992   0.0000033   0.0000032  -0.9303333   0.2599209
0.0024698    -0.9968143  -0.0004507  -0.0003543   0.0002404   0.0000079  -0.0000170  -0.9305707   0.2602177
0.0025002    -0.9968942  -0.0003091  -0.0004671   0.0002156  -0.0000013  -0.0000042  -0.9307198   0.2603729
0.0025309    -0.9966569  -0.0004119  -0.0003407   0.0002487  -0.0000087  -0.0000112  -0.9309336   0.2606611
0.0025621    -0.9968371  -0.0003887  -0.0003201   0.0004041   0.0000070  -0.0000087  -0.9313972   0.2606534
0.0025935    -0.9968531  -0.0003031  -0.0004111   0.0002105  -0.0000057  -0.0000035  -0.9316742   0.2605261
0.0026254    -0.9967863  -0.0005089  -0.0003944   0.0003093  -0.0000042  -0.0000026  -0.9317934   0.2605545
0.0026577    -0.9967154  -0.0004269  -0.0004279   0.0002707  -0.0000107  -0.0000105  -0.9319015   0.2609742
0.0026904    -0.9968236  -0.0002431  -0.0004505   0.0001970  -0.0000128  -0.0000062  -0.9320964   0.2613407
0.0027235    -0.9969781  -0.0004906  -0.0004559   0.0002258  -0.0000013  -0.0000137  -0.9327563   0.2611832
0.0027569    -0.9968242  -0.0003157  -0.0003984   0.0002832  -0.0000088  -0.0000033  -0.9327095   0.2612955
0.0027908    -0.9968988  -0.0002118  -0.0003807   0.0001666   0.0000059  -0.0000083  -0.9327881   0.2617246
0.0028251    -0.9968155  -0.0003934  -0.0003740   0.0002506   0.0000069   0.0000018  -0.9332618   0.2618815
0.0028599    -0.9968269  -0.0004538  -0.0004321   0.0002693  -0.0000022   0.0000010  -0.9334185   0.2618729
0.0028950    -0.9968413  -0.0002634  -0.0004778   0.0001463   0.0000031   0.0000025  -0.9336124   0.2618484
0.0029306    -0.9969241  -0.0000314  -0.0004346   0.0002369  -0.0000042  -0.0000190  -0.9337557   0.2620064
0.0029666    -0.9969436  -0.0003235  -0.0004359   0.0001569   0.0000131  -0.0000065  -0.9339990   0.2622600
0.0030031    -0.9968298  -0.0002888  -0.0004223   0.0001266  -0.0000049   0.0000133  -0.9341076   0.2625548
0.0030400    -0.9970384  -0.0003733  -0.0003643   0.0001931  -0.0000027  -0.0000165  -0.9343379   0.2628196
0.0030774    -0.9969638  -0.0003575  -0.0004051   0.0002016  -0.0000097  -0.0000045  -0.9345217   0.2629743
0.0031152    -0.9969469  -0.0004099  -0.0003452   0.0002497   0.0000102   0.0000018  -0.9348862   0.2629809
0.0031535    -0.9968790  -0.0002763  -0.0004308   0.0001892  -0.0000035  -0.0000120  -0.9349260   0.2633534
0.0031923    -0.9968568  -0.0003523  -0.0004474   0.0002399   0.0000126  -0.0000124  -0.9353236   0.2634966
0.0032315    -0.9968786  -0.0003872  -0.0004694   0.0001770  -0.0000004  -0.0000064  -0.9355121   0.2636469
0.0032713    -0.9969582  -0.0002604  -0.0003778   0.0002392   0.0000023  -0.0000089  -0.9356770   0.2636865
0.0033115    -0.9968392  -0.0002421  -0.0003879   0.0003042   0.0000084  -0.0000006  -0.9357024   0.2639999
0.0033522    -0.9967841  -0.0002647  -0.0004309   0.0001785  -0.0000109  -0.0000057  -0.9360229   0.2644064
0.0033934    -0.9969787  -0.0004820  -0.0003779   0.0001487   0.0000014   0.0000021  -0.9362628   0.2642656
0.0034351    -0.9969814  -0.0006024  -0.0004623   0.0001220  -0.0000013   0.0000084  -0.9364516   0.2645556
0.0034773    -0.9971291  -0.0003635  -0.0004307   0.0001933   0.0000084  -0.0000086  -0.9364323   0.2647053
0.0035201    -0.9970538  -0.0005767  -0.0004186   0.0002297   0.0000056  -0.0000029  -0.9367876   0.2648143
0.0035634    -0.9970773  -0.0005091  -0.0003991   0.0001810   0.0000070  -0.0000048  -0.9368663   0.2649771
0.0036072    -0.9970407  -0.0004570  -0.0004464   0.0002073  -0.0000008  -0.0000046  -0.9369396   0.2652301
0.0036515    -0.9967812  -0.0005008  -0.0003622   0.0005534  -0.0000051   0.0000044  -0.9372120   0.2655556
0.0036964    -0.9967968  -0.0003989  -0.0003711   0.0002143  -0.0000114   0.0000007  -0.9371598   0.2658447
0.0037418    -0.9969870  -0.0001443  -0.0004082   0.0000972   0.0000014  -0.0000077  -0.9373776   0.2659021
0.0037878    -0.9969805  -0.0002710  -0.0004297   0.0001930   0.0000009  -0.0000191  -0.9374859   0.2660117
0.0038344    -0.9970869  -0.0004108  -0.0004475   0.0001760   0.0000059  -0.0000063  -0.9376847   0.2663411
0.0038815    -0.9969685  -0.0003608  -0.0004522   0.0002782  -0.0000009   0.0000041  -0.9378065   0.2664228
0.0039293    -0.9969014  -0.0002465  -0.0003872   0.0000850   0.0000049  -0.0000071  -0.9379777   0.2663981
0.0039776    -0.9969773  -0.0003399  -0.0005033  -0.0000222  -0.0000018  -0.0000120  -0.9381920   0.2668196
0.0040265    -0.9969356  -0.0004271  -0.0005509  -0.0000344   0.0000000   0.0000014  -0.9383100   0.2667670
0.0040759    -0.9970623  -0.0003779  -0.0004229   0.0001490  -0.0000007   0.0000008  -0.9384242   0.2671272
0.0041261    -0.9968911  -0.0003952  -0.0003345   0.0001680   0.0000015  -0.0000048  -0.9385339   0.2672093
0.0041768    -0.9970412  -0.0004248  -0.0004120   0.0001309  -0.0000009   0.0000009  -0.9387328   0.2675105
0.0042281    -0.9969171  -0.0002396  -0.0003880   0.0001605   0.0000064  -0.0000054  -0.9388509   0.2677209
0.0042801    -0.9968127  -0.0002354  -0.0004435   0.0001864   0.0000041  -0.0000002  -0.9389324   0.2679158
0.0043327    -0.9969862  -0.0002013  -0.0004409   0.0000655  -0.0000035  -0.0000042  -0.9390299   0.2683019
0.0043860    -0.9969096  -0.0001648  -0.0004414   0.0001683  -0.0000025   0.0000091  -0.9392749   0.2683077
0.0044399    -0.9970878  -0.0002516  -0.0003689   0.0000669   0.0000007  -0.0000043  -0.9393379   0.2684832
0.0044945    -0.9970124  -0.0002216  -0.0004610   0.0002106  -0.0000065  -0.0000034  -0.9394909   0.2686169
0.0045497    -0.9970503  -0.0002258  -0.0004409   0.0000950  -0.0000109  -0.0000034  -0.9394766   0.2688047
0.0046057    -0.9971372  -0.0001870  -0.0004629   0.0001241  -0.0000053   0.0000049  -0.9395575   0.2689400
0.0046623    -0.9969914  -0.0003389  -0.0004200   0.0001368   0.0000035  -0.0000071  -0.9395089   0.2692334
0.0047196    -0.9971912  -0.0002866  -0.0003817   0.0001215  -0.0000083  -0.0000009  -0.9398293   0.2694102
0.0047776    -0.9970546  -0.0004483  -0.0003934   0.0001445   0.0000065  -0.0000104  -0.9398891   0.2695281
0.0048363    -0.9970302  -0.0001741  -0.0003602  -0.0000835   0.0000003  -0.0000094  -0.9399332   0.2697804
0.0048958    -0.9970443  -0.0002647  -0.0004227   0.0001924  -0.0000047  -0.0000137  -0.9400721   0.2700554
0.0049560    -0.9970015  -0.0001913  -0.0004586   0.0000980  -0.0000099  -0.0000067  -0.9402632   0.2701632
0.0050169    -0.9971731  -0.0003324  -0.0004808   0.0001495  -0.0000178   0.0000051  -0.9403351   0.2701639
0.0050786    -0.9971159  -0.0004652  -0.0004610   0.0001042   0.0000062   0.0000011  -0.9403187   0.2703988
0.0051410    -0.9973933  -0.0002290  -0.0004224   0.0001231  -0.0000039  -0.0000105  -0.9404152   0.2706001
0.0052042    -0.9972718  -0.0004151  -0.0004340   0.0001422   0.0000035  -0.0000032  -0.9405021   0.2708001
0.0052682    -0.9969089  -0.0004356  -0.0004840   0.0001520   0.0000060  -0.0000054  -0.9406327   0.2710467
0.0053330    -0.9970906  -0.0003040  -0.0004833   0.0000059  -0.0000089  -0.0000088  -0.9406896   0.2711812
0.0053985    -0.9970624  -0.0003836  -0.0004465   0.0001066  -0.0000131  -0.0000073  -0.9407775   0.2713440
0.0054649    -0.9970135  -0.0003545  -0.0004313   0.0001148   0.0000164  -0.0000018  -0.9409076   0.2714998
0.0055321    -0.9970356  -0.0003264  -0.0004758   0.0001104  -0.0000015  -0.0000112  -0.9409565   0.2716945
0.0056001    -0.9970147  -0.0002955  -0.0004661   0.0001447   0.0000146   0.0000031  -0.9411138   0.2719386
0.0056689    -0.9972294  -0.0003047  -0.0004736   0.0000738  -0.0000082  -0.0000200  -0.9411273   0.2720064
0.0057386    -0.9971879  -0.0002908  -0.0004833   0.0001017   0.0000036  -0.0000155  -0.9411893   0.2721200
0.0058091    -0.9971169  -0.0001972  -0.0004502   0.0001438   0.0000022   0.0000047  -0.9411386   0.2723728
0.0058806    -0.9970424  -0.0003386  -0.0004170   0.0001154  -0.0000013  -0.0000061  -0.9411190   0.2724188
0.0059529    -0.9970087  -0.0002678  -0.0004307   0.0001265  -0.0000054  -0.0000104  -0.9412062   0.2727041
0.0060260    -0.9968593  -0.0002376  -0.0005410   0.0000609  -0.0000053  -0.0000183  -0.9412507   0.2727098
0.0061001    -0.9970745  -0.0002629  -0.0004673   0.0000579  -0.0000142  -0.0000055  -0.9413455   0.2729546
0.0061751    -0.9969919  -0.0002871  -0.0004448   0.0001258   0.0000003   0.0000049  -0.9413314   0.2731470
0.0062510    -0.9969695  -0.0003327  -0.0005003   0.0001225  -0.0000030  -0.0000002  -0.9415101   0.2732916
0.0063279    -0.9970267  -0.0000567  -0.0004175   0.0001344  -0.0000043  -0.0000012  -0.9416430   0.2734560
0.0064056    -0.9970562  -0.0002170  -0.0003820   0.0001064   0.0000044  -0.0000061  -0.9416371   0.2736081
0.0064844    -0.9970178  -0.0001281  -0.0004565   0.0001146   0.0000000  -0.0000076  -0.9416977   0.2736701
0.0065641    -0.9970258  -0.0002233  -0.0004694   0.0001329  -0.0000063  -0.0000193  -0.9415242   0.2737903
0.0066448    -0.9970440  -0.0002105  -0.0004601   0.0001001   0.0000005  -0.0000093  -0.9416728   0.2739591
0.0067265    -0.9969708  -0.0002324  -0.0004422   0.0001097  -0.0000082   0.0000041  -0.9417777   0.2741424
0.0068092    -0.9969725  -0.0000864  -0.0004666   0.0001408   0.0000036   0.0000010  -0.9418365   0.2743665
0.0068929    -0.9969058  -0.0000206  -0.0004253   0.0001563   0.0000128  -0.0000086  -0.9418909   0.2744498
0.0069776    -0.9971643  -0.0001358  -0.0004912   0.0001133   0.0000024  -0.0000116  -0.9420478   0.2746782
0.0070634    -0.9970053  -0.0001959  -0.0004856   0.0001102   0.0000023  -0.0000052  -0.9419420   0.2748400
0.0071502    -0.9970256  -0.0002934  -0.0004708   0.0001513   0.0000031  -0.0000154  -0.9419125   0.2748555
0.0072381    -0.9969551  -0.0001448  -0.0004664   0.0001184  -0.0000033  -0.0000122  -0.9418756   0.2750367
0.0073271    -0.9970607  -0.0001812  -0.0005273   0.0000968  -0.0000089  -0.0000030  -0.9420109   0.2752536
0.0074172    -0.9969731  -0.0000899  -0.0009029  -0.0000740   0.0000121  -0.0000083  -0.9421284   0.2753567
0.0075084    -0.9972244  -0.0001403  -0.0002804   0.0005406   0.0000064  -0.0000108  -0.9421577   0.2755385
0.0076007    -0.9970642  -0.0002506  -0.0004784   0.0000637   0.0000004  -0.0000116  -0.9421461   0.2756577
0.0076941    -0.9971597  -0.0000801  -0.0004344   0.0001735  -0.0000021   0.0000084  -0.9421786   0.2759126
0.0077887    -0.9971265  -0.0001136  -0.0004407   0.0000875   0.0000107  -0.0000020  -0.9421820   0.2759312
0.0078844    -0.9970989  -0.0001330  -0.0004667   0.0001341  -0.0000035  -0.0000018  -0.9422685   0.2760016
0.0079814    -0.9971251  -0.0000532  -0.0004874   0.0000425   0.0000006  -0.0000059  -0.9422404   0.2762762
0.0080795    -0.9970564  -0.0001446  -0.0004503   0.0000915   0.0000058  -0.0000034  -0.9423989   0.2763341
0.0081788    -0.9970639  -0.0001845  -0.0004651   0.0000901  -0.0000045   0.0000043  -0.9422137   0.2765218
0.0082793    -0.9971087  -0.0001439  -0.0004722   0.0000430  -0.0000005  -0.0000093  -0.9423942   0.2765888
0.0083811    -0.9969941  -0.0003007  -0.0004535   0.0001092  -0.0000037   0.0000070  -0.9423573   0.2767983
0.0084842    -0.9970606   0.0000326  -0.0004832   0.0001284  -0.0000016   0.0000005  -0.9423313   0.2768930
0.0085885    -0.9971773  -0.0001782  -0.0005711   0.0000672   0.0000015  -0.0000070  -0.9424398   0.2769427
0.0086940    -0.9971105  -0.0001187  -0.0004593   0.0000620   0.0000127  -0.0000141  -0.9423699   0.2771411
0.0088009    -0.9971396  -0.0001287  -0.0004626   0.0001280   0.0000002   0.0000062  -0.9423860   0.2772914
0.0089091    -0.9971393  -0.0000086  -0.0004750   0.0001293   0.0000024  -0.0000112  -0.9423989   0.2774866
0.0090186    -0.9971233  -0.0003168  -0.0005273   0.0000907  -0.0000090  -0.0000046  -0.9424998   0.2774735
0.0091295    -0.9968919  -0.0002785  -0.0004922   0.0001374   0.0000055  -0.0000005  -0.9425199   0.2777457
0.0092417    -0.9971385  -0.0001748  -0.0004514   0.0000964   0.0000093  -0.0000054  -0.9424069   0.2777833
0.0093553    -0.9970100  -0.0000770  -0.0004789   0.0001537   0.0000041  -0.0000095  -0.9424297   0.2779104
0.0094703    -0.9971695  -0.0003242  -0.0004546   0.0000892   0.0000006   0.0000108  -0.9425230   0.2779699
0.0095868    -0.9971095  -0.0000244  -0.0005023   0.0001070  -0.0000033  -0.0000074  -0.9424579   0.2781670
0.0097046    -0.9969830  -0.0001380  -0.0004398   0.0001280  -0.0000017   0.0000127  -0.9425030   0.2781965
0.0098239    -0.9971131  -0.0000409  -0.0004619   0.0000745  -0.0000008   0.0000001  -0.9425577   0.2783250
0.0099447    -0.9969794  -0.0000636  -0.0004881   0.0000891  -0.0000004  -0.0000051  -0.9425478   0.2783615
0.0100669    -0.9971369  -0.0000795  -0.0004946   0.0000936  -0.0000093  -0.0000186  -0.9425242   0.2785836
0.0101907    -0.9971002  -0.0000688  -0.0004807   0.0001620  -0.0000033  -0.0000092  -0.9425358   0.2786114
0.0103160    -0.9971500  -0.0002469  -0.0004805   0.0001189   0.0000116  -0.0000083  -0.9425019   0.2787091
0.0104428    -0.9971799  -0.0001243  -0.0004564   0.0000963  -0.0000035   0.0000003  -0.9425838   0.2789201
0.0105712    -0.9970714  -0.0001053  -0.0004455   0.0001206   0.0000088   0.0000015  -0.9425830   0.2789347
0.0107011    -0.9971367  -0.0001096  -0.0004761   0.0001444   0.0000044  -0.0000051  -0.9426090   0.2791118
0.0108327    -0.9970644   0.0000099  -0.0004621   0.0001330   0.0000012  -0.0000062  -0.9425325   0.2791449
0.0109658    -0.9971413  -0.0000966  -0.0005550   0.0001634  -0.0000070  -0.0000045  -0.9426464   0.2792784
0.0111006    -0.9969362  -0.0000850  -0.0005291   0.0001241  -0.0000041  -0.0000068  -0.9426136   0.2795289
0.0112371    -0.9969956  -0.0001636  -0.0004998   0.0001115  -0.0000054   0.0000003  -0.9426557   0.2794251
0.0113752    -0.9969292  -0.0001497  -0.0004567   0.0001233  -0.0000107   0.0000007  -0.9425597   0.2795968
0.0115151    -0.9971945  -0.0002206  -0.0004340   0.0001499   0.0000003  -0.0000004  -0.9427017   0.2798539
0.0116566    -0.9969635   0.0000354  -0.0004358   0.0001249  -0.0000025  -0.0000093  -0.9425976   0.2797545
0.0117999    -0.9972242  -0.0000718  -0.0004870   0.0000814  -0.0000078  -0.0000039  -0.9426702   0.2800117
0.0119450    -0.9931135   0.0003440  -0.0004359   0.0000712  -0.0000012   0.0000006  -0.9434624   0.2782170
0.0120918    -0.9971328   0.0001311  -0.0005045   0.0001299   0.0000006  -0.0000104  -0.9426943   0.2801527
0.0122405    -0.9969085  -0.0002464  -0.0004076   0.0000387  -0.0000107   0.0000039  -0.9427471   0.2801706
0.0123910    -0.9971966  -0.0000154  -0.0004665   0.0001836  -0.0000042  -0.0000100  -0.9426088   0.2804391
0.0125433    -0.9969384  -0.0000932  -0.0005012   0.0001686  -0.0000016   0.0000043  -0.9427097   0.2803775
0.0126975    -0.9971087  -0.0000603  -0.0005157   0.0001306  -0.0000036  -0.0000023  -0.9425424   0.2804387
0.0128536    -0.9972125  -0.0002969  -0.0004619   0.0000767   0.0000036  -0.0000033  -0.9426407   0.2806492
0.0130116    -0.9968906  -0.0000192  -0.0004493   0.0001637   0.0000031   0.0000037  -0.9426215   0.2806846
0.0131716    -0.9970750  -0.0002217  -0.0004530   0.0002317  -0.0000045   0.0000010  -0.9426642   0.2806807
0.0133335    -0.9971156  -0.0001533  -0.0005605   0.0000799  -0.0000017  -0.0000095  -0.9425145   0.2809397
0.0134974    -0.9971818  -0.0000389  -0.0004728   0.0001176   0.0000014  -0.0000020  -0.9425677   0.2809175
0.0136633    -0.9971613   0.0000763  -0.0005509   0.0001092   0.0000013  -0.0000062  -0.9426221   0.2811150
0.0138313    -0.9971591  -0.0000272  -0.0005050   0.0001176  -0.0000014  -0.0000050  -0.9425397   0.2811490
0.0140013    -0.9972016  -0.0000658  -0.0003357   0.0001869  -0.0000043  -0.0000027  -0.9426175   0.2812854
0.0141734    -0.9972451  -0.0001677  -0.0004162  -0.0000081  -0.0000133  -0.0000052  -0.9426482   0.2814176
0.0143477    -0.9971213  -0.0001658  -0.0002665  -0.0001275   0.0000019  -0.0000050  -0.9426134   0.2813920
0.0145240    -0.9970842  -0.0000257  -0.0005942   0.0000773   0.0000018   0.0000028  -0.9426510   0.2814696
0.0147026    -0.9970911  -0.0001259  -0.0003978   0.0002376   0.0000098  -0.0000082  -0.9425887   0.2815431
0.0148833    -0.9970746  -0.0000544  -0.0004942   0.0001272  -0.0000038  -0.0000085  -0.9425701   0.2817147
0.0150663    -0.9970766  -0.0000632  -0.0004292   0.0000968   0.0000025  -0.0000094  -0.9425500   0.2817628
0.0152515    -0.9970726   0.0000026  -0.0004451   0.0001081  -0.0000064  -0.0000097  -0.9425577   0.2819218
0.0154390    -0.9970635  -0.0000104  -0.0004635   0.0001289  -0.0000151   0.0000062  -0.9425825   0.2819117
0.0156288    -0.9971591  -0.0001853  -0.0005211   0.0001023  -0.0000092  -0.0000074  -0.9426634   0.2819290
0.0158209    -0.9971228   0.0000571  -0.0005542   0.0001283  -0.0000031  -0.0000088  -0.9425187   0.2819562
0.0160154    -0.9970609  -0.0000873  -0.0004264   0.0001395   0.0000012  -0.0000067  -0.9425096   0.2821765
0.0162123    -0.9969370  -0.0001520  -0.0005691   0.0001210  -0.0000041  -0.0000005  -0.9424733   0.2823458
0.0164116    -0.9972736  -0.0000277  -0.0005354   0.0001457   0.0000020  -0.0000133  -0.9425390   0.2823374
0.0166134    -0.9971272  -0.0000370  -0.0004903   0.0000857   0.0000025   0.0000024  -0.9424725   0.2825105
0.0168176    -0.9971630   0.0000544  -0.0004960   0.0001249   0.0000023  -0.0000011  -0.9425681   0.2824212
0.0170243    -0.9971267  -0.0000208  -0.0003591   0.0001524  -0.0000044  -0.0000021  -0.9425075   0.2825839
0.0172336    -0.9971331  -0.0000574  -0.0004184   0.0001306   0.0000039  -0.0000065  -0.9424701   0.2825693
0.0174455    -0.9971559  -0.0001140  -0.0003998   0.0001967  -0.0000069   0.0000054  -0.9424511   0.2826684
0.0176599    -0.9970893   0.0000278  -0.0005204   0.0002254  -0.0000030  -0.0000096  -0.9424459   0.2827776
0.0178770    -0.9971414   0.0001591  -0.0004775   0.0001557  -0.0000056   0.0000042  -0.9424224   0.2829245
0.0180968    -0.9971368  -0.0000280  -0.0003696   0.0001179  -0.0000086  -0.0000035  -0.9424302   0.2828374
0.0183193    -0.9972047  -0.0000758  -0.0005580   0.0003630   0.0000087  -0.0000044  -0.9424509   0.2830002
0.0185445    -0.9970761  -0.0000676  -0.0004276   0.0000973   0.0000103  -0.0000060  -0.9424455   0.2830423
0.0187724    -0.9971109   0.0000009  -0.0003470   0.0000327   0.0000036   0.0000011  -0.9423371   0.2830841
0.0190032    -0.9970044   0.0000241  -0.0002782  -0.0001523  -0.0000030  -0.0000051  -0.9424280   0.2831313
0.0192368    -0.9970612  -0.0001504  -0.0006336   0.0001631   0.0000020   0.0000008  -0.9425254   0.2832695
0.0194733    -0.9971636  -0.0001234  -0.0004090   0.0001332   0.0000098  -0.0000044  -0.9424154   0.2833488
0.0197127    -0.9971308   0.0000104  -0.0004731   0.0003257  -0.0000072  -0.0000149  -0.9423865   0.2834325
0.0199550    -0.9970968  -0.0000579  -0.0005358   0.0000996  -0.0000085  -0.0000115  -0.9424142   0.2834576
0.0202003    -0.9970725   0.0000089  -0.0005283   0.0000807  -0.0000027  -0.0000121  -0.9424186   0.2834956
0.0204487    -0.9970445  -0.0000409  -0.0004869   0.0002044  -0.0000126  -0.0000027  -0.9423482   0.2836018
0.0207001    -0.9971421  -0.0000363  -0.0004481   0.0002002  -0.0000050  -0.0000153  -0.9422820   0.2836091
0.0209545    -0.9970893  -0.0000740  -0.0004695   0.0002741  -0.0000042  -0.0000062  -0.9422991   0.2836966
0.0212121    -0.9970418  -0.0000803  -0.0005107   0.0001364   0.0000013   0.0000014  -0.9422630   0.2838958
0.0214729    -0.9970367   0.0000545  -0.0004682   0.0001779  -0.0000082  -0.0000137  -0.9423046   0.2839225
0.0217369    -0.9971452  -0.0000599  -0.0004509   0.0002203   0.0000177  -0.0000012  -0.9422967   0.2839207
0.0220041    -0.9971996  -0.0001458  -0.0005511   0.0001485  -0.0000034  -0.0000052  -0.9423316   0.2839710
0.0222746    -0.9970631  -0.0000550  -0.0004602   0.0001849   0.0000044  -0.0000094  -0.9421834   0.2840686
0.0225484    -0.9971242  -0.0002185  -0.0004480   0.0001898  -0.0000069   0.0000029  -0.9421589   0.2840821
0.0228256    -0.9970700  -0.0001398  -0.0005443   0.0002299  -0.0000015   0.0000000  -0.9422130   0.2841121
0.0231062    -0.9970927  -0.0000548  -0.0004413   0.0002035  -0.0000071  -0.0000067  -0.9422103   0.2841453
0.0233902    -0.9970335  -0.0001076  -0.0004456   0.0002395  -0.0000062   0.0000041  -0.9421501   0.2842650
0.0236778    -0.9971687   0.0000175  -0.0004491   0.0002176   0.0000026  -0.0000065  -0.9421274   0.2843437
0.0239689    -0.9955733  -0.0005293  -0.0004994   0.0003024  -0.0000034  -0.0000028  -0.9431943   0.2849166
0.0242635    -0.9971235   0.0000278  -0.0004216   0.0001760   0.0000020  -0.0000015  -0.9421554   0.2844378
0.0245618    -0.9970222  -0.0001006  -0.0004470   0.0001654  -0.0000175  -0.0000006  -0.9420997   0.2845678
0.0248637    -0.9970777  -0.0000074  -0.0004456   0.0001878  -0.0000010  -0.0000011  -0.9421057   0.2846436
0.0251694    -0.9971130  -0.0000098  -0.0004301   0.0001591  -0.0000045  -0.0000092  -0.9421237   0.2846718
0.0254788    -0.9971903  -0.0000278  -0.0004689   0.0002096  -0.0000051  -0.0000060  -0.9420106   0.2847303
0.0257920    -0.9970544  -0.0000432  -0.0004346   0.0001849   0.0000011  -0.0000116  -0.9420984   0.2848583
0.0261091    -0.9969053  -0.0000696  -0.0003843   0.0002763   0.0000032  -0.0000093  -0.9419308   0.2848252
0.0264301    -0.9970285  -0.0000364  -0.0004232   0.0001427   0.0000051  -0.0000114  -0.9420806   0.2849199
0.0267550    -0.9971468  -0.0000452  -0.0004172   0.0001984  -0.0000017   0.0000036  -0.9419236   0.2849455
0.0270839    -0.9971325  -0.0000684  -0.0004472   0.0002036  -0.0000150  -0.0000070  -0.9420152   0.2849370
0.0274168    -0.9970177  -0.0000037  -0.0004371   0.0002186  -0.0000071  -0.0000091  -0.9419723   0.2849874
0.0277539    -0.9970650   0.0000908  -0.0004063   0.0001675  -0.0000055  -0.0000124  -0.9418585   0.2850718
0.0280951    -0.9971133  -0.0000471  -0.0004434   0.0001875  -0.0000084  -0.0000131  -0.9418695   0.2851680
0.0284404    -0.9970696  -0.0000484  -0.0005497   0.0002570  -0.0000050  -0.0000027  -0.9418926   0.2852433
0.0287901    -0.9972205  -0.0000939  -0.0004560   0.0001648  -0.0000104  -0.0000071  -0.9419360   0.2851845
0.0291440    -0.9971896  -0.0000057  -0.0004825   0.0001405   0.0000046  -0.0000088  -0.9418947   0.2853351
0.0295023    -0.9971480  -0.0000877  -0.0004591   0.0001748   0.0000158   0.0000033  -0.9418181   0.2853636
0.0298649    -0.9970853  -0.0000617  -0.0004334   0.0001864   0.0000090  -0.0000008  -0.9418149   0.2853996
0.0302321    -0.9971762  -0.0000193  -0.0004428   0.0001719   0.0000043  -0.0000058  -0.9417208   0.2854923
0.0306037    -0.9970242  -0.0001117  -0.0004143   0.0002442  -0.0000045  -0.0000008  -0.9417143   0.2855678
0.0309799    -0.9971229   0.0000162  -0.0004372   0.0001766  -0.0000045   0.0000013  -0.9418265   0.2855831
0.0313608    -0.9971474   0.0000144  -0.0004038   0.0002451   0.0000041  -0.0000197  -0.9417779   0.2856653
0.0317463    -0.9970761   0.0000107  -0.0003983   0.0001974  -0.0000047   0.0000050  -0.9416988   0.2857371
0.0321366    -0.9971907   0.0000416  -0.0004243   0.0002044   0.0000041  -0.0000031  -0.9417880   0.2857474
0.0325316    -0.9970343  -0.0000386  -0.0003966   0.0002184   0.0000030  -0.0000159  -0.9416747   0.2858300
0.0329316    -0.9971301   0.0000534  -0.0004696   0.0002312   0.0000071  -0.0000175  -0.9416642   0.2859160
0.0333364    -0.9970813  -0.0000463  -0.0004053   0.0001146   0.0000033  -0.0000037  -0.9416956   0.2859965
0.0337462    -0.9971115  -0.0000035  -0.0003918   0.0001614   0.0000003   0.0000066  -0.9415459   0.2858363
0.0341610    -0.9970696   0.0000009  -0.0003970   0.0002072   0.0000031  -0.0000018  -0.9415890   0.2860550
0.0345810    -0.9970963   0.0000078  -0.0003723   0.0001418   0.0000025  -0.0000054  -0.9415994   0.2860402
0.0350061    -0.9970264  -0.0000780  -0.0004005   0.0001826   0.0000041   0.0000028  -0.9416480   0.2861025
0.0354365    -0.9971568  -0.0000140  -0.0004463   0.0002060   0.0000008  -0.0000113  -0.9415532   0.2862356
0.0358721    -0.9971561  -0.0000723  -0.0003567   0.0001329   0.0000027   0.0000040  -0.9415274   0.2861881
0.0363131    -0.9969563   0.0000954  -0.0004095   0.0000863  -0.0000035  -0.0000022  -0.9415787   0.2862180
0.0367595    -0.9970459  -0.0000675  -0.0008679   0.0002585  -0.0000029  -0.0000134  -0.9414277   0.2863980
0.0372114    -0.9970931  -0.0001061  -0.0007987   0.0005253   0.0000021  -0.0000147  -0.9414660   0.2864445
0.0376688    -0.9971266   0.0000640  -0.0002479   0.0000839  -0.0000015  -0.0000004  -0.9414265   0.2864517
0.0381319    -0.9971780  -0.0000782  -0.0001644   0.0001015  -0.0000009  -0.0000148  -0.9414994   0.2864761
0.0386006    -0.9970700   0.0000417  -0.0004411   0.0002105  -0.0000001  -0.0000062  -0.9414738   0.2866139
0.0390752    -0.9971583   0.0000268  -0.0003123   0.0001834   0.0000058  -0.0000044  -0.9413666   0.2865701
0.0395555    -0.9970541  -0.0000062  -0.0001170   0.0002402  -0.0000018  -0.0000008  -0.9413887   0.2866159
0.0400418    -0.9971878  -0.0000050  -0.0002702   0.0001394  -0.0000059  -0.0000090  -0.9414225   0.2867169
0.0405340    -0.9971410   0.0000612  -0.0004636   0.0000350   0.0000032  -0.0000083  -0.9413678   0.2866962
0.0410323    -0.9971166  -0.0000755  -0.0001634   0.0003109   0.0000113  -0.0000063  -0.9412536   0.2867964
0.0415368    -0.9969889  -0.0000813  -0.0004756   0.0003282  -0.0000101   0.0000046  -0.9413906   0.2868516
0.0420474    -0.9971664  -0.0001072  -0.0004437   0.0004602  -0.0000032  -0.0000059  -0.9413047   0.2867908
0.0425643    -0.9971132   0.0000123  -0.0005399   0.0002209   0.0000041  -0.0000041  -0.9412317   0.2868349
0.0430875    -0.9969977  -0.0000821  -0.0004607   0.0000693   0.0000041  -0.0000004  -0.9413051   0.2869693
0.0436172    -0.9971787  -0.0000842   0.0000566   0.0000002  -0.0000077  -0.0000074  -0.9412355   0.2870156
0.0441534    -0.9971114  -0.0000103  -0.0001576   0.0003424   0.0000004  -0.0000073  -0.9411886   0.2871031
0.0446962    -0.9970906   0.0000187  -0.0003602  -0.0000236  -0.0000045  -0.0000057  -0.9411981   0.2871376
0.0452457    -0.9970709   0.0000509  -0.0000580   0.0001902   0.0000028  -0.0000074  -0.9411458   0.2871384
0.0458019    -0.9971376   0.0000203  -0.0003574   0.0001576   0.0000017  -0.0000085  -0.9411226   0.2871739
0.0463649    -0.9970530   0.0000403  -0.0006249   0.0002963   0.0000098   0.0000013  -0.9410879   0.2872438
0.0469349    -0.9971523  -0.0000230  -0.0005640   0.0002419  -0.0000076  -0.0000056  -0.9410962   0.2873527
0.0475119    -0.9972215  -0.0000199  -0.0005469   0.0003380   0.0000017  -0.0000071  -0.9410704   0.2873649
0.0480960    -0.9971539   0.0000380  -0.0005670   0.0002987  -0.0000044  -0.0000019  -0.9409973   0.2874680
0.0486872    -0.9971275  -0.0000741  -0.0006637   0.0001387  -0.0000129  -0.0000110  -0.9409651   0.2874875
0.0492857    -0.9971230  -0.0000455  -0.0004511   0.0002480  -0.0000002  -0.0000042  -0.9409461   0.2875644
0.0498916    -0.9970213  -0.0000348  -0.0002642   0.0005115  -0.0000045  -0.0000018  -0.9408737   0.2876173
0.0505050    -0.9970743  -0.0000293  -0.0004238   0.0003217  -0.0000103  -0.0000166  -0.9409469   0.2876108
0.0511258    -0.9971867   0.0001375  -0.0004180   0.0006372  -0.0000017  -0.0000074  -0.9409396   0.2877756
0.0517543    -0.9971487  -0.0000684  -0.0004435   0.0001016  -0.0000078  -0.0000062  -0.9409543   0.2877150
0.0523906    -0.9970291  -0.0000161  -0.0005168   0.0000565   0.0000057  -0.0000072  -0.9408638   0.2877875
0.0530346    -0.9971857   0.0000001  -0.0003980   0.0002614   0.0000032  -0.0000115  -0.9408033   0.2878187
0.0536866    -0.9969653  -0.0000168  -0.0003491   0.0002859  -0.0000095  -0.0000167  -0.9408350   0.2878571
0.0543466    -0.9971121   0.0000246  -0.0004602   0.0001858  -0.0000052  -0.0000006  -0.9407425   0.2878680
0.0550146    -0.9971479   0.0001080  -0.0004576   0.0001655  -0.0000055  -0.0000045  -0.9407686   0.2879192
0.0556910    -0.9970171  -0.0000734  -0.0004296   0.0002614  -0.0000121  -0.0000102  -0.9406990   0.2879734
0.0563756    -0.9970781  -0.0000062  -0.0004151   0.0002155   0.0000018  -0.0000108  -0.9407175   0.2881117
0.0570686    -0.9970651   0.0000694  -0.0003551   0.0003472   0.0000006  -0.0000166  -0.9406780   0.2881488
0.0577702    -0.9971191  -0.0000656  -0.0004564   0.0002656  -0.0000013  -0.0000054  -0.9406106   0.2882546
0.0584804    -0.9970460  -0.0000618  -0.0001767  -0.0000599   0.0000011  -0.0000075  -0.9405687   0.2881916
0.0591993    -0.9970490  -0.0000055   0.0000426   0.0003164   0.0000087   0.0000003  -0.9405477   0.2882490
0.0599270    -0.9970002  -0.0000371  -0.0001538  -0.0000232   0.0000084  -0.0000020  -0.9406534   0.2883762
0.0606637    -0.9970113   0.0000778  -0.0004215   0.0002949  -0.0000008  -0.0000084  -0.9404613   0.2883609
0.0614095    -0.9970871   0.0001658  -0.0004063   0.0000880  -0.0000130   0.0000009  -0.9405219   0.2883972
0.0621644    -0.9970292  -0.0000021  -0.0003621   0.0002433  -0.0000010  -0.0000074  -0.9405535   0.2885076
0.0629286    -0.9971387  -0.0000166  -0.0005942   0.0002020  -0.0000052  -0.0000012  -0.9404398   0.2884878
0.0637022    -0.9970900  -0.0000069  -0.0004064   0.0001850   0.0000020  -0.0000046  -0.9403573   0.2886245
0.0644853    -0.9970802  -0.0000578  -0.0004593   0.0001279  -0.0000014  -0.0000039  -0.9404157   0.2886764
0.0652780    -0.9970567   0.0000902  -0.0003822   0.0004953   0.0000039  -0.0000084  -0.9403190   0.2886986
0.0660805    -0.9969914  -0.0001168  -0.0004787   0.0004197  -0.0000050  -0.0000067  -0.9402917   0.2888275
0.0668928    -0.9970428   0.0000286  -0.0002637   0.0005068  -0.0000128  -0.0000122  -0.9402203   0.2888212
0.0677152    -0.9970929  -0.0000454  -0.0002418   0.0000774   0.0000000  -0.0000112  -0.9402024   0.2888230
0.0685476    -0.9971406  -0.0001079  -0.0002741   0.0001962  -0.0000072  -0.0000117  -0.9401862   0.2888922
0.0693903    -0.9970411  -0.0000703  -0.0005514   0.0002707  -0.0000004  -0.0000041  -0.9401122   0.2890172
0.0702433    -0.9970791  -0.0000631  -0.0001597   0.0000418  -0.0000029   0.0000041  -0.9401311   0.2890242
0.0711068    -0.9970264   0.0000488  -0.0003295   0.0002294   0.0000037  -0.0000059  -0.9400895   0.2890692
0.0719810    -0.9969983  -0.0000022  -0.0003192   0.0007129  -0.0000091   0.0000050  -0.9400307   0.2890734
0.0728659    -0.9971968  -0.0000190  -0.0004501   0.0002975   0.0000052  -0.0000014  -0.9399982   0.2891921
0.0737616    -0.9970534  -0.0000122  -0.0003324   0.0003835  -0.0000012   0.0000004  -0.9399166   0.2892475
0.0746684    -0.9970493  -0.0000210  -0.0004227   0.0002813   0.0000073  -0.0000086  -0.9399425   0.2892933
0.0755863    -0.9971353  -0.0000689  -0.0003916   0.0002383  -0.0000051  -0.0000018  -0.9398644   0.2893296
0.0765155    -0.9970939  -0.0000262  -0.0004611   0.0003010  -0.0000040  -0.0000102  -0.9398543   0.2893451
0.0774561    -0.9971078   0.0000856  -0.0004172   0.0002437   0.0000021  -0.0000132  -0.9397228   0.2894283
0.0784083    -0.9970487  -0.0000214  -0.0004088   0.0003129   0.0000033   0.0000006  -0.9396576   0.2894038
0.0793722    -0.9969813   0.0000448  -0.0004769   0.0002386  -0.0000042  -0.0000104  -0.9396161   0.2895158
0.0803479    -0.9971168   0.0000287  -0.0004247   0.0003136   0.0000014  -0.0000099  -0.9396115   0.2895176
0.0813357    -0.9970559   0.0001024  -0.0004177   0.0002815  -0.0000006  -0.0000007  -0.9394970   0.2895606
0.0823356    -0.9969758  -0.0000738  -0.0004268   0.0003542  -0.0000053  -0.0000076  -0.9394075   0.2896695
0.0833477    -0.9970071   0.0000744  -0.0004206   0.0003049   0.0000061  -0.0000029  -0.9393761   0.2896456
0.0843723    -0.9969985  -0.0001017  -0.0004007   0.0003253   0.0000086  -0.0000037  -0.9393115   0.2897923
0.0854095    -0.9970775   0.0000803  -0.0004386   0.0003211  -0.0000026  -0.0000074  -0.9392051   0.2896720
0.0864595    -0.9970172  -0.0000768  -0.0005243   0.0003848  -0.0000029   0.0000073  -0.9391912   0.2898053
0.0875224    -0.9970502   0.0000271  -0.0004033   0.0003206   0.0000034  -0.0000104  -0.9391330   0.2897833
0.0885983    -0.9969680  -0.0000576  -0.0003912   0.0002433  -0.0000022  -0.0000038  -0.9390844   0.2898074
0.0896875    -0.9969642  -0.0000298  -0.0003979   0.0003336   0.0000089  -0.0000091  -0.9389901   0.2898603
0.0907900    -0.9969916  -0.0001031  -0.0004181   0.0003478  -0.0000058  -0.0000009  -0.9389029   0.2897670
0.0919061    -0.9969942  -0.0000724  -0.0003836   0.0003457   0.0000026   0.0000009  -0.9387465   0.2898359
0.0930359    -0.9970607  -0.0001759  -0.0003867   0.0003196   0.0000012   0.0000016  -0.9387368   0.2897206
0.0941797    -0.9969794  -0.0000970  -0.0004149   0.0003400   0.0000025   0.0000095  -0.9386642   0.2897788
0.0953374    -0.9970852  -0.0001536  -0.0003844   0.0003407  -0.0000047   0.0000036  -0.9386589   0.2896874
0.0965094    -0.9969778  -0.0000964  -0.0004237   0.0003638   0.0000008  -0.0000022  -0.9385277   0.2897067
0.0976959    -0.9970945  -0.0001295  -0.0003977   0.0003440   0.0000064  -0.0000051  -0.9385353   0.2896980
0.0988969    -0.9969972  -0.0002434  -0.0004177   0.0003650  -0.0000068  -0.0000015  -0.9384663   0.2896201
0.1001126    -0.9970199  -0.0001514  -0.0004361   0.0003856  -0.0000042  -0.0000113  -0.9384273   0.2896009
0.1013433    -0.9970218  -0.0001157  -0.0003841   0.0003866  -0.0000066  -0.0000005  -0.9384162   0.2895283
0.1025892    -0.9970950  -0.0001296  -0.0004098   0.0003919  -0.0000089  -0.0000156  -0.9383242   0.2894642
0.1038503    -0.9970308  -0.0001763  -0.0003839   0.0003303  -0.0000061   0.0000026  -0.9383898   0.2893628
0.1051270    -0.9970135  -0.0001811  -0.0004314   0.0003786  -0.0000042   0.0000032  -0.9384645   0.2893710
0.1064193    -0.9971405  -0.0000571  -0.0004336   0.0004289  -0.0000009  -0.0000043  -0.9385210   0.2892712
0.1077276    -0.9970820  -0.0001292  -0.0004075   0.0004126  -0.0000010   0.0000042  -0.9385561   0.2893075
0.1090519    -0.9971145  -0.0002444  -0.0004239   0.0004066   0.0000081   0.0000023  -0.9386699   0.2891948
0.1103925    -0.9971235  -0.0001819  -0.0003823   0.0004357  -0.0000053  -0.0000082  -0.9386504   0.2892372
0.1117496    -0.9971044  -0.0001375  -0.0004000   0.0004410   0.0000070  -0.0000009  -0.9387449   0.2892651
0.1131233    -0.9972145  -0.0001191  -0.0004039   0.0004220  -0.0000109  -0.0000063  -0.9388706   0.2892237
0.1145140    -0.9972030  -0.0001558  -0.0003998   0.0003924  -0.0000020  -0.0000139  -0.9389367   0.2893050
0.1159217    -0.9971764  -0.0001182  -0.0002713   0.0003586  -0.0000058  -0.0000006  -0.9389502   0.2893045
0.1173468    -0.9972077  -0.0000872  -0.0005297   0.0002767   0.0000043  -0.0000100  -0.9390159   0.2893834
0.1187893    -0.9971920  -0.0002212  -0.0003219   0.0005605  -0.0000015  -0.0000112  -0.9391408   0.2894386
0.1202497    -0.9972265  -0.0001347  -0.0004116   0.0004844  -0.0000076  -0.0000202  -0.9391425   0.2894774
0.1217279    -0.9971751  -0.0001165  -0.0009547   0.0002460   0.0000047   0.0000067  -0.9391774   0.2895602
0.1232243    -0.9971461  -0.0001196  -0.0004262   0.0004556  -0.0000059  -0.0000097  -0.9393238   0.2897100
0.1247392    -0.9971879  -0.0000738  -0.0003839   0.0006953  -0.0000005  -0.0000021  -0.9393441   0.2897610
0.1262726    -0.9971353  -0.0000422  -0.0004074   0.0004687  -0.0000082  -0.0000107  -0.9393835   0.2898578
0.1278249    -0.9970381  -0.0001136  -0.0004310   0.0004528  -0.0000011  -0.0000062  -0.9393711   0.2899272
0.1293963    -0.9972169  -0.0000990  -0.0004029   0.0004539  -0.0000038  -0.0000042  -0.9394349   0.2900448
0.1309870    -0.9971498  -0.0001233  -0.0003993   0.0004785   0.0000004  -0.0000140  -0.9394403   0.2901690
0.1325973    -0.9971097  -0.0000399  -0.0004291   0.0004008  -0.0000006   0.0000020  -0.9394429   0.2901727
0.1342273    -0.9971562  -0.0000548  -0.0004284   0.0004420  -0.0000030  -0.0000066  -0.9395119   0.2902830
0.1358774    -0.9970583  -0.0000922  -0.0004177   0.0004813  -0.0000045   0.0000028  -0.9394840   0.2904587
0.1375478    -0.9971898  -0.0000568  -0.0004007   0.0004926   0.0000041  -0.0000011  -0.9395102   0.2904983
0.1392387    -0.9970876  -0.0001451  -0.0004835   0.0004544  -0.0000016  -0.0000030  -0.9394896   0.2906542
0.1409504    -0.9971696  -0.0000698  -0.0003988   0.0005559  -0.0000098  -0.0000030  -0.9395416   0.2907525
0.1426831    -0.9971910  -0.0000332  -0.0004221   0.0005265  -0.0000051  -0.0000032  -0.9395182   0.2907696
0.1444371    -0.9971760  -0.0001137  -0.0004195   0.0005438   0.0000040  -0.0000025  -0.9394529   0.2909111
0.1462127    -0.9971338   0.0000255  -0.0004163   0.0005402   0.0000011  -0.0000080  -0.9395321   0.2910522
0.1480102    -0.9971552  -0.0001334  -0.0004020   0.0005162  -0.0000016  -0.0000117  -0.9394888   0.2911476
0.1498297    -0.9972236  -0.0001087  -0.0003545   0.0004592  -0.0000046   0.0000006  -0.9394295   0.2911965
0.1516716    -0.9971507  -0.0000602  -0.0003953   0.0005592  -0.0000031   0.0000037  -0.9394114   0.2913293
0.1535361    -0.9971648  -0.0001125  -0.0003918   0.0005748  -0.0000056  -0.0000089  -0.9394468   0.2914228
0.1554236    -0.9971149  -0.0001072  -0.0004124   0.0006619   0.0000006   0.0000022  -0.9394299   0.2915906
0.1573342    -0.9970161  -0.0000886  -0.0001810   0.0004788  -0.0000109  -0.0000090  -0.9393141   0.2916879
0.1592684    -0.9970574  -0.0000281  -0.0003365   0.0007242   0.0000048   0.0000032  -0.9394186   0.2917255
0.1612263    -0.9971459  -0.0001292  -0.0002375   0.0006204   0.0000049  -0.0000010  -0.9393069   0.2918717
0.1632083    -0.9971552   0.0000213  -0.0000419   0.0007615   0.0000052  -0.0000046  -0.9393931   0.2919294
0.1652147    -0.9970766  -0.0001085  -0.0008693   0.0007202  -0.0000054   0.0000015  -0.9392935   0.2920767
0.1672457    -0.9970121  -0.0000436  -0.0005618   0.0003100   0.0000058  -0.0000092  -0.9392819   0.2921465
0.1693017    -0.9971580  -0.0000893  -0.0003392   0.0002536  -0.0000093  -0.0000026  -0.9392562   0.2921591
0.1713829    -0.9972358  -0.0000662  -0.0005104   0.0006460  -0.0000062  -0.0000029  -0.9392212   0.2923577
0.1734898    -0.9971170  -0.0000085  -0.0003901   0.0006000  -0.0000008   0.0000005  -0.9391912   0.2923584
0.1756225    -0.9971404  -0.0001362  -0.0003983   0.0006388   0.0000067  -0.0000024  -0.9391699   0.2925539
0.1777815    -0.9970900  -0.0001439  -0.0003753   0.0006207  -0.0000031  -0.0000086  -0.9390592   0.2925714
0.1799670    -0.9970363  -0.0000691  -0.0004162   0.0006445  -0.0000053  -0.0000102  -0.9390654   0.2927581
0.1821794    -0.9970735  -0.0002113  -0.0003801   0.0006461   0.0000027  -0.0000042  -0.9390483   0.2928551
0.1844190    -0.9971141  -0.0000960  -0.0004931   0.0006563  -0.0000014  -0.0000113  -0.9391059   0.2929285
0.1866861    -0.9970581  -0.0000917  -0.0003878   0.0006375  -0.0000025  -0.0000085  -0.9389236   0.2930493
0.1889811    -0.9971385  -0.0000462  -0.0003716   0.0006892  -0.0000052  -0.0000045  -0.9389341   0.2931909
0.1913043    -0.9971503  -0.0000664  -0.0003510   0.0006770  -0.0000022  -0.0000077  -0.9389398   0.2931881
0.1936560    -0.9971518  -0.0000227  -0.0001045   0.0008508  -0.0000029   0.0000011  -0.9388743   0.2934055
0.1960367    -0.9972034  -0.0000844  -0.0003855   0.0007136  -0.0000034  -0.0000113  -0.9388666   0.2935421
0.1984466    -0.9971182   0.0000254  -0.0002658   0.0004859  -0.0000069  -0.0000007  -0.9388003   0.2935264
0.2008861    -0.9970565  -0.0000914  -0.0007614   0.0007474  -0.0000035  -0.0000135  -0.9388468   0.2937072
0.2033557    -0.9970062  -0.0000846  -0.0003203   0.0008527  -0.0000017  -0.0000072  -0.9388149   0.2937507
0.2058556    -0.9971594  -0.0000402  -0.0005757   0.0006119   0.0000063  -0.0000012  -0.9386165   0.2938308
0.2083862    -0.9970098  -0.0001195  -0.0003521   0.0007177  -0.0000007  -0.0000098  -0.9386430   0.2939738
0.2109480    -0.9970706  -0.0001798  -0.0003665   0.0007264  -0.0000041   0.0000037  -0.9386125   0.2940661
0.2135412    -0.9970272  -0.0000361  -0.0003211   0.0007549   0.0000026  -0.0000099  -0.9385548   0.2941996
0.2161663    -0.9971362  -0.0000858  -0.0003821   0.0007546   0.0000069  -0.0000061  -0.9385860   0.2942747
0.2188237    -0.9970325  -0.0000506  -0.0003566   0.0007705  -0.0000015  -0.0000051  -0.9385893   0.2944157
0.2215137    -0.9971190  -0.0002010  -0.0004720   0.0008171  -0.0000176  -0.0000081  -0.9384733   0.2944849
0.2242369    -0.9970955  -0.0001479  -0.0002951   0.0010625  -0.0000093  -0.0000156  -0.9383799   0.2946712
0.2269935    -0.9971243   0.0000423  -0.0011562   0.0006878  -0.0000070  -0.0000102  -0.9383557   0.2947396
0.2297839    -0.9970857  -0.0001043  -0.0004981   0.0008252   0.0000008  -0.0000095  -0.9383288   0.2948782
0.2326087    -0.9971325  -0.0001785  -0.0003336   0.0007792  -0.0000072  -0.0000042  -0.9383012   0.2949777
0.2354682    -0.9971094  -0.0001290  -0.0001804   0.0005802   0.0000062  -0.0000025  -0.9382314   0.2950852
0.2383629    -0.9971207  -0.0001056  -0.0003390   0.0007802   0.0000095  -0.0000077  -0.9382402   0.2951383
0.2412932    -0.9970152  -0.0001474  -0.0003302   0.0008735  -0.0000204  -0.0000146  -0.9381400   0.2952565
0.2442594    -0.9970869  -0.0001049  -0.0003124   0.0008864  -0.0000093   0.0000065  -0.9381314   0.2954319
0.2472622    -0.9971804  -0.0001139  -0.0003228   0.0006585  -0.0000034  -0.0000044  -0.9381191   0.2955686
0.2503018    -0.9969502  -0.0001389  -0.0001467   0.0008146  -0.0000125  -0.0000093  -0.9379876   0.2957517
0.2533788    -0.9971309  -0.0001088  -0.0003640   0.0010675  -0.0000040   0.0000031  -0.9379655   0.2957465
0.2564937    -0.9971482  -0.0001052  -0.0003538   0.0008707  -0.0000017  -0.0000116  -0.9379517   0.2958429
0.2596468    -0.9971004  -0.0000355  -0.0005543   0.0007590  -0.0000103  -0.0000019  -0.9378675   0.2960615
0.2628387    -0.9970993  -0.0000631  -0.0003044   0.0008818   0.0000019   0.0000031  -0.9378421   0.2962113
0.2660699    -0.9971270  -0.0000456  -0.0002606   0.0004358   0.0000030  -0.0000001  -0.9377637   0.2962477
0.2693407    -0.9971211  -0.0001241  -0.0003375   0.0010605   0.0000029   0.0000017  -0.9376920   0.2964796
0.2726518    -0.9970662  -0.0000406  -0.0003383   0.0009193   0.0000098  -0.0000065  -0.9376563   0.2965318
0.2760036    -0.9970815  -0.0001232  -0.0002881   0.0007253  -0.0000009  -0.0000004  -0.9376370   0.2967253
0.2793966    -0.9970518  -0.0002167  -0.0003005   0.0009293   0.0000015  -0.0000069  -0.9375655   0.2967840
0.2828312    -0.9971592  -0.0000897  -0.0003857   0.0009549  -0.0000054  -0.0000065  -0.9375553   0.2969881
0.2863082    -0.9971664  -0.0000771  -0.0002839   0.0009282  -0.0000069  -0.0000156  -0.9374514   0.2970842
0.2898278    -0.9970928  -0.0000578  -0.0003240   0.0009514   0.0000011  -0.0000148  -0.9373987   0.2972562
0.2933907    -0.9971685  -0.0001662  -0.0002835   0.0009644  -0.0000071  -0.0000110  -0.9374491   0.2973166
0.2969975    -0.9970864  -0.0000992  -0.0003207   0.0009963   0.0000025  -0.0000002  -0.9373918   0.2974570
0.3006485    -0.9970173  -0.0000378  -0.0003138   0.0009766  -0.0000037  -0.0000003  -0.9372446   0.2976492
0.3043445    -0.9970484  -0.0001163  -0.0002949   0.0009945   0.0000030  -0.0000090  -0.9372233   0.2977212
0.3080858    -0.9970845  -0.0001265  -0.0002993   0.0010335   0.0000008  -0.0000047  -0.9371217   0.2978439
0.3118732    -0.9970975  -0.0001650  -0.0003058   0.0010286  -0.0000029  -0.0000037  -0.9370846   0.2981255
0.3157071    -0.9971118  -0.0002672  -0.0003190   0.0010590   0.0000001  -0.0000051  -0.9369519   0.2981806
0.3195882    -0.9971000  -0.0001374  -0.0002918   0.0010276  -0.0000056  -0.0000075  -0.9369621   0.2983713
0.3235170    -0.9970539  -0.0002291  -0.0002791   0.0010663   0.0000005  -0.0000101  -0.9368877   0.2985743
0.3274941    -0.9970481  -0.0001178  -0.0002908   0.0010720  -0.0000171  -0.0000030  -0.9368245   0.2986018
0.3315200    -0.9970632  -0.0001168  -0.0002856   0.0010969  -0.0000011  -0.0000002  -0.9366881   0.2987612
0.3355955    -0.9970523  -0.0001328  -0.0002966   0.0010717   0.0000024  -0.0000098  -0.9367534   0.2988743
0.3397210    -0.9970965  -0.0001983  -0.0002836   0.0010656  -0.0000033  -0.0000140  -0.9366286   0.2991156
0.3438973    -0.9971122  -0.0001784  -0.0002744   0.0011016   0.0000025  -0.0000018  -0.9365542   0.2991742
0.3481249    -0.9971092  -0.0001956  -0.0003533   0.0011929  -0.0000090  -0.0000003  -0.9365513   0.2993079
0.3524045    -0.9971974  -0.0001968  -0.0002011   0.0012763   0.0000071  -0.0000049  -0.9364981   0.2994654
0.3567367    -0.9971841  -0.0000918  -0.0002548   0.0011437   0.0000048  -0.0000006  -0.9364733   0.2996630
0.3611221    -0.9969887  -0.0002490  -0.0001734   0.0012054  -0.0000009  -0.0000053  -0.9363157   0.2998125
0.3655615    -0.9970540  -0.0001469  -0.0002928   0.0013660   0.0000008   0.0000035  -0.9362350   0.2999891
0.3700554    -0.9970969  -0.0002074  -0.0000658   0.0009911  -0.0000078   0.0000013  -0.9361766   0.3001423
0.3746046    -0.9970793  -0.0002285  -0.0004552   0.0007975  -0.0000074   0.0000052  -0.9360952   0.3002810
0.3792097    -0.9971556  -0.0001697  -0.0001811   0.0011282   0.0000027  -0.0000014  -0.9360310   0.3005167
0.3838714    -0.9970662  -0.0001724  -0.0003360   0.0008440  -0.0000147   0.0000006  -0.9360487   0.3006684
0.3885905    -0.9970721  -0.0000971  -0.0002894   0.0012400   0.0000014  -0.0000025  -0.9359445   0.3008066
0.3933675    -0.9971979  -0.0002287  -0.0002883   0.0012564  -0.0000064  -0.0000079  -0.9358374   0.3010662
0.3982033    -0.9971812  -0.0002698  -0.0005530   0.0010887   0.0000045  -0.0000028  -0.9357388   0.3011775
0.4030985    -0.9971299  -0.0001916   0.0000469   0.0012038  -0.0000013  -0.0000019  -0.9356822   0.3013380
0.4080538    -0.9970759  -0.0001920  -0.0003395   0.0011375   0.0000088  -0.0000011  -0.9356213   0.3015114
0.4130701    -0.9972304  -0.0002603  -0.0003693   0.0012741  -0.0000030  -0.0000011  -0.9354990   0.3017008
0.4181481    -0.9971557  -0.0002682  -0.0001022   0.0014313  -0.0000217  -0.0000123  -0.9354835   0.3019167
0.4232885    -0.9971842  -0.0001740  -0.0000797   0.0015675   0.0000013  -0.0000042  -0.9353929   0.3020374
0.4284921    -0.9971356  -0.0001502  -0.0001442   0.0011725   0.0000050  -0.0000019  -0.9353126   0.3021829
0.4337597    -0.9970439  -0.0002141  -0.0004908   0.0015249  -0.0000025  -0.0000129  -0.9351899   0.3024178
0.4390920    -0.9971170  -0.0002084  -0.0002543   0.0012186   0.0000014  -0.0000040  -0.9351455   0.3026475
0.4444898    -0.9971116  -0.0002681  -0.0003120   0.0014431   0.0000003  -0.0000071  -0.9350953   0.3028394
0.4499541    -0.9971025  -0.0001964  -0.0002467   0.0012305   0.0000018   0.0000071  -0.9349420   0.3029515
0.4554854    -0.9971466  -0.0002269  -0.0002251   0.0013951  -0.0000024   0.0000004  -0.9349191   0.3031716
0.4610848    -0.9971449  -0.0003281  -0.0004337   0.0014833   0.0000036  -0.0000010  -0.9347462   0.3034583
0.4667531    -0.9971563  -0.0001566  -0.0002409   0.0014456  -0.0000048  -0.0000122  -0.9347264   0.3035858
0.4724910    -0.9970424  -0.0003072  -0.0003914   0.0013279   0.0000114  -0.0000039  -0.9345766   0.3037551
0.4782994    -0.9971087  -0.0002388   0.0001012   0.0015158  -0.0000062  -0.0000052  -0.9345650   0.3040264
0.4841793    -0.9970782  -0.0002815  -0.0000990   0.0012768   0.0000106   0.0000023  -0.9344129   0.3041643
0.4901314    -0.9970930  -0.0002130  -0.0001889   0.0014230   0.0000062  -0.0000086  -0.9344641   0.3044346
0.4961567    -0.9971457  -0.0002278  -0.0002358   0.0016129  -0.0000058  -0.0000014  -0.9343045   0.3046205
0.5022561    -0.9971051  -0.0002311  -0.0002048   0.0016066  -0.0000017  -0.0000053  -0.9341865   0.3048411
0.5084304    -0.9971043  -0.0001641   0.0000718   0.0012625  -0.0000013  -0.0000019  -0.9340425   0.3051119
0.5146807    -0.9971833  -0.0002465  -0.0002232   0.0015300  -0.0000092  -0.0000063  -0.9339961   0.3052493
0.5210078    -0.9970814  -0.0002755  -0.0002123   0.0015483   0.0000043  -0.0000041  -0.9338725   0.3054744
0.5274126    -0.9972444  -0.0002893  -0.0002332   0.0015659  -0.0000064  -0.0000075  -0.9338402   0.3057256
0.5338963    -0.9970486  -0.0003743  -0.0002097   0.0015718   0.0000003   0.0000057  -0.9337405   0.3059158
0.5404596    -0.9970929  -0.0002633  -0.0002066   0.0016215  -0.0000084   0.0000050  -0.9336710   0.3062319
0.5471036    -0.9971030  -0.0003034  -0.0002104   0.0016373  -0.0000094  -0.0000065  -0.9335276   0.3063257
0.5538292    -0.9972229  -0.0002687  -0.0003880   0.0017703   0.0000020  -0.0000054  -0.9334165   0.3066357
0.5606376    -0.9970873  -0.0001845  -0.0002272   0.0016361  -0.0000026  -0.0000073  -0.9332411   0.3068205
0.5675297    -0.9971918  -0.0003334  -0.0000835   0.0017249  -0.0000022  -0.0000028  -0.9331879   0.3071370
0.5745064    -0.9971665  -0.0002942  -0.0002067   0.0017195   0.0000018   0.0000011  -0.9330557   0.3073340
0.5815690    -0.9970950  -0.0002031  -0.0002136   0.0017064   0.0000020   0.0000047  -0.9330523   0.3075216
0.5887183    -0.9971172  -0.0002272  -0.0002319   0.0017320  -0.0000109  -0.0000114  -0.9328489   0.3077647
0.5959556    -0.9971230  -0.0003309  -0.0001948   0.0017732  -0.0000057  -0.0000093  -0.9327533   0.3080503
0.6032818    -0.9970864  -0.0002708  -0.0002044   0.0018000  -0.0000051  -0.0000031  -0.9326622   0.3083318
0.6106981    -0.9972669  -0.0003220  -0.0002017   0.0017775   0.0000033  -0.0000101  -0.9325332   0.3086434
0.6182056    -0.9970928  -0.0002659  -0.0002088   0.0018095   0.0000045  -0.0000047  -0.9324797   0.3087512
0.6258053    -0.9971420  -0.0003342  -0.0001954   0.0018143  -0.0000036   0.0000009  -0.9323100   0.3090988
0.6334985    -0.9971809  -0.0001867  -0.0001945   0.0018211   0.0000043  -0.0000057  -0.9322906   0.3093580
0.6412862    -0.9972014  -0.0002892  -0.0001996   0.0018812  -0.0000087  -0.0000039  -0.9320162   0.3096498
0.6491697    -0.9971372  -0.0002787  -0.0002107   0.0019143  -0.0000025   0.0000017  -0.9320639   0.3099768
0.6571501    -0.9971549  -0.0002710  -0.0001714   0.0019176  -0.0000156  -0.0000076  -0.9318527   0.3101546
0.6652286    -0.9971328  -0.0003577  -0.0001779   0.0019519   0.0000013  -0.0000025  -0.9317385   0.3105023
0.6734064    -0.9970298  -0.0003195  -0.0001892   0.0019566  -0.0000007  -0.0000128  -0.9316249   0.3107810
0.6816848    -0.9971474  -0.0003485  -0.0001702   0.0020007  -0.0000108  -0.0000052  -0.9314518   0.3109770
0.6900649    -0.9971398  -0.0003336  -0.0001914   0.0019871  -0.0000001  -0.0000024  -0.9313558   0.3112493
0.6985480    -0.9971558  -0.0002801  -0.0001656   0.0020166  -0.0000011  -0.0000022  -0.9312130   0.3116300
0.7071355    -0.9971682  -0.0003510  -0.0001647   0.0020420   0.0000024  -0.0000047  -0.9311384   0.3119213
0.7158284    -0.9970641  -0.0003791  -0.0001773   0.0020384   0.0000018  -0.0000044  -0.9310515   0.3121998
0.7246283    -0.9970901  -0.0002631  -0.0001742   0.0020999  -0.0000065  -0.0000022  -0.9308397   0.3124587
0.7335363    -0.9972699  -0.0002113  -0.0001668   0.0021020   0.0000072  -0.0000030  -0.9308036   0.3127722
0.7425539    -0.9971037  -0.0003633  -0.0001715   0.0021231  -0.0000014  -0.0000051  -0.9306783   0.3131388
0.7516822    -0.9971761  -0.0002981  -0.0002345   0.0021425  -0.0000061   0.0000039  -0.9304417   0.3133883
0.7609229    -0.9971028  -0.0003491  -0.0002117   0.0021815  -0.0000108  -0.0000073  -0.9302693   0.3136903
0.7702771    -0.9971218  -0.0002990  -0.0001346   0.0022543   0.0000060  -0.0000118  -0.9301103   0.3139566
0.7797463    -0.9971765  -0.0003642  -0.0001930   0.0022115  -0.0000053  -0.0000039  -0.9299867   0.3143409
0.7893319    -0.9972607  -0.0003235  -0.0001474   0.0022334  -0.0000011  -0.0000039  -0.9298566   0.3146606
0.7990353    -0.9970633  -0.0004017  -0.0002376   0.0022772   0.0000108   0.0000006  -0.9297423   0.3149845
0.8088580    -0.9970514  -0.0002815  -0.0001869   0.0022787  -0.0000011  -0.0000043  -0.9295781   0.3153214
0.8188015    -0.9971199  -0.0004276  -0.0001756   0.0023434  -0.0000041  -0.0000032  -0.9294537   0.3156519
0.8288673    -0.9972195  -0.0004200  -0.0001506   0.0023881  -0.0000032  -0.0000065  -0.9292674   0.3159989
0.8390567    -0.9971336  -0.0002672  -0.0001707   0.0023964   0.0000029  -0.0000167  -0.9291964   0.3163791
0.8493714    -0.9971171  -0.0002997  -0.0002155   0.0023994   0.0000081  -0.0000012  -0.9290133   0.3166715
0.8598130    -0.9970710  -0.0002934  -0.0001851   0.0024199   0.0000073  -0.0000083  -0.9288463   0.3170546
0.8703829    -0.9970836  -0.0003421  -0.0001622   0.0024707   0.0000037  -0.0000044  -0.9286617   0.3173866
0.8810827    -0.9971886  -0.0003555  -0.0001616   0.0024728  -0.0000029  -0.0000054  -0.9285109   0.3178376
0.8919140    -0.9971851  -0.0002561  -0.0001618   0.0025270   0.0000023  -0.0000108  -0.9283561   0.3181357
0.9028786    -0.9972302  -0.0003301  -0.0001319   0.0025315  -0.0000092   0.0000004  -0.9281942   0.3185210
0.9139779    -0.9972030  -0.0003546  -0.0002104   0.0026288  -0.0000026  -0.0000067  -0.9280326   0.3189216
0.9252136    -0.9971166  -0.0003651  -0.0001530   0.0026046  -0.0000001  -0.0000139  -0.9278553   0.3192816
0.9365875    -0.9972004  -0.0004864  -0.0002100   0.0027162  -0.0000034   0.0000006  -0.9276938   0.3196557
0.9481012    -0.9971325  -0.0003892  -0.0000843   0.0026663  -0.0000017  -0.0000055  -0.9275186   0.3200543
0.9597564    -0.9971175  -0.0004699  -0.0002283   0.0026245  -0.0000017  -0.0000023  -0.9273121   0.3204456
0.9715549    -0.9971079  -0.0003899  -0.0001821   0.0026800  -0.0000036  -0.0000012  -0.9271461   0.3208858
0.9834985    -0.9970493  -0.0004579  -0.0002056   0.0027776  -0.0000065  -0.0000013  -0.9270109   0.3212321
0.9955889    -0.9971452  -0.0004007  -0.0001322   0.0027262  -0.0000032  -0.0000050  -0.9268638   0.3216050
1.0078279    -0.9972093  -0.0003707  -0.0000563   0.0027751   0.0000107  -0.0000079  -0.9265545   0.3220619
1.0202173    -0.9971491  -0.0004017  -0.0001544   0.0028890   0.0000011  -0.0000053  -0.9264578   0.3224213
1.0327591    -0.9971709  -0.0003888  -0.0001242   0.0029051  -0.0000039  -0.0000004  -0.9262505   0.3229331
1.0454551    -0.9972152  -0.0003641  -0.0001244   0.0029238   0.0000008  -0.0000101  -0.9260666   0.3233381
1.0583071    -0.9971498  -0.0005343  -0.0000266   0.0029416  -0.0000013   0.0000049  -0.9258682   0.3237213
1.0713171    -0.9971335  -0.0004816  -0.0001939   0.0029712  -0.0000064   0.0000018  -0.9255917   0.3241481
1.0844871    -0.9971613  -0.0003814  -0.0001442   0.0030443  -0.0000048   0.0000027  -0.9254617   0.3245377
1.0978189    -0.9972134  -0.0005113  -0.0001056   0.0029860   0.0000007   0.0000068  -0.9252756   0.3250599
1.1113147    -0.9971817  -0.0004619  -0.0001979   0.0031607  -0.0000006  -0.0000055  -0.9250334   0.3254274
1.1249763    -0.9972192  -0.0004696  -0.0001129   0.0031025  -0.0000013  -0.0000018  -0.9248774   0.3259905
1.1388059    -0.9972075  -0.0003863  -0.0003978   0.0029619  -0.0000019  -0.0000060  -0.9247198   0.3264517
1.1528056    -0.9971838  -0.0004578  -0.0000542   0.0030548  -0.0000044  -0.0000036  -0.9244583   0.3268988
1.1669773    -0.9971642  -0.0005362   0.0001892   0.0032215  -0.0000009  -0.0000082  -0.9242727   0.3273953
1.1813232    -0.9971014  -0.0005538  -0.0001814   0.0033889  -0.0000031  -0.0000048  -0.9240773   0.3278585
1.1958455    -0.9971315  -0.0005645  -0.0001094   0.0033413   0.0000009   0.0000004  -0.9238039   0.3283554
1.2105463    -0.9972541  -0.0004642  -0.0001174   0.0033509  -0.0000031  -0.0000085  -0.9236208   0.3288517
1.2254278    -0.9971991  -0.0005834  -0.0001166   0.0034108  -0.0000064   0.0000002  -0.9233540   0.3293477
1.2404923    -0.9971854  -0.0006457  -0.0001035   0.0034388   0.0000005  -0.0000006  -0.9232183   0.3298264
1.2557420    -0.9972611  -0.0005372  -0.0001066   0.0035026   0.0000060  -0.0000034  -0.9229541   0.3303611
1.2711791    -0.9971800  -0.0005207  -0.0000762   0.0035076   0.0000058   0.0000032  -0.9226769   0.3308420
1.2868060    -0.9972064  -0.0005378  -0.0001171   0.0035471  -0.0000086   0.0000018  -0.9224299   0.3313969
1.3026251    -0.9972550  -0.0006188  -0.0000820   0.0035940   0.0000010  -0.0000178  -0.9221532   0.3319239
1.3186385    -0.9971332  -0.0006589  -0.0000833   0.0036279  -0.0000032  -0.0000001  -0.9219294   0.3324706
1.3348489    -0.9972576  -0.0005564  -0.0000917   0.0037097  -0.0000022  -0.0000067  -0.9217568   0.3330027
1.3512585    -0.9972079  -0.0005922  -0.0001262   0.0037554  -0.0000067  -0.0000152  -0.9214508   0.3335168
1.3678698    -0.9972230  -0.0004673  -0.0000907   0.0037824  -0.0000091  -0.0000157  -0.9212825   0.3340755
1.3846854    -0.9971400  -0.0005514   0.0000905   0.0038724   0.0000027  -0.0000135  -0.9210106   0.3347380
1.4017077    -0.9972427  -0.0005859  -0.0001308   0.0038342   0.0000041   0.0000045  -0.9207423   0.3352204
1.4189392    -0.9972947  -0.0006110  -0.0000914   0.0039169   0.0000006   0.0000001  -0.9205003   0.3357456
1.4363825    -0.9971253  -0.0006862  -0.0000707   0.0039343  -0.0000072  -0.0000012  -0.9202484   0.3363581
1.4540403    -0.9972047  -0.0006030  -0.0001076   0.0039648  -0.0000064  -0.0000011  -0.9199559   0.3369570
1.4719152    -0.9972054  -0.0006090  -0.0000770   0.0040612   0.0000078   0.0000075  -0.9197156   0.3376479
1.4900098    -0.9971599  -0.0006508  -0.0000541   0.0040755   0.0000059  -0.0000025  -0.9193985   0.3381595
1.5083269    -0.9973233  -0.0006170  -0.0000645   0.0041569  -0.0000053   0.0000013  -0.9191216   0.3387463
1.5268691    -0.9972360  -0.0006414  -0.0000807   0.0042263   0.0000075  -0.0000016  -0.9188447   0.3393919
1.5456392    -0.9972018  -0.0006207  -0.0000477   0.0042234  -0.0000034  -0.0000016  -0.9186352   0.3399954
1.5646402    -0.9971848  -0.0005979  -0.0000407   0.0042453   0.0000027  -0.0000022  -0.9183255   0.3407034
1.5838747    -0.9971306  -0.0006375  -0.0000784   0.0043672  -0.0000058   0.0000018  -0.9180071   0.3413056
1.6033456    -0.9973764  -0.0006503  -0.0000406   0.0044159  -0.0000038   0.0000005  -0.9178175   0.3419714
1.6230559    -0.9973038  -0.0006271  -0.0000461   0.0044283   0.0000040  -0.0000088  -0.9174998   0.3426997
1.6430085    -0.9973052  -0.0007373  -0.0000199   0.0044591  -0.0000092  -0.0000087  -0.9171685   0.3433497
1.6632064    -0.9972243  -0.0006058  -0.0000455   0.0045426  -0.0000108  -0.0000073  -0.9168588   0.3440620
1.6836526    -0.9971532  -0.0008362  -0.0000350   0.0045912   0.0000037  -0.0000099  -0.9166106   0.3447857
1.7043502    -0.9972010  -0.0006604  -0.0000335   0.0046164   0.0000002  -0.0000113  -0.9161800   0.3455200
1.7253021    -0.9972515  -0.0006767  -0.0000251   0.0047464  -0.0000079  -0.0000040  -0.9159925   0.3461715
1.7465117    -0.9973155  -0.0007468  -0.0000024   0.0047587   0.0000025  -0.0000055  -0.9157903   0.3469968
1.7679820    -0.9972728  -0.0007583  -0.0000087   0.0048114  -0.0000045   0.0000031  -0.9154066   0.3477171
1.7897162    -0.9972904  -0.0007688   0.0000593   0.0048197  -0.0000016  -0.0000074  -0.9151174   0.3484560
1.8117176    -0.9972466  -0.0007610  -0.0000133   0.0049232  -0.0000088  -0.0000035  -0.9147761   0.3493066
1.8339895    -0.9972301  -0.0007229  -0.0001235   0.0049962  -0.0000118  -0.0000034  -0.9144893   0.3500739
1.8565352    -0.9972487  -0.0007614   0.0000537   0.0049995  -0.0000061  -0.0000007  -0.9141587   0.3508992
1.8793580    -0.9972505  -0.0005957  -0.0001720   0.0051054   0.0000050  -0.0000067  -0.9138773   0.3516445
1.9024614    -0.9972080  -0.0007526  -0.0000119   0.0051130   0.0000034   0.0000019  -0.9136433   0.3524820
1.9258488    -0.9972807  -0.0007588  -0.0000992   0.0051954  -0.0000040  -0.0000066  -0.9132013   0.3533232
1.9495237    -0.9971460  -0.0008315   0.0000178   0.0052949  -0.0000036  -0.0000086  -0.9128573   0.3542622
1.9734897    -0.9973121  -0.0007521   0.0000281   0.0053640  -0.0000027  -0.0000027  -0.9124967   0.3551210
1.9977503    -0.9973133  -0.0007816   0.0000002   0.0053897  -0.0000022  -0.0000100  -0.9121862   0.3560367
2.0223091    -0.9972894  -0.0007348   0.0000270   0.0054741   0.0000036  -0.0000066  -0.9117146   0.3569520
2.0471698    -0.9972609  -0.0007882   0.0000261   0.0055589   0.0000021  -0.0000058  -0.9112576   0.3578717
2.0723362    -0.9972964  -0.0008176   0.0000459   0.0055846  -0.0000052  -0.0000109  -0.9108508   0.3587810
2.0978119    -0.9973055  -0.0008337   0.0000622   0.0056442  -0.0000046  -0.0000081  -0.9103719   0.3597379
2.1236008    -0.9972112  -0.0008386   0.0000272   0.0057703  -0.0000093  -0.0000004  -0.9098752   0.3606545
2.1497067    -0.9972943  -0.0008574   0.0000466   0.0057913  -0.0000046  -0.0000022  -0.9093895   0.3616367
2.1761336    -0.9973690  -0.0008712   0.0000746   0.0058535  -0.0000068  -0.0000094  -0.9089004   0.3624516
2.2028853    -0.9973457  -0.0009443   0.0000592   0.0059020  -0.0000069  -0.0000036  -0.9082573   0.3634525
2.2299659    -0.9972397  -0.0008320   0.0000324   0.0060355  -0.0000041  -0.0000103  -0.9079217   0.3643863
2.2573794    -0.9972297  -0.0009218   0.0000925   0.0060912  -0.0000005   0.0000045  -0.9073349   0.3653268
2.2851299    -0.9972582  -0.0009503   0.0000890   0.0061509  -0.0000203  -0.0000078  -0.9067572   0.3662666
2.3132216    -0.9973150  -0.0009366   0.0000905   0.0062360  -0.0000061  -0.0000051  -0.9062437   0.3671181
2.3416586    -0.9973283  -0.0008656   0.0000571   0.0062911   0.0000013  -0.0000147  -0.9056892   0.3680784
2.3704451    -0.9973081  -0.0009688   0.0000975   0.0063768  -0.0000051  -0.0000091  -0.9051684   0.3691096
2.3995856    -0.9973585  -0.0010299   0.0001075   0.0064779  -0.0000066  -0.0000082  -0.9045189   0.3700807
2.4290843    -0.9973712  -0.0009273   0.0000863   0.0065161  -0.0000003  -0.0000136  -0.9041214   0.3709168
2.4589456    -0.9973096  -0.0009426   0.0001162   0.0066064  -0.0000015  -0.0000055  -0.9035454   0.3719175
2.4891740    -0.9973257  -0.0010093   0.0000938   0.0066408   0.0000065   0.0000046  -0.9030067   0.3729132
2.5197740    -0.9973033  -0.0009786   0.0001293   0.0067749  -0.0000101  -0.0000049  -0.9025121   0.3739415
2.5507502    -0.9972432  -0.0009570   0.0001421   0.0068552  -0.0000041   0.0000006  -0.9019500   0.3748543
2.5821072    -0.9973383  -0.0008923   0.0001311   0.0069122   0.0000005  -0.0000009  -0.9013914   0.3758758
2.6138496    -0.9972476  -0.0010641   0.0001178   0.0069875  -0.0000073  -0.0000027  -0.9007222   0.3768633
2.6459823    -0.9973492  -0.0010322   0.0001394   0.0070836  -0.0000029   0.0000048  -0.9001987   0.3779199
2.6785100    -0.9971792  -0.0010319   0.0001785   0.0071541  -0.0000082  -0.0000121  -0.8996597   0.3790409
2.7114376    -0.9973090  -0.0011982   0.0001729   0.0072439  -0.0000063  -0.0000062  -0.8990225   0.3800620
2.7447699    -0.9973673  -0.0010840   0.0001419   0.0073367   0.0000017  -0.0000063  -0.8984440   0.3810689
2.7785120    -0.9972993  -0.0011380   0.0001856   0.0074243  -0.0000026  -0.0000068  -0.8978285   0.3821643
2.8126689    -0.9972088  -0.0010758   0.0001915   0.0074989  -0.0000122   0.0000035  -0.8973122   0.3833147
2.8472457    -0.9973101  -0.0010845   0.0001923   0.0075958  -0.0000035  -0.0000070  -0.8967607   0.3844286
2.8822476    -0.9972511  -0.0011720   0.0001853   0.0076572   0.0000060   0.0000022  -0.8961782   0.3855124
2.9176798    -0.9973481  -0.0012355   0.0001643   0.0077602  -0.0000007  -0.0000141  -0.8955195   0.3866086
2.9535475    -0.9972859  -0.0011424   0.0002189   0.0078629  -0.0000058  -0.0000054  -0.8949483   0.3878070
2.9898562    -0.9974335  -0.0011676   0.0002321   0.0079565  -0.0000028  -0.0000049  -0.8942470   0.3890268
3.0266112    -0.9972989  -0.0012404   0.0002216   0.0080279  -0.0000014  -0.0000102  -0.8936296   0.3901293
3.0638180    -0.9973081  -0.0012182   0.0002069   0.0081145  -0.0000027  -0.0000106  -0.8929854   0.3913348
3.1014823    -0.9972947  -0.0012386   0.0002185   0.0082345   0.0000122   0.0000001  -0.8923790   0.3926033
3.1396096    -0.9973076  -0.0012424   0.0002653   0.0083139   0.0000007  -0.0000151  -0.8916534   0.3937399
3.1782055    -0.9974663  -0.0012692   0.0002608   0.0084346  -0.0000052  -0.0000060  -0.8910269   0.3950064
3.2172760    -0.9973837  -0.0012343   0.0002347   0.0085213  -0.0000021  -0.0000025  -0.8903442   0.3962763
3.2568267    -0.9973989  -0.0013495   0.0002708   0.0086084   0.0000000   0.0000010  -0.8897056   0.3975141
3.2968637    -0.9972813  -0.0012660   0.0002720   0.0087196   0.0000079  -0.0000071  -0.8889123   0.3988380
3.3373928    -0.9973569  -0.0013774   0.0003055   0.0088410  -0.0000055  -0.0000043  -0.8882090   0.4000991
3.3784202    -0.9973551  -0.0012835   0.0003117   0.0089302   0.0000017  -0.0000115  -0.8874257   0.4014749
3.4199519    -0.9973393  -0.0013468   0.0002713   0.0090160  -0.0000018  -0.0000072  -0.8867184   0.4027799
3.4619942    -0.9972908  -0.0013787   0.0002958   0.0091347   0.0000094  -0.0000015  -0.8859021   0.4040620
3.5045533    -0.9974188  -0.0013302   0.0003359   0.0092206  -0.0000130  -0.0000043  -0.8851955   0.4055343
3.5476356    -0.9974213  -0.0014499   0.0003049   0.0093325  -0.0000032  -0.0000072  -0.8844131   0.4068135
3.5912475    -0.9973787  -0.0013614   0.0002924   0.0094754   0.0000050  -0.0000068  -0.8835820   0.4081858
3.6353956    -0.9973593  -0.0013191   0.0003513   0.0095394  -0.0000033   0.0000033  -0.8828196   0.4096963
3.6800864    -0.9973484  -0.0013996   0.0003585   0.0096898  -0.0000019  -0.0000012  -0.8820544   0.4111741
3.7253266    -0.9974196  -0.0013737   0.0003317   0.0097816  -0.0000012   0.0000029  -0.8812237   0.4125975
3.7711229    -0.9974017  -0.0013688   0.0003185   0.0099036   0.0000036  -0.0000073  -0.8804596   0.4140384
3.8174822    -0.9974958  -0.0014663   0.0003859   0.0099951   0.0000054  -0.0000037  -0.8795996   0.4154965
3.8644115    -0.9973700  -0.0015256   0.0003543   0.0101372  -0.0000027  -0.0000005  -0.8788628   0.4170898
3.9119176    -0.9973789  -0.0014906   0.0003810   0.0102635   0.0000050  -0.0000047  -0.8780034   0.4186069
3.9600077    -0.9974331  -0.0015000   0.0004577   0.0104096  -0.0000003  -0.0000106  -0.8772529   0.4201030
4.0086890    -0.9973820  -0.0015378   0.0003969   0.0104987  -0.0000001  -0.0000011  -0.8762245   0.4216955
4.0579688    -0.9972941  -0.0016174   0.0003749   0.0105904   0.0000105  -0.0000087  -0.8753939   0.4232443
4.1078544    -0.9973802  -0.0016329   0.0004595   0.0106636   0.0000009  -0.0000062  -0.8745147   0.4247613
4.1583532    -0.9974395  -0.0016725   0.0004438   0.0108716  -0.0000076  -0.0000134  -0.8735491   0.4263804
4.2094729    -0.9974178  -0.0016960   0.0004087   0.0109960  -0.0000130  -0.0000085  -0.8727399   0.4279787
4.2612209    -0.9974317  -0.0017429   0.0003326   0.0111575   0.0000049  -0.0000003  -0.8717528   0.4295703
4.3136051    -0.9974698  -0.0016994   0.0004200   0.0112518   0.0000094  -0.0000038  -0.8707551   0.4312195
4.3666333    -0.9974512  -0.0016568   0.0004650   0.0111815  -0.0000042  -0.0000094  -0.8698497   0.4329018
4.4203134    -0.9974756  -0.0018058   0.0003767   0.0114459  -0.0000094  -0.0000055  -0.8687537   0.4345216
4.4746534    -0.9974658  -0.0017314   0.0004881   0.0116537  -0.0000100  -0.0000040  -0.8676684   0.4362446
4.5296613    -0.9974040  -0.0018746   0.0004979   0.0117747  -0.0000140  -0.0000062  -0.8666960   0.4379928
4.5853455    -0.9973828  -0.0018389   0.0004829   0.0119101   0.0000126  -0.0000056  -0.8655878   0.4397037
4.6417143    -0.9973335  -0.0018294   0.0005028   0.0120505   0.0000038  -0.0000010  -0.8644354   0.4412928
4.6987760    -0.9972842  -0.0017789   0.0004268   0.0122551  -0.0000146  -0.0000077  -0.8633619   0.4429503
4.7565392    -0.9975047  -0.0019039   0.0005272   0.0123365  -0.0000048  -0.0000118  -0.8622112   0.4446939
4.8150125    -0.9973823  -0.0019392   0.0005329   0.0124924   0.0000012  -0.0000054  -0.8610678   0.4463435
4.8742045    -0.9973664  -0.0019067   0.0005067   0.0126589   0.0000013  -0.0000100  -0.8598778   0.4479819
4.9341243    -0.9973546  -0.0019696   0.0005801   0.0127950  -0.0000079  -0.0000109  -0.8588102   0.4494953
4.9947807    -0.9974727  -0.0020162   0.0005311   0.0129154  -0.0000006  -0.0000013  -0.8578174   0.4510817
5.0561827    -0.9974486  -0.0019144   0.0005440   0.0131017  -0.0000007  -0.0000055  -0.8568059   0.4527803
5.1183396    -0.9974902  -0.0019912   0.0005727   0.0132216   0.0000014  -0.0000067  -0.8558557   0.4544847
5.1812606    -0.9974900  -0.0020168   0.0005974   0.0134146   0.0000041   0.0000007  -0.8549632   0.4562606
5.2449550    -0.9975210  -0.0020751   0.0005853   0.0135677  -0.0000038  -0.0000165  -0.8540537   0.4582926
5.3094325    -0.9974865  -0.0020301   0.0006074   0.0137502  -0.0000002  -0.0000129  -0.8530595   0.4601084
5.3747026    -0.9973350  -0.0020812   0.0006246   0.0138420  -0.0000032  -0.0000010  -0.8520304   0.4623129
5.4407751    -0.9975433  -0.0021307   0.0006315   0.0140094   0.0000050  -0.0000045  -0.8508710   0.4642557
5.5076599    -0.9974016  -0.0021083   0.0006299   0.0142215  -0.0000117  -0.0000096  -0.8497691   0.4663224
5.5753669    -0.9974202  -0.0021782   0.0006371   0.0143558   0.0000046  -0.0000046  -0.8485973   0.4684798
5.6439062    -0.9974312  -0.0022033   0.0006868   0.0145307   0.0000020  -0.0000020  -0.8474325   0.4705647
5.7132881    -0.9974668  -0.0023172   0.0006807   0.0147002  -0.0000053  -0.0000021  -0.8461542   0.4727491
5.7835229    -0.9974547  -0.0022855   0.0006934   0.0149361   0.0000120  -0.0000015  -0.8448744   0.4749231
5.8546211    -0.9974561  -0.0023002   0.0006973   0.0150461   0.0000019  -0.0000059  -0.8436650   0.4771559
5.9265934    -0.9974956  -0.0023604   0.0006950   0.0152472   0.0000031  -0.0000032  -0.8422969   0.4793258
5.9994504    -0.9975471  -0.0023125   0.0007127   0.0154386  -0.0000047  -0.0000054  -0.8409209   0.4814409
6.0732031    -0.9975496  -0.0023656   0.0006691   0.0156710  -0.0000113  -0.0000100  -0.8395623   0.4836481
6.1478624    -0.9974976  -0.0023611   0.0007563   0.0157916   0.0000063  -0.0000045  -0.8381859   0.4858738
6.2234396    -0.9975067  -0.0024132   0.0007461   0.0159629  -0.0000013  -0.0000036  -0.8366054   0.4881844
6.2999458    -0.9975115  -0.0023986   0.0007729   0.0161621  -0.0000015  -0.0000074  -0.8352632   0.4904485
6.3773925    -0.9975730  -0.0024004   0.0007981   0.0163275  -0.0000065  -0.0000109  -0.8337530   0.4927246
6.4557914    -0.9975494  -0.0024778   0.0008252   0.0165557   0.0000019  -0.0000044  -0.8322471   0.4949631
6.5351539    -0.9976025  -0.0025287   0.0007669   0.0167463  -0.0000016   0.0000001  -0.8307492   0.4973691
6.6154922    -0.9975002  -0.0024854   0.0008351   0.0169204   0.0000017  -0.0000067  -0.8291662   0.4997310
6.6968180    -0.9974686  -0.0025753   0.0007729   0.0170470  -0.0000013  -0.0000054  -0.8275994   0.5021189
6.7791436    -0.9974882  -0.0026856   0.0008246   0.0173662  -0.0000036  -0.0000061  -0.8260330   0.5044637
6.8624812    -0.9975885  -0.0026398   0.0008465   0.0175383  -0.0000017  -0.0000108  -0.8244187   0.5069328
6.9468433    -0.9975820  -0.0026207   0.0007581   0.0177650  -0.0000075   0.0000006  -0.8228260   0.5093485
7.0322425    -0.9974811  -0.0026373   0.0008879   0.0179532  -0.0000001  -0.0000017  -0.8211146   0.5118158
7.1186916    -0.9975537  -0.0028449   0.0009270   0.0181858   0.0000055  -0.0000068  -0.8194095   0.5143454
7.2062034    -0.9975605  -0.0028730   0.0009240   0.0183795  -0.0000054  -0.0000028  -0.8176992   0.5169044
7.2947909    -0.9975007  -0.0027478   0.0009124   0.0186297  -0.0000060  -0.0000003  -0.8159561   0.5194736
7.3844675    -0.9975218  -0.0028755   0.0009188   0.0188174  -0.0000109  -0.0000018  -0.8142863   0.5220747
7.4752466    -0.9976046  -0.0028947   0.0009473   0.0190168   0.0000062  -0.0000064  -0.8124937   0.5246904
7.5671416    -0.9976671  -0.0029391   0.0009791   0.0192952  -0.0000101   0.0000033  -0.8107805   0.5273408
7.6601662    -0.9975752  -0.0030263   0.0009679   0.0195035  -0.0000032  -0.0000058  -0.8089321   0.5300260
7.7543345    -0.9974642  -0.0030254   0.0009779   0.0197261  -0.0000011  -0.0000027  -0.8070409   0.5328550
7.8496604    -0.9975719  -0.0030030   0.0009963   0.0199717  -0.0000081  -0.0000079  -0.8052010   0.5356596
7.9461581    -0.9975743  -0.0031388   0.0010760   0.0201921  -0.0000041  -0.0000001  -0.8031845   0.5385086
8.0438422    -0.9975697  -0.0030556   0.0010356   0.0204525  -0.0000019   0.0000034  -0.8012046   0.5413537
8.1427270    -0.9975297  -0.0031004   0.0010396   0.0206651   0.0000042   0.0000010  -0.7990345   0.5443276
8.2428275    -0.9976490  -0.0031991   0.0010334   0.0208967   0.0000016   0.0000028  -0.7968067   0.5471867
8.3441586    -0.9976868  -0.0031254   0.0010956   0.0212123  -0.0000017   0.0000017  -0.7946318   0.5499687
8.4467353    -0.9975559  -0.0032307   0.0010699   0.0212452   0.0000085  -0.0000037  -0.7923743   0.5529673
8.5505731    -0.9975798  -0.0033228   0.0011016   0.0217026   0.0000036  -0.0000037  -0.7900742   0.5557386
8.6556873    -0.9976026  -0.0033025   0.0011943   0.0219603   0.0000022  -0.0000069  -0.7877981   0.5586649
8.7620937    -0.9975227  -0.0032950   0.0009581   0.0222739  -0.0000146  -0.0000022  -0.7855033   0.5615264
8.8698082    -0.9976249  -0.0033714   0.0013817   0.0224634   0.0000006  -0.0000076  -0.7831491   0.5644380
8.9788469    -0.9976575  -0.0034691   0.0011188   0.0227295   0.0000057  -0.0000060  -0.7808526   0.5673655
9.0892260    -0.9975741  -0.0035607   0.0011878   0.0229986  -0.0000017  -0.0000065  -0.7784899   0.5703176
9.2009621    -0.9976522  -0.0035907   0.0012616   0.0233304  -0.0000012  -0.0000011  -0.7759998   0.5733714
9.3140717    -0.9976884  -0.0035291   0.0014268   0.0235312   0.0000038   0.0000058  -0.7735743   0.5763568
9.4285718    -0.9975634  -0.0035658   0.0013252   0.0238133  -0.0000053  -0.0000121  -0.7711036   0.5794398
9.5444795    -0.9976116  -0.0036758   0.0012509   0.0241578  -0.0000082   0.0000062  -0.7685506   0.5825374
9.6618121    -0.9975662  -0.0037110   0.0012325   0.0243964   0.0000018  -0.0000043  -0.7660223   0.5856292
9.7805870    -0.9975603  -0.0039065   0.0013185   0.0247557   0.0000009   0.0000032  -0.7634060   0.5888029
9.9008221    -0.9976950  -0.0039226   0.0013683   0.0249876   0.0000039  -0.0000012  -0.7607542   0.5920226
10.0225353   -0.9976189  -0.0038532   0.0013347   0.0252412  -0.0000049  -0.0000083  -0.7581033   0.5951324
10.1457447   -0.9975183  -0.0039600   0.0013980   0.0256693  -0.0000039  -0.0000058  -0.7553612   0.5984296
10.2704688   -0.9975901  -0.0038625   0.0013781   0.0259051  -0.0000041  -0.0000085  -0.7526769   0.6017045
10.3967261   -0.9975977  -0.0039644   0.0014321   0.0262120  -0.0000061  -0.0000066  -0.7498397   0.6050384
10.5245356   -0.9976359  -0.0041130   0.0014537   0.0265314  -0.0000079  -0.0000076  -0.7469667   0.6082174
10.6539162   -0.9976997  -0.0040592   0.0014555   0.0268514   0.0000029   0.0000029  -0.7440703   0.6115378
10.7848873   -0.9977412  -0.0041591   0.0014914   0.0271390   0.0000005  -0.0000063  -0.7411368   0.6149778
10.9174685   -0.9976781  -0.0042421   0.0015136   0.0274613  -0.0000070  -0.0000035  -0.7381281   0.6183689
11.0516796   -0.9976330  -0.0042005   0.0015177   0.0278670  -0.0000045   0.0000037  -0.7349763   0.6217995
11.1875405   -0.9975935  -0.0042324   0.0015881   0.0281627   0.0000009  -0.0000076  -0.7319551   0.6253218
11.3250716   -0.9976851  -0.0043537   0.0015470   0.0284715  -0.0000013  -0.0000002  -0.7288001   0.6287838
11.4642934   -0.9975914  -0.0043940   0.0016444   0.0287902  -0.0000070  -0.0000020  -0.7255736   0.6322627
11.6052267   -0.9977557  -0.0043809   0.0016235   0.0291802  -0.0000104  -0.0000051  -0.7223402   0.6358978
11.7478926   -0.9977227  -0.0045513   0.0016913   0.0295114  -0.0000036   0.0000009  -0.7190147   0.6394037
11.8923122   -0.9976405  -0.0046110   0.0016676   0.0297863   0.0000007   0.0000002  -0.7156511   0.6429700
12.0385073   -0.9976822  -0.0045663   0.0016899   0.0302173  -0.0000075  -0.0000003  -0.7121713   0.6466395
12.1864995   -0.9976634  -0.0046905   0.0017817   0.0305780  -0.0000044  -0.0000095  -0.7086981   0.6502674
12.3363111   -0.9977072  -0.0047095   0.0017253   0.0309455  -0.0000098  -0.0000015  -0.7052440   0.6539590
12.4879643   -0.9976792  -0.0047014   0.0017786   0.0313301  -0.0000047  -0.0000026  -0.7015574   0.6576797
12.6414818   -0.9977807  -0.0047782   0.0018229   0.0316866   0.0000050  -0.0000068  -0.6978449   0.6613944
12.7968866   -0.9976657  -0.0048011   0.0018849   0.0320165   0.0000019  -0.0000131  -0.6941116   0.6651428
12.9542018   -0.9976505  -0.0049232   0.0018666   0.0324574   0.0000027   0.0000004  -0.6903715   0.6689079
13.1134509   -0.9977906  -0.0049259   0.0019339   0.0328251  -0.0000100  -0.0000035  -0.6864955   0.6727020
13.2746577   -0.9977428  -0.0050679   0.0017865   0.0331884  -0.0000033  -0.0000037  -0.6825288   0.6765492
13.4378462   -0.9977615  -0.0051337   0.0020310   0.0336043   0.0000116  -0.0000093  -0.6785797   0.6805044
13.6030409   -0.9975832  -0.0051164   0.0019744   0.0340156   0.0000024  -0.0000091  -0.6744924   0.6843455
13.7702663   -0.9976906  -0.0051372   0.0020277   0.0344521  -0.0000078   0.0000053  -0.6703140   0.6882447
13.9395475   -0.9976013  -0.0052945   0.0020807   0.0348028  -0.0000009  -0.0000010  -0.6661352   0.6921232
14.1109097   -0.9976833  -0.0052393   0.0021336   0.0352051  -0.0000038  -0.0000051  -0.6618006   0.6961022
14.2843785   -0.9977320  -0.0054033   0.0021214   0.0356227   0.0000052   0.0000030  -0.6574447   0.7000021
14.4599797   -0.9976881  -0.0054244   0.0021738   0.0361153   0.0000036  -0.0000067  -0.6530176   0.7040575
14.6377397   -0.9977473  -0.0055165   0.0022374   0.0365497  -0.0000093  -0.0000076  -0.6485291   0.7080584
14.8176850   -0.9976914  -0.0055842   0.0022254   0.0369821  -0.0000131   0.0000027  -0.6439510   0.7120446
14.9998423   -0.9977872  -0.0056956   0.0023156   0.0373512  -0.0000022  -0.0000131  -0.6392536   0.7161155
15.1842390   -0.9977856  -0.0056962   0.0022919   0.0378829  -0.0000130   0.0000049  -0.6344815   0.7202062
15.3709024   -0.9977709  -0.0057619   0.0023495   0.0383706  -0.0000048   0.0000017  -0.6297241   0.7242485
15.5598606   -0.9977449  -0.0058791   0.0023846   0.0387811  -0.0000054  -0.0000108  -0.6248621   0.7283607
15.7511417   -0.9977206  -0.0058798   0.0024407   0.0392758   0.0000019  -0.0000063  -0.6198680   0.7325479
15.9447743   -0.9977098  -0.0059099   0.0024475   0.0397084   0.0000020  -0.0000005  -0.6148227   0.7366409
16.1407872   -0.9977680  -0.0060421   0.0025181   0.0402262  -0.0000153  -0.0000110  -0.6095775   0.7408179
16.3392097   -0.9978442  -0.0061197   0.0025557   0.0406138  -0.0000056   0.0000011  -0.6043237   0.7450111
16.5400716   -0.9978414  -0.0061521   0.0026021   0.0411948  -0.0000077   0.0000002  -0.5990279   0.7492048
16.7434026   -0.9977631  -0.0063128   0.0026976   0.0416718  -0.0000112  -0.0000024  -0.5935454   0.7533613
16.9492333   -0.9978313  -0.0062832   0.0027009   0.0421688   0.0000049   0.0000022  -0.5880423   0.7577115
17.1575942   -0.9978366  -0.0063049   0.0027346   0.0426924  -0.0000039   0.0000064  -0.5824226   0.7618352
17.3685166   -0.9977511  -0.0063977   0.0027736   0.0431605  -0.0000002   0.0000013  -0.5767305   0.7661086
17.5820320   -0.9977908  -0.0065425   0.0028419   0.0435572  -0.0000036  -0.0000010  -0.5708657   0.7702965
17.7981721   -0.9977664  -0.0066413   0.0028602   0.0442502  -0.0000008  -0.0000063  -0.5649477   0.7746078
18.0169693   -0.9976933  -0.0067168   0.0029156   0.0447750  -0.0000148   0.0000015  -0.5589829   0.7788677
18.2384562   -0.9978423  -0.0067610   0.0029384   0.0453467  -0.0000088  -0.0000066  -0.5528978   0.7832294
18.4626659   -0.9977977  -0.0068594   0.0030288   0.0458576   0.0000017  -0.0000043  -0.5466180   0.7874117
18.6896319   -0.9977262  -0.0069449   0.0030533   0.0464494  -0.0000066   0.0000047  -0.5403799   0.7916946
18.9193880   -0.9978185  -0.0069273   0.0031350   0.0469996  -0.0000040  -0.0000020  -0.5338648   0.7960754
19.1519686   -0.9978096  -0.0071998   0.0032559   0.0475287   0.0000009  -0.0000067  -0.5272533   0.8003731
19.3874083   -0.9979435  -0.0072638   0.0032435   0.0481167  -0.0000090  -0.0000072  -0.5205907   0.8046701
19.6257423   -0.9978142  -0.0072457   0.0033209   0.0486029  -0.0000034  -0.0000054  -0.5139282   0.8090026
19.8670063   -0.9978903  -0.0073796   0.0033780   0.0492786  -0.0000003  -0.0000053  -0.5070653   0.8132444
20.1112361   -0.9979927  -0.0074316   0.0034676   0.0498829   0.0000014   0.0000039  -0.5000667   0.8175503
20.3584684   -0.9979811  -0.0075250   0.0034832   0.0504523  -0.0000109  -0.0000031  -0.4928451   0.8218131
20.6087399   -0.9979361  -0.0076056   0.0035846   0.0510526   0.0000064  -0.0000074  -0.4856078   0.8260492
20.8620881   -0.9977875  -0.0077455   0.0036441   0.0516699  -0.0000070   0.0000015  -0.4781752   0.8303917
21.1185507   -0.9978964  -0.0078676   0.0037043   0.0522914  -0.0000055   0.0000029  -0.4706816   0.8346281
21.3781661   -0.9978755  -0.0079667   0.0037927   0.0529037  -0.0000035  -0.0000010  -0.4630449   0.8387695
21.6409730   -0.9978134  -0.0079480   0.0038526   0.0535381  -0.0000039  -0.0000078  -0.4552968   0.8429882
21.9070107   -0.9978191  -0.0081057   0.0039064   0.0541091  -0.0000070   0.0000040  -0.4474480   0.8472129
22.1763188   -0.9979333  -0.0082353   0.0039263   0.0548746  -0.0000040   0.0000040  -0.4393970   0.8514093
22.4489376   -0.9978575  -0.0082272   0.0040684   0.0554994  -0.0000043  -0.0000038  -0.4312338   0.8556008
22.7249077   -0.9979567  -0.0082737   0.0041130   0.0561473  -0.0000006  -0.0000028  -0.4229033   0.8597198
23.0042705   -0.9979379  -0.0085109   0.0041738   0.0567849  -0.0000025   0.0000032  -0.4144679   0.8638397
23.2870675   -0.9979093  -0.0085749   0.0043153   0.0575555  -0.0000063   0.0000051  -0.4059703   0.8679089
23.5733409   -0.9980273  -0.0086237   0.0043786   0.0582219  -0.0000101  -0.0000119  -0.3971808   0.8719871
23.8631337   -0.9978882  -0.0088416   0.0044526   0.0589365  -0.0000095   0.0000009  -0.3882574   0.8759217
24.1564889   -0.9980098  -0.0088888   0.0045033   0.0595818  -0.0000145   0.0000020  -0.3793041   0.8799030
24.4534504   -0.9979323  -0.0090161   0.0045892   0.0603411  -0.0000039  -0.0000033  -0.3701540   0.8837846
24.7540625   -0.9978882  -0.0091205   0.0047031   0.0611082  -0.0000011  -0.0000056  -0.3608652   0.8877116
25.0583701   -0.9980133  -0.0091238   0.0047378   0.0618129   0.0000015  -0.0000007  -0.3513553   0.8915770
25.3664186   -0.9979503  -0.0092905   0.0048203   0.0624326  -0.0000058  -0.0000061  -0.3416299   0.8953736
25.6782541   -0.9979136  -0.0093027   0.0049558   0.0633306   0.0000039  -0.0000031  -0.3318719   0.8991532
25.9939230   -0.9979339  -0.0094817   0.0050231   0.0641051  -0.0000041  -0.0000050  -0.3219447   0.9027781
26.3134725   -0.9980369  -0.0095777   0.0051472   0.0648651   0.0000036  -0.0000035  -0.3118192   0.9063520
26.6369503   -0.9978817  -0.0097243   0.0051929   0.0656573  -0.0000030  -0.0000139  -0.3015927   0.9099376
26.9644047   -0.9980290  -0.0099092   0.0053375   0.0664241   0.0000019   0.0000037  -0.2911556   0.9134289
27.2958846   -0.9979659  -0.0100065   0.0054472   0.0672201  -0.0000076   0.0000021  -0.2805167   0.9167797
27.6314394   -0.9980060  -0.0101340   0.0055576   0.0680864  -0.0000017  -0.0000051  -0.2698048   0.9201340
27.9711193   -0.9979303  -0.0102146   0.0056426   0.0689066   0.0000071  -0.0000031  -0.2588429   0.9232956
28.3149750   -0.9980092  -0.0103299   0.0056588   0.0697190   0.0000039  -0.0000051  -0.2477763   0.9264440
28.6630578   -0.9980526  -0.0104855   0.0058729   0.0706606  -0.0000087  -0.0000003  -0.2365017   0.9294491
29.0154196   -0.9980125  -0.0106372   0.0059824   0.0714721  -0.0000064  -0.0000030  -0.2250419   0.9323611
29.3721131   -0.9980598  -0.0107244   0.0061387   0.0723682   0.0000014  -0.0000039  -0.2134533   0.9351741
29.7331915   -0.9979937  -0.0108368   0.0062844   0.0731862  -0.0000054  -0.0000036  -0.2016027   0.9379710
30.0987087   -0.9979399  -0.0109997   0.0063737   0.0741109  -0.0000033   0.0000123  -0.1897006   0.9405994
30.4687194   -0.9979979  -0.0109789   0.0065468   0.0749621  -0.0000021  -0.0000058  -0.1775500   0.9431766
30.8432786   -0.9980843  -0.0112442   0.0066894   0.0759380  -0.0000102   0.0000030  -0.1652043   0.9454509
31.2224424   -0.9980979  -0.0113414   0.0068428   0.0768416   0.0000061   0.0000027  -0.1527992   0.9476807
31.6062674   -0.9980834  -0.0115031   0.0069671   0.0776606  -0.0000091  -0.0000072  -0.1400337   0.9498177
31.9948108   -0.9981474  -0.0115769   0.0071535   0.0786636   0.0000000   0.0000043  -0.1271896   0.9518871
32.3881306   -0.9982008  -0.0117088   0.0073302   0.0794890  -0.0000007  -0.0000042  -0.1141830   0.9537462
32.7862857   -0.9980834  -0.0118015   0.0074302   0.0804287  -0.0000070  -0.0000062  -0.1009629   0.9553778
33.1893353   -0.9981580  -0.0119623   0.0075610   0.0813008  -0.0000018  -0.0000006  -0.0875903   0.9570247
33.5973398   -0.9980984  -0.0120378   0.0076441   0.0822357   0.0000037  -0.0000116  -0.0740442   0.9583378
34.0103599   -0.9981843  -0.0122114   0.0076673   0.0833200  -0.0000011   0.0000036  -0.0602129   0.9594876
34.4284574   -0.9981708  -0.0123756   0.0076068   0.0844898  -0.0000075  -0.0000028  -0.0465159   0.9606917
34.8516946   -0.9981217  -0.0125934   0.0078053   0.0857097  -0.0000053   0.0000028  -0.0322434   0.9616950
35.2801349   -0.9980874  -0.0128210   0.0082527   0.0867795  -0.0000032  -0.0000036  -0.0177784   0.9624635
35.7138420   -0.9982192  -0.0129400   0.0084795   0.0878151  -0.0000069  -0.0000060  -0.0032039   0.9628964
36.1528808   -0.9981841  -0.0131254   0.0086047   0.0887264  -0.0000086  -0.0000063   0.0115347   0.9632563
36.5973168   -0.9981882  -0.0132212   0.0089046   0.0899246   0.0000000  -0.0000055   0.0264333   0.9633738
37.0472164   -0.9982857  -0.0133680   0.0090552   0.0910628  -0.0000010  -0.0000025   0.0415912   0.9631242
37.5026467   -0.9981177  -0.0135602   0.0093577   0.0921653   0.0000005  -0.0000051   0.0569194   0.9628974
37.9636757   -0.9982278  -0.0137984   0.0097494   0.0931441  -0.0000025  -0.0000048   0.0726387   0.9619464
38.4303722   -0.9983307  -0.0138604   0.0099369   0.0942799   0.0000012  -0.0000023   0.0881824   0.9611452
38.9028060   -0.9982474  -0.0138860   0.0101954   0.0952538   0.0000032   0.0000041   0.1040381   0.9599848
39.3810475   -0.9983911  -0.0141419   0.0103458   0.0964132  -0.0000019   0.0000034   0.1201362   0.9586652
39.8651681   -0.9983241  -0.0142842   0.0105746   0.0975723  -0.0000008   0.0000047   0.1362896   0.9569852
40.3552402   -0.9983703  -0.0144366   0.0107700   0.0987459   0.0000052   0.0000025   0.1527017   0.9550329
40.8513368   -0.9984323  -0.0145366   0.0110292   0.0999153  -0.0000009  -0.0000083   0.1693457   0.9526915
41.3535320   -0.9983702  -0.0147567   0.0112191   0.1010134  -0.0000069  -0.0000035   0.1860114   0.9501695
41.8619009   -0.9983847  -0.0149593   0.0115194   0.1021974  -0.0000012   0.0000013   0.2030277   0.9472720
42.3765193   -0.9984134  -0.0150494   0.0117501   0.1034269   0.0000010  -0.0000008   0.2201222   0.9440599
42.8974639   -0.9983227  -0.0152228   0.0119611   0.1045710  -0.0000026   0.0000052   0.2373514   0.9404513
43.4248127   -0.9983957  -0.0153882   0.0121923   0.1057871   0.0000010  -0.0000060   0.2547651   0.9366341
43.9586443   -0.9984295  -0.0156373   0.0124565   0.1070446   0.0000045  -0.0000092   0.2723270   0.9323410
44.4990385   -0.9983637  -0.0157224   0.0126769   0.1083065  -0.0000060   0.0000010   0.2900678   0.9276746
45.0460758   -0.9984358  -0.0159877   0.0129469   0.1095431   0.0000030   0.0000042   0.3079234   0.9226692
45.5998380   -0.9984996  -0.0160373   0.0131545   0.1107835  -0.0000014  -0.0000026   0.3258964   0.9172927
46.1604077   -0.9983698  -0.0162914   0.0133979   0.1120409  -0.0000057  -0.0000096   0.3439905   0.9114112
46.7278686   -0.9984927  -0.0164355   0.0135324   0.1132922  -0.0000078  -0.0000061   0.3622095   0.9051561
47.3023055   -0.9983442  -0.0166472   0.0136858   0.1146469  -0.0000035   0.0000063   0.3805383   0.8984954
47.8838040   -0.9983614  -0.0167584   0.0138048   0.1160834   0.0000035  -0.0000116   0.3990787   0.8913030
48.4724511   -0.9982881  -0.0170788   0.0140152   0.1176217  -0.0000043   0.0000037   0.4175483   0.8837820
49.0683345   -0.9982792  -0.0172982   0.0143255   0.1191851  -0.0000065   0.0000016   0.4362200   0.8757527
49.6715433   -0.9983217  -0.0174705   0.0146569   0.1206506  -0.0000056  -0.0000091   0.4548566   0.8672616
50.2821675   -0.9984115  -0.0176884   0.0151310   0.1220656  -0.0000049  -0.0000026   0.4737366   0.8581977
50.9002982   -0.9983370  -0.0177813   0.0153429   0.1233951  -0.0000001  -0.0000023   0.4925113   0.8486204
51.5260277   -0.9983552  -0.0180473   0.0155057   0.1248059   0.0000016  -0.0000145   0.5114078   0.8386844
52.1594495   -0.9983343  -0.0182996   0.0156485   0.1263552   0.0000007  -0.0000111   0.5302185   0.8281260
52.8006581   -0.9982025  -0.0184228   0.0157434   0.1280341   0.0000019  -0.0000070   0.5491565   0.8169084
53.4497492   -0.9982060  -0.0186967   0.0161542   0.1298295   0.0000038  -0.0000035   0.5682259   0.8053365
54.1068198   -0.9982461  -0.0190076   0.0166958   0.1317457   0.0000014  -0.0000070   0.5870810   0.7931806
54.7719678   -0.9983771  -0.0192220   0.0172276   0.1332550  -0.0000080  -0.0000108   0.6059003   0.7804755
55.4452927   -0.9982892  -0.0194194   0.0176037   0.1345658  -0.0000031   0.0000036   0.6248029   0.7668483
56.1268950   -0.9982246  -0.0195593   0.0175707   0.1362095  -0.0000012  -0.0000006   0.6436129   0.7528409
56.8168763   -0.9982352  -0.0198612   0.0178430   0.1382173  -0.0000113  -0.0000002   0.6623330   0.7382715
57.5153398   -0.9982428  -0.0202147   0.0182742   0.1403112  -0.0000006  -0.0000099   0.6809259   0.7230836
58.2223896   -0.9982244  -0.0204238   0.0190813   0.1422184   0.0000062  -0.0000063   0.6993919   0.7071741
58.9381314   -0.9983656  -0.0207450   0.0198861   0.1437654   0.0000077  -0.0000018   0.7177304   0.6906869
59.6626719   -0.9983969  -0.0208500   0.0202604   0.1453438   0.0000018  -0.0000044   0.7358872   0.6734457
60.3961194   -0.9984511  -0.0211913   0.0207256   0.1469610  -0.0000076  -0.0000076   0.7539451   0.6555725
61.1385834   -0.9982809  -0.0213548   0.0210589   0.1487341   0.0000077  -0.0000151   0.7717916   0.6369847
61.8901746   -0.9983209  -0.0216141   0.0215511   0.1507284  -0.0000007  -0.0000055   0.7892939   0.6177425
62.6510053   -0.9984023  -0.0217645   0.0221224   0.1523005  -0.0000042  -0.0000129   0.8065969   0.5978861
63.4211891   -0.9983098  -0.0220574   0.0223056   0.1540467  -0.0000005   0.0000010   0.8236544   0.5771804
64.2008409   -0.9982230  -0.0224330   0.0225231   0.1558889  -0.0000013  -0.0000071   0.8403290   0.5559154
64.9900772   -0.9980948  -0.0226606   0.0224226   0.1582476   0.0000060  -0.0000039   0.8567017   0.5338548
65.7890158   -0.9980420  -0.0231766   0.0230516   0.1609255   0.0000066  -0.0000067   0.8726612   0.5111127
66.5977759   -0.9980280  -0.0235413   0.0239804   0.1634515  -0.0000110   0.0000004   0.8881822   0.4875516
67.4164783   -0.9982704  -0.0238433   0.0253316   0.1655377   0.0000024  -0.0000098   0.9034119   0.4632958
68.2452452   -0.9984034  -0.0239889   0.0262704   0.1673242  -0.0000016  -0.0000030   0.9180764   0.4384124
69.0842003   -0.9983920  -0.0242796   0.0271388   0.1692238  -0.0000021  -0.0000152   0.9322427   0.4127304
69.9334689   -0.9984944  -0.0245942   0.0282322   0.1711286  -0.0000106  -0.0000085   0.9455765   0.3863505
70.7931778   -0.9984287  -0.0248414   0.0287466   0.1723242   0.0000082  -0.0000021   0.9591080   0.3591561
71.6634552   -0.9983333  -0.0250738   0.0288678   0.1740684  -0.0000035  -0.0000070   0.9716677   0.3310241
72.5444312   -0.9981639  -0.0252511   0.0289869   0.1762140   0.0000123   0.0000005   0.9836817   0.3023485
73.4362373   -0.9981473  -0.0255668   0.0287315   0.1788440  -0.0000012  -0.0000107   0.9948434   0.2729349
74.3390065   -0.9979882  -0.0259826   0.0298453   0.1815432   0.0000080  -0.0000129   1.0046945   0.2431284
75.2528737   -0.9979692  -0.0263820   0.0304341   0.1843757  -0.0000040  -0.0000102   1.0143737   0.2123149
76.1779753   -0.9980678  -0.0268785   0.0317646   0.1874336  -0.0000051  -0.0000124   1.0232854   0.1808396
77.1144493   -0.9982111  -0.0273101   0.0330830   0.1898181  -0.0000026  -0.0000045   1.0313023   0.1486103
78.0624357   -0.9983704  -0.0276277   0.0346450   0.1919675  -0.0000029  -0.0000080   1.0384154   0.1157628
79.0220759   -0.9983644  -0.0278757   0.0359362   0.1937183   0.0000002  -0.0000036   1.0445212   0.0821697
79.9935132   -0.9984624  -0.0280270   0.0366170   0.1952873   0.0000041  -0.0000131   1.0496229   0.0480313
80.9768926   -0.9983648  -0.0281562   0.0368184   0.1972637  -0.0000064  -0.0000116   1.0537186   0.0132410
81.9723609   -0.9980718  -0.0286032   0.0366596   0.1997606   0.0000053  -0.0000071   1.0567157  -0.0222640
82.9800667   -0.9978192  -0.0290078   0.0369890   0.2033198  -0.0000016  -0.0000180   1.0586042  -0.0582525
84.0001605   -0.9976353  -0.0297584   0.0378677   0.2072183   0.0000053  -0.0000160   1.0593000  -0.0947391
85.0327946   -0.9978113  -0.0304709   0.0399357   0.2110544   0.0000022  -0.0000081   1.0586965  -0.1319093
86.0781231   -0.9982285  -0.0310000   0.0425318   0.2135565   0.0000029  -0.0000101   1.0568105  -0.1694968
87.1363020   -0.9984531  -0.0313465   0.0445766   0.2160167   0.0000048  -0.0000041   1.0536046  -0.2074041
88.2074894   -0.9986136  -0.0315919   0.0466650   0.2177899  -0.0000051  -0.0000155   1.0489040  -0.2458368
89.2918452   -0.9988854  -0.0318326   0.0482922   0.2198886  -0.0000005  -0.0000021   1.0430306  -0.2849234
90.3895312   -0.9990456  -0.0320182   0.0496470   0.2215976  -0.0000024  -0.0000180   1.0355088  -0.3237174
91.5007114   -0.9990259  -0.0320827   0.0508018   0.2232592  -0.0000084  -0.0000163   1.0264270  -0.3630294
92.6255515   -0.9989848  -0.0323874   0.0516851   0.2250391  -0.0000034  -0.0000041   1.0155656  -0.4024850
93.7642195   -0.9988512  -0.0326546   0.0522822   0.2276937  -0.0000052  -0.0000188   1.0031624  -0.4420937
94.9168855   -0.9987759  -0.0331432   0.0533503   0.2306500  -0.0000125  -0.0000104   0.9892346  -0.4818269
96.0837215   -0.9987630  -0.0335019   0.0549262   0.2331378  -0.0000039  -0.0000178   0.9734644  -0.5215695
97.2649017   -0.9986405  -0.0337554   0.0560508   0.2353834  -0.0000004  -0.0000104   0.9559370  -0.5609835
98.4606024   -0.9987316  -0.0340883   0.0567173   0.2378666  -0.0000038  -0.0000064   0.9365502  -0.6005025
99.6710021   -0.9983902  -0.0342630   0.0573306   0.2406804  -0.0000145  -0.0000062   0.9153443  -0.6396754
100.8962816  -0.9981907  -0.0347440   0.0580253   0.2438778  -0.0000102  -0.0000124   0.8922365  -0.6784421
102.1366237  -0.9980666  -0.0354648   0.0587353   0.2475998   0.0000052  -0.0000179   0.8671283  -0.7166929
103.3922136  -0.9977432  -0.0361325   0.0598961   0.2522249  -0.0000096  -0.0000112   0.8401955  -0.7544722
104.6632389  -0.9979593  -0.0369625   0.0630026   0.2564338  -0.0000105  -0.0000055   0.8113415  -0.7912682
105.9498891  -0.9984381  -0.0371549   0.0657150   0.2592689  -0.0000069  -0.0000089   0.7803574  -0.8250929
107.2523564  -0.9989526  -0.0379858   0.0704762   0.2612496  -0.0000016  -0.0000085   0.7458400  -0.8653272
108.5708353  -0.9988669  -0.0381575   0.0724789   0.2627758  -0.0000106  -0.0000041   0.7121824  -0.8993932
109.9055225  -0.9980915  -0.0378798   0.0701009   0.2630233   0.0000076  -0.0000064   0.6774515  -0.9319120
111.2566174  -0.9986467  -0.0383819   0.0738257   0.2671712  -0.0000017  -0.0000120   0.6366632  -0.9623526
112.6243216  -0.9986165  -0.0385998   0.0750641   0.2695442   0.0000017  -0.0000150   0.5956314  -0.9930429
114.0088393  -0.9983580  -0.0389874   0.0762252   0.2723166  -0.0000127  -0.0000032   0.5528684  -1.0220177
115.4103773  -0.9981952  -0.0392362   0.0771954   0.2751569  -0.0000076  -0.0000214   0.5080600  -1.0493846
116.8291446  -0.9980060  -0.0395538   0.0779565   0.2783096   0.0000125  -0.0000049   0.4616156  -1.0748125
118.2653533  -0.9976022  -0.0399052   0.0787335   0.2812916  -0.0000004  -0.0000118   0.4131618  -1.0983546
119.7192175  -0.9969441  -0.0404066   0.0788660   0.2851771  -0.0000147  -0.0000006   0.3630310  -1.1198741
121.1909545  -0.9965951  -0.0408962   0.0795713   0.2893894  -0.0000096  -0.0000137   0.3112472  -1.1389094
122.6807839  -0.9961312  -0.0416779   0.0800131   0.2942856  -0.0000186  -0.0000183   0.2578829  -1.1556283
124.1889281  -0.9955741  -0.0427181   0.0812519   0.3004228   0.0000025  -0.0000021   0.2030196  -1.1697805
125.7156123  -0.9952021  -0.0437311   0.0825923   0.3063264  -0.0000108  -0.0000053   0.1468018  -1.1813263
127.2610644  -0.9949598  -0.0451499   0.0865264   0.3126939  -0.0000061  -0.0000096   0.0899457  -1.1898236
128.8255151  -0.9952380  -0.0462387   0.0901708   0.3186442  -0.0000125  -0.0000101   0.0310541  -1.1954536
130.4091980  -0.9951738  -0.0473529   0.0945205   0.3240965  -0.0000132  -0.0000125  -0.0282397  -1.1979713
132.0123495  -0.9956183  -0.0484025   0.0995356   0.3287293  -0.0000062  -0.0000027  -0.0885005  -1.1971293
133.6352088  -0.9959996  -0.0493235   0.1040697   0.3329881  -0.0000239  -0.0000059  -0.1491135  -1.1931309
135.2780184  -0.9963881  -0.0501860   0.1094264   0.3369479  -0.0000031  -0.0000057  -0.2103454  -1.1854267
136.9410235  -0.9968369  -0.0509909   0.1141381   0.3404082  -0.0000093  -0.0000137  -0.2717939  -1.1740384
138.6244722  -0.9972931  -0.0516699   0.1187832   0.3433580  -0.0000096  -0.0000023  -0.3330388  -1.1591738
140.3286160  -0.9974079  -0.0523302   0.1230709   0.3462481  -0.0000127  -0.0000127  -0.3943408  -1.1406394
142.0537093  -0.9973219  -0.0529546   0.1274154   0.3491585  -0.0000183  -0.0000196  -0.4577303  -1.1193078
143.8000095  -0.9980682  -0.0527359   0.1315349   0.3520723  -0.0000058   0.0000000  -0.5114804  -1.0920313
145.5677774  -0.9992628  -0.0538119   0.1359493   0.3559315   0.0000058  -0.0000122  -0.5686752  -1.0596310
147.3572769  -0.9984479  -0.0545188   0.1395797   0.3579586  -0.0000021  -0.0000169  -0.6296031  -1.0274029
149.1687752  -0.9984449  -0.0546845   0.1435850   0.3610284   0.0000015  -0.0000091  -0.6842854  -0.9897038
151.0025426  -0.9987364  -0.0556108   0.1474731   0.3638447  -0.0000053  -0.0000193  -0.7376444  -0.9478988
152.8588530  -0.9986795  -0.0559395   0.1513419   0.3668470  -0.0000013  -0.0000092  -0.7884430  -0.9023780
154.7379834  -0.9986817  -0.0564714   0.1553981   0.3703085  -0.0000086  -0.0000110  -0.8368112  -0.8532143
156.6402144  -0.9987535  -0.0570792   0.1594425   0.3732874  -0.0000084  -0.0000061  -0.8822036  -0.8005717
158.5658301  -0.9988367  -0.0577271   0.1635211   0.3767882  -0.0000037   0.0000147  -0.9241073  -0.7445390
160.5151177  -0.9989185  -0.0583427   0.1676700   0.3796624   0.0000014  -0.0000065  -0.9630209  -0.6849737
162.4883685  -0.9987170  -0.0591156   0.1720200   0.3837726   0.0000013  -0.0000028  -0.9967976  -0.6237559
164.4858769  -0.9988000  -0.0595099   0.1762536   0.3864663   0.0000046  -0.0000033  -1.0278789  -0.5582318
166.5079411  -0.9991379  -0.0603489   0.1805980   0.3897233  -0.0000070  -0.0000102  -1.0539276  -0.4910024
168.5548630  -0.9989187  -0.0608488   0.1848534   0.3926680  -0.0000107   0.0000016  -1.0755896  -0.4214285
170.6269483  -0.9988465  -0.0616299   0.1890160   0.3953372  -0.0000006  -0.0000172  -1.0920161  -0.3500769
172.7245062  -0.9989886  -0.0623897   0.1934546   0.3989520   0.0000046  -0.0000030  -1.1035268  -0.2774294
174.8478498  -0.9987262  -0.0631148   0.1983004   0.4031092   0.0000061  -0.0000036  -1.1094082  -0.2032648
176.9972963  -0.9987045  -0.0640850   0.2029154   0.4066060   0.0000235  -0.0000062  -1.1102204  -0.1277967
179.1731664  -0.9990593  -0.0652134   0.2079103   0.4134687  -0.0000187  -0.0000088  -1.1019377  -0.0580540
181.3757850  -0.9991351  -0.0652318   0.2145327   0.4121067  -0.0000020  -0.0000058  -1.0923748   0.0172629
183.6054809  -0.9986077  -0.0667043   0.2173333   0.4171471  -0.0000115  -0.0000014  -1.0773858   0.0954521
185.8625870  -0.9985326  -0.0674686   0.2227338   0.4207714  -0.0000271  -0.0000083  -1.0548059   0.1676861
188.1474402  -0.9985578  -0.0685636   0.2281976   0.4243410  -0.0000045  -0.0000041  -1.0266452   0.2388777
190.4603817  -0.9985272  -0.0694534   0.2335433   0.4273214  -0.0000241  -0.0000166  -0.9928692   0.3077410
192.8017567  -0.9983673  -0.0705651   0.2388924   0.4305568   0.0000113  -0.0000080  -0.9528826   0.3737659
195.1719148  -0.9983216  -0.0718001   0.2445774   0.4344631  -0.0000411   0.0000164  -0.9079903   0.4365081
197.5712099  -0.9988044  -0.0732355   0.2508231   0.4372410   0.0000064  -0.0000064  -0.8584258   0.4960860
200.0000000  -0.9994320  -0.0753585   0.2553920   0.4395219  -0.0000129  -0.0000066  -0.8026131   0.5505821
