! ListType=Log
# MHZ S RI R 50
0.0010000    -0.9967488  -0.0005553  -0.0001888   0.0004579  -0.0000115  -0.0000299  -0.9088780   0.2599563
0.0010123    -0.9972876   0.0007802   0.0001594   0.0006185   0.0000121  -0.0000287  -0.9094622   0.2603417
0.0010247    -0.9973767  -0.0018680  -0.0009628  -0.0000196  -0.0000157   0.0000266  -0.9095897   0.2591301
0.0010373    -0.9971780  -0.0003710   0.0002428   0.0005635  -0.0000085  -0.0000056  -0.9097936   0.2598523
0.0010501    -0.9955788  -0.0004600  -0.0017452   0.0002753  -0.0000136  -0.0000118  -0.9091506   0.2596915
0.0010630    -0.9976181   0.0005138  -0.0000885   0.0010707   0.0000229   0.0000125  -0.9105505   0.2595735
0.0010761    -0.9975158  -0.0011434  -0.0001748   0.0004259  -0.0000149   0.0000095  -0.9107037   0.2587981
0.0010893    -0.9968532   0.0008569   0.0003568  -0.0015334   0.0000198  -0.0000037  -0.9110865   0.2599258
0.0011027    -0.9974210  -0.0004248  -0.0006297  -0.0006213   0.0000030  -0.0000187  -0.9110775   0.2587990
0.0011162    -0.9986292  -0.0011269  -0.0006262   0.0000231  -0.0000056   0.0000030  -0.9120701   0.2584382
0.0011300    -0.9966006  -0.0009940  -0.0005195   0.0001262  -0.0000259  -0.0000173  -0.9112969   0.2587179
0.0011439    -0.9970080   0.0008203   0.0001400  -0.0005161   0.0000190  -0.0000020  -0.9120502   0.2590832
0.0011579    -0.9973594  -0.0017341   0.0002007   0.0005718  -0.0000080   0.0000011  -0.9120575   0.2578675
0.0011721    -0.9973173  -0.0000839  -0.0003972   0.0006722   0.0000114  -0.0000118  -0.9124015   0.2585311
0.0011866    -0.9962569  -0.0006672  -0.0003804  -0.0001166  -0.0000454  -0.0000152  -0.9122040   0.2582435
0.0012011    -0.9973046  -0.0003471  -0.0001966   0.0007525  -0.0000151   0.0000003  -0.9128818   0.2582597
0.0012159    -0.9980818   0.0005621  -0.0003283   0.0003521   0.0000208   0.0000031  -0.9136437   0.2584854
0.0012309    -0.9976930  -0.0010037  -0.0000177   0.0003658   0.0000094   0.0000109  -0.9137401   0.2577885
0.0012460    -0.9964252  -0.0001764   0.0000572   0.0001249  -0.0000062  -0.0000060  -0.9134154   0.2581256
0.0012613    -0.9979390  -0.0001261  -0.0003453   0.0007404   0.0000269  -0.0000021  -0.9147353   0.2579363
0.0012768    -0.9969336  -0.0006878  -0.0004502   0.0003729  -0.0000207   0.0000053  -0.9141770   0.2576231
0.0012925    -0.9973085   0.0002032  -0.0005551  -0.0003024   0.0000140   0.0000076  -0.9151106   0.2580592
0.0013084    -0.9970474  -0.0008425  -0.0004923   0.0001595  -0.0000049   0.0000097  -0.9149123   0.2575421
0.0013245    -0.9975951   0.0006659  -0.0004109   0.0004708   0.0000181  -0.0000016  -0.9155488   0.2580240
0.0013408    -0.9969383  -0.0006819   0.0000470   0.0004213   0.0000024  -0.0000096  -0.9153819   0.2572752
0.0013572    -0.9981064   0.0003601  -0.0000415   0.0001557   0.0000187   0.0000077  -0.9163567   0.2576933
0.0013739    -0.9971659  -0.0002862  -0.0004036   0.0006031   0.0000133   0.0000164  -0.9162218   0.2575399
0.0013908    -0.9981631   0.0001202  -0.0005049   0.0004106   0.0000136   0.0000045  -0.9169530   0.2576089
0.0014079    -0.9969086  -0.0003888  -0.0003457   0.0010577  -0.0000214  -0.0000005  -0.9167295   0.2573538
0.0014252    -0.9977654   0.0001109  -0.0003475   0.0001437   0.0000186   0.0000247  -0.9176592   0.2572531
0.0014427    -0.9969751  -0.0004166  -0.0001059   0.0003217  -0.0000097  -0.0000156  -0.9173659   0.2571991
0.0014605    -0.9975590   0.0001239   0.0003146   0.0004688   0.0000009  -0.0000180  -0.9180822   0.2573986
0.0014784    -0.9969619  -0.0009510  -0.0001394   0.0006926  -0.0000049   0.0000082  -0.9178605   0.2569127
0.0014966    -0.9972081   0.0003042  -0.0004366  -0.0000829   0.0000002  -0.0000287  -0.9186111   0.2574162
0.0015150    -0.9980542  -0.0004300  -0.0005209   0.0007826   0.0000270   0.0000241  -0.9189818   0.2573396
0.0015336    -0.9972697  -0.0005912  -0.0001429  -0.0001345  -0.0000074  -0.0000028  -0.9190102   0.2570696
0.0015525    -0.9963978  -0.0004309   0.0000257   0.0008892  -0.0000076  -0.0000167  -0.9190290   0.2573496
0.0015716    -0.9971143  -0.0005948  -0.0003612   0.0002517   0.0000126  -0.0000211  -0.9196280   0.2571869
0.0015909    -0.9970802   0.0003450   0.0002401   0.0006387   0.0000100  -0.0000345  -0.9199847   0.2575694
0.0016104    -0.9972061  -0.0007785   0.0000161   0.0002347  -0.0000243   0.0000094  -0.9203199   0.2569523
0.0016302    -0.9970688  -0.0001263   0.0000157   0.0005091   0.0000135  -0.0000063  -0.9203642   0.2573044
0.0016503    -0.9979365   0.0002744  -0.0000816   0.0006486   0.0000088  -0.0000100  -0.9213751   0.2574882
0.0016706    -0.9971685  -0.0006755  -0.0003479   0.0000686   0.0000033  -0.0000045  -0.9211996   0.2574022
0.0016911    -0.9977228  -0.0008705  -0.0000139   0.0005119  -0.0000210  -0.0000159  -0.9218180   0.2570958
0.0017119    -0.9970220   0.0001027   0.0003822   0.0005250  -0.0000161  -0.0000298  -0.9218589   0.2574357
0.0017329    -0.9976398  -0.0002131  -0.0000095   0.0004630  -0.0000031   0.0000134  -0.9220861   0.2573962
0.0017542    -0.9977198  -0.0008315  -0.0002155   0.0004172   0.0000071   0.0000175  -0.9225671   0.2571541
0.0017758    -0.9973183  -0.0003504   0.0004979   0.0005310  -0.0000018  -0.0000029  -0.9227763   0.2574617
0.0017976    -0.9978266  -0.0004470  -0.0002706   0.0001995   0.0000059  -0.0000063  -0.9233452   0.2574793
0.0018197    -0.9968826  -0.0007120   0.0001265   0.0005285  -0.0000150  -0.0000040  -0.9231438   0.2573279
0.0018421    -0.9974429  -0.0000854  -0.0000741   0.0003197   0.0000151  -0.0000070  -0.9238326   0.2577191
0.0018648    -0.9971591  -0.0005869  -0.0004100   0.0002982  -0.0000028   0.0000040  -0.9239003   0.2574820
0.0018877    -0.9967064  -0.0003459  -0.0003486   0.0004662  -0.0000105  -0.0000158  -0.9239804   0.2577066
0.0019109    -0.9975422  -0.0005717  -0.0002750   0.0006063  -0.0000036   0.0000066  -0.9248491   0.2579357
0.0019344    -0.9970964  -0.0006258  -0.0002068   0.0001078  -0.0000050  -0.0000064  -0.9247153   0.2577397
0.0019582    -0.9965911  -0.0005257   0.0004679   0.0005467   0.0000018  -0.0000051  -0.9248236   0.2579512
0.0019822    -0.9975794  -0.0000508   0.0005866   0.0000294   0.0000061   0.0000007  -0.9256894   0.2580907
0.0020066    -0.9972661  -0.0001394   0.0013083   0.0005386   0.0000030   0.0000010  -0.9257598   0.2582423
0.0020313    -0.9977346  -0.0002664  -0.0005872   0.0006555   0.0000072   0.0000076  -0.9261621   0.2581689
0.0020562    -0.9976021  -0.0005844  -0.0001356   0.0006482  -0.0000161  -0.0000018  -0.9265384   0.2580705
0.0020815    -0.9968915  -0.0003673  -0.0003028   0.0003262   0.0000003  -0.0000015  -0.9265952   0.2584793
0.0021071    -0.9972915  -0.0005728   0.0005678   0.0001918  -0.0000104  -0.0000033  -0.9270215   0.2585237
0.0021330    -0.9971088  -0.0001543   0.0000707  -0.0001936  -0.0000010  -0.0000229  -0.9272019   0.2587586
0.0021592    -0.9973138   0.0001026   0.0000555  -0.0000907  -0.0000025  -0.0000190  -0.9277383   0.2588852
0.0021858    -0.9978615  -0.0006611   0.0000746   0.0008543  -0.0000026  -0.0000044  -0.9279115   0.2586740
0.0022126    -0.9970716  -0.0003568  -0.0000111   0.0008181  -0.0000054  -0.0000144  -0.9280733   0.2590422
0.0022398    -0.9974593  -0.0002800  -0.0003633   0.0002376  -0.0000122   0.0000062  -0.9283379   0.2590142
0.0022674    -0.9973324  -0.0002866   0.0000093   0.0002454   0.0000047  -0.0000181  -0.9287816   0.2593020
0.0022953    -0.9974114  -0.0000222  -0.0006582  -0.0000134   0.0000060  -0.0000025  -0.9290308   0.2594769
0.0023235    -0.9977196  -0.0001938  -0.0001735   0.0003041  -0.0000061  -0.0000002  -0.9294341   0.2594680
0.0023520    -0.9972035  -0.0003587   0.0003782  -0.0001575  -0.0000078  -0.0000054  -0.9292532   0.2594361
0.0023809    -0.9975379  -0.0003040   0.0001219   0.0000874  -0.0000079   0.0000077  -0.9299422   0.2596373
0.0024102    -0.9971529  -0.0002892   0.0000668   0.0003088   0.0000131   0.0000064  -0.9298942   0.2598229
0.0024398    -0.9974778  -0.0002583  -0.0003738   0.0004409   0.0000033   0.0000032  -0.9303333   0.2599209
0.0024698    -0.9973102  -0.0002036   0.0000904   0.0005746   0.0000079  -0.0000170  -0.9305707   0.2602177
0.0025002    -0.9973449  -0.0000234  -0.0003411   0.0003471  -0.0000013  -0.0000042  -0.9307198   0.2603729
0.0025309    -0.9970679  -0.0000303   0.0001244   0.0001561  -0.0000087  -0.0000112  -0.9309336   0.2606611
0.0025621    -0.9974808  -0.0001698   0.0001358   0.0001117   0.0000070  -0.0000087  -0.9313972   0.2606534
0.0025935    -0.9975893  -0.0002699  -0.0001726  -0.0000072  -0.0000057  -0.0000035  -0.9316742   0.2605261
0.0026254    -0.9974408  -0.0007210  -0.0002055   0.0002764  -0.0000042  -0.0000026  -0.9317934   0.2605545
0.0026577    -0.9972203  -0.0005995   0.0001450   0.0000664  -0.0000107  -0.0000105  -0.9319015   0.2609742
0.0026904    -0.9972596  -0.0000438  -0.0002231  -0.0000495  -0.0000128  -0.0000062  -0.9320964   0.2613407
0.0027235    -0.9976784  -0.0004216  -0.0002007   0.0000625  -0.0000013  -0.0000137  -0.9327563   0.2611832
0.0027569    -0.9973126  -0.0007913  -0.0002915   0.0002949  -0.0000088  -0.0000033  -0.9327095   0.2612955
0.0027908    -0.9972567  -0.0002281  -0.0002504   0.0004619   0.0000059  -0.0000083  -0.9327881   0.2617246
0.0028251    -0.9974971  -0.0000925   0.0002535   0.0003456   0.0000069   0.0000018  -0.9332618   0.2618815
0.0028599    -0.9976360  -0.0003739  -0.0001456   0.0001673  -0.0000022   0.0000010  -0.9334185   0.2618729
0.0028950    -0.9974490  -0.0006460  -0.0002346   0.0002114   0.0000031   0.0000025  -0.9336124   0.2618484
0.0029306    -0.9971258  -0.0005905  -0.0003091   0.0000965  -0.0000042  -0.0000190  -0.9337557   0.2620064
0.0029666    -0.9973758  -0.0004993  -0.0002824  -0.0002504   0.0000131  -0.0000065  -0.9339990   0.2622600
0.0030031    -0.9973079  -0.0006709   0.0005320   0.0010681  -0.0000049   0.0000133  -0.9341076   0.2625548
0.0030400    -0.9975294  -0.0003702   0.0000830   0.0001084  -0.0000027  -0.0000165  -0.9343379   0.2628196
0.0030774    -0.9974717  -0.0004987   0.0000925  -0.0000806  -0.0000097  -0.0000045  -0.9345217   0.2629743
0.0031152    -0.9974594  -0.0006043   0.0001695  -0.0000409   0.0000102   0.0000018  -0.9348862   0.2629809
0.0031535    -0.9972568  -0.0004158   0.0005042  -0.0007425  -0.0000035  -0.0000120  -0.9349260   0.2633534
0.0031923    -0.9975068   0.0000049  -0.0003588   0.0003185   0.0000126  -0.0000124  -0.9353236   0.2634966
0.0032315    -0.9975228  -0.0003011   0.0000168   0.0000943  -0.0000004  -0.0000064  -0.9355121   0.2636469
0.0032713    -0.9974302  -0.0003152   0.0003733   0.0006301   0.0000023  -0.0000089  -0.9356770   0.2636865
0.0033115    -0.9974711  -0.0003008  -0.0000933   0.0002517   0.0000084  -0.0000006  -0.9357024   0.2639999
0.0033522    -0.9974494   0.0000107  -0.0003200   0.0002094  -0.0000109  -0.0000057  -0.9360229   0.2644064
0.0033934    -0.9975835  -0.0005561  -0.0004616   0.0000524   0.0000014   0.0000021  -0.9362628   0.2642656
0.0034351    -0.9975976  -0.0004084  -0.0000849  -0.0000777  -0.0000013   0.0000084  -0.9364516   0.2645556
0.0034773    -0.9977154  -0.0003070  -0.0001671   0.0003695   0.0000084  -0.0000086  -0.9364323   0.2647053
0.0035201    -0.9976014  -0.0004085  -0.0002828   0.0003396   0.0000056  -0.0000029  -0.9367876   0.2648143
0.0035634    -0.9976370  -0.0006585   0.0000457   0.0002063   0.0000070  -0.0000048  -0.9368663   0.2649771
0.0036072    -0.9976764  -0.0005001  -0.0002317  -0.0002215  -0.0000008  -0.0000046  -0.9369396   0.2652301
0.0036515    -0.9973715  -0.0006446  -0.0001462  -0.0001268  -0.0000051   0.0000044  -0.9372120   0.2655556
0.0036964    -0.9971105  -0.0002331  -0.0002393   0.0003085  -0.0000114   0.0000007  -0.9371598   0.2658447
0.0037418    -0.9974664  -0.0002283  -0.0000656  -0.0000353   0.0000014  -0.0000077  -0.9373776   0.2659021
0.0037878    -0.9973958  -0.0003333  -0.0000592  -0.0000322   0.0000009  -0.0000191  -0.9374859   0.2660117
0.0038344    -0.9974496  -0.0002236  -0.0002939   0.0000630   0.0000059  -0.0000063  -0.9376847   0.2663411
0.0038815    -0.9975911  -0.0003375  -0.0006925  -0.0006694  -0.0000009   0.0000041  -0.9378065   0.2664228
0.0039293    -0.9973964  -0.0005177  -0.0004418   0.0000113   0.0000049  -0.0000071  -0.9379777   0.2663981
0.0039776    -0.9975156  -0.0003006  -0.0014608   0.0014944  -0.0000018  -0.0000120  -0.9381920   0.2668196
0.0040265    -0.9976209  -0.0005009  -0.0008176   0.0016951   0.0000000   0.0000014  -0.9383100   0.2667670
0.0040759    -0.9976651  -0.0002964  -0.0001910   0.0002948  -0.0000007   0.0000008  -0.9384242   0.2671272
0.0041261    -0.9975936  -0.0005306   0.0001806   0.0002057   0.0000015  -0.0000048  -0.9385339   0.2672093
0.0041768    -0.9976790  -0.0002479  -0.0004970  -0.0001326  -0.0000009   0.0000009  -0.9387328   0.2675105
0.0042281    -0.9977417  -0.0003381  -0.0003951   0.0001247   0.0000064  -0.0000054  -0.9388509   0.2677209
0.0042801    -0.9975213  -0.0003066   0.0000768  -0.0000908   0.0000041  -0.0000002  -0.9389324   0.2679158
0.0043327    -0.9976775  -0.0001497  -0.0002738  -0.0004018  -0.0000035  -0.0000042  -0.9390299   0.2683019
0.0043860    -0.9978040  -0.0002820  -0.0000520  -0.0001979  -0.0000025   0.0000091  -0.9392749   0.2683077
0.0044399    -0.9976986  -0.0002049   0.0000856  -0.0002515   0.0000007  -0.0000043  -0.9393379   0.2684832
0.0044945    -0.9977341  -0.0003394  -0.0002541  -0.0000949  -0.0000065  -0.0000034  -0.9394909   0.2686169
0.0045497    -0.9975756  -0.0003322  -0.0001197   0.0000683  -0.0000109  -0.0000034  -0.9394766   0.2688047
0.0046057    -0.9973674  -0.0001441  -0.0002246  -0.0000294  -0.0000053   0.0000049  -0.9395575   0.2689400
0.0046623    -0.9972927  -0.0002403  -0.0000094  -0.0001158   0.0000035  -0.0000071  -0.9395089   0.2692334
0.0047196    -0.9975698  -0.0002741   0.0001027   0.0003288  -0.0000083  -0.0000009  -0.9398293   0.2694102
0.0047776    -0.9976024  -0.0003907   0.0000396   0.0000791   0.0000065  -0.0000104  -0.9398891   0.2695281
0.0048363    -0.9974104  -0.0002376   0.0000295  -0.0000111   0.0000003  -0.0000094  -0.9399332   0.2697804
0.0048958    -0.9974120  -0.0000863  -0.0001767   0.0001682  -0.0000047  -0.0000137  -0.9400721   0.2700554
0.0049560    -0.9976489  -0.0002023  -0.0002188  -0.0001117  -0.0000099  -0.0000067  -0.9402632   0.2701632
0.0050169    -0.9976954  -0.0003666  -0.0003954   0.0003222  -0.0000178   0.0000051  -0.9403351   0.2701639
0.0050786    -0.9976006  -0.0004348  -0.0000475   0.0002020   0.0000062   0.0000011  -0.9403187   0.2703988
0.0051410    -0.9978417  -0.0001806  -0.0000645   0.0000030  -0.0000039  -0.0000105  -0.9404152   0.2706001
0.0052042    -0.9978174  -0.0003076  -0.0002820  -0.0001620   0.0000035  -0.0000032  -0.9405021   0.2708001
0.0052682    -0.9975397  -0.0003551  -0.0002019  -0.0000311   0.0000060  -0.0000054  -0.9406327   0.2710467
0.0053330    -0.9975260  -0.0001700  -0.0002163   0.0000353  -0.0000089  -0.0000088  -0.9406896   0.2711812
0.0053985    -0.9975649  -0.0002678  -0.0004014   0.0000410  -0.0000131  -0.0000073  -0.9407775   0.2713440
0.0054649    -0.9975894  -0.0002907  -0.0002110  -0.0002845   0.0000164  -0.0000018  -0.9409076   0.2714998
0.0055321    -0.9977226  -0.0002727  -0.0001726   0.0000278  -0.0000015  -0.0000112  -0.9409565   0.2716945
0.0056001    -0.9977116  -0.0002395  -0.0001392   0.0002908   0.0000146   0.0000031  -0.9411138   0.2719386
0.0056689    -0.9976769  -0.0002319  -0.0001729   0.0001765  -0.0000082  -0.0000200  -0.9411273   0.2720064
0.0057386    -0.9976403  -0.0002179   0.0001028  -0.0001087   0.0000036  -0.0000155  -0.9411893   0.2721200
0.0058091    -0.9975560  -0.0002147  -0.0000384   0.0000441   0.0000022   0.0000047  -0.9411386   0.2723728
0.0058806    -0.9975898  -0.0003257  -0.0003365  -0.0000678  -0.0000013  -0.0000061  -0.9411190   0.2724188
0.0059529    -0.9975368  -0.0003018  -0.0003923  -0.0000404  -0.0000054  -0.0000104  -0.9412062   0.2727041
0.0060260    -0.9973782  -0.0002784  -0.0001173  -0.0003283  -0.0000053  -0.0000183  -0.9412507   0.2727098
0.0061001    -0.9974531  -0.0002049  -0.0003963  -0.0000372  -0.0000142  -0.0000055  -0.9413455   0.2729546
0.0061751    -0.9973252  -0.0002365  -0.0003139  -0.0000613   0.0000003   0.0000049  -0.9413314   0.2731470
0.0062510    -0.9975510  -0.0002804  -0.0000488  -0.0001250  -0.0000030  -0.0000002  -0.9415101   0.2732916
0.0063279    -0.9978346  -0.0002150  -0.0000962   0.0000004  -0.0000043  -0.0000012  -0.9416430   0.2734560
0.0064056    -0.9977044  -0.0001431  -0.0002533  -0.0000936   0.0000044  -0.0000061  -0.9416371   0.2736081
0.0064844    -0.9975636  -0.0002770  -0.0005961  -0.0002556   0.0000000  -0.0000076  -0.9416977   0.2736701
0.0065641    -0.9974652  -0.0003215  -0.0003522  -0.0002714  -0.0000063  -0.0000193  -0.9415242   0.2737903
0.0066448    -0.9976781  -0.0003178  -0.0003341   0.0000942   0.0000005  -0.0000093  -0.9416728   0.2739591
0.0067265    -0.9975789  -0.0002936  -0.0003985   0.0000749  -0.0000082   0.0000041  -0.9417777   0.2741424
0.0068092    -0.9976194  -0.0002166  -0.0002870  -0.0000442   0.0000036   0.0000010  -0.9418365   0.2743665
0.0068929    -0.9975681  -0.0002118  -0.0004873   0.0000253   0.0000128  -0.0000086  -0.9418909   0.2744498
0.0069776    -0.9977987  -0.0002159   0.0001347   0.0000475   0.0000024  -0.0000116  -0.9420478   0.2746782
0.0070634    -0.9975812  -0.0002374  -0.0000978  -0.0000036   0.0000023  -0.0000052  -0.9419420   0.2748400
0.0071502    -0.9975894  -0.0002726  -0.0001091   0.0000232   0.0000031  -0.0000154  -0.9419125   0.2748555
0.0072381    -0.9974248  -0.0001645  -0.0002331   0.0000489  -0.0000033  -0.0000122  -0.9418756   0.2750367
0.0073271    -0.9974078  -0.0001696  -0.0004108   0.0001118  -0.0000089  -0.0000030  -0.9420109   0.2752536
0.0074172    -0.9975477  -0.0002285   0.0003270   0.0002274   0.0000121  -0.0000083  -0.9421284   0.2753567
0.0075084    -0.9976845  -0.0001978  -0.0009402   0.0009739   0.0000064  -0.0000108  -0.9421577   0.2755385
0.0076007    -0.9976760  -0.0000306  -0.0009407   0.0000254   0.0000004  -0.0000116  -0.9421461   0.2756577
0.0076941    -0.9976816  -0.0001816  -0.0006019   0.0003077  -0.0000021   0.0000084  -0.9421786   0.2759126
0.0077887    -0.9976440  -0.0001310  -0.0003677   0.0001112   0.0000107  -0.0000020  -0.9421820   0.2759312
0.0078844    -0.9975675  -0.0002569  -0.0003396   0.0000213  -0.0000035  -0.0000018  -0.9422685   0.2760016
0.0079814    -0.9974739  -0.0001136  -0.0005911   0.0006003   0.0000006  -0.0000059  -0.9422404   0.2762762
0.0080795    -0.9975418  -0.0003696  -0.0002684  -0.0001183   0.0000058  -0.0000034  -0.9423989   0.2763341
0.0081788    -0.9976196  -0.0000879  -0.0002408  -0.0001231  -0.0000045   0.0000043  -0.9422137   0.2765218
0.0082793    -0.9975249  -0.0001850  -0.0002370   0.0001657  -0.0000005  -0.0000093  -0.9423942   0.2765888
0.0083811    -0.9976676  -0.0003306  -0.0001090   0.0000441  -0.0000037   0.0000070  -0.9423573   0.2767983
0.0084842    -0.9973765  -0.0002134  -0.0001284   0.0001334  -0.0000016   0.0000005  -0.9423313   0.2768930
0.0085885    -0.9976000  -0.0002323  -0.0002865   0.0000747   0.0000015  -0.0000070  -0.9424398   0.2769427
0.0086940    -0.9977501  -0.0000938  -0.0001335   0.0001457   0.0000127  -0.0000141  -0.9423699   0.2771411
0.0088009    -0.9977402  -0.0000965  -0.0002472   0.0001431   0.0000002   0.0000062  -0.9423860   0.2772914
0.0089091    -0.9976172  -0.0000428  -0.0002159   0.0001035   0.0000024  -0.0000112  -0.9423989   0.2774866
0.0090186    -0.9976365  -0.0003452  -0.0006342   0.0000125  -0.0000090  -0.0000046  -0.9424998   0.2774735
0.0091295    -0.9974335  -0.0003167  -0.0003210   0.0001291   0.0000055  -0.0000005  -0.9425199   0.2777457
0.0092417    -0.9976627  -0.0001091  -0.0002141   0.0000277   0.0000093  -0.0000054  -0.9424069   0.2777833
0.0093553    -0.9974667  -0.0002398  -0.0002747   0.0000686   0.0000041  -0.0000095  -0.9424297   0.2779104
0.0094703    -0.9976475  -0.0002278  -0.0002516   0.0001330   0.0000006   0.0000108  -0.9425230   0.2779699
0.0095868    -0.9976484  -0.0001115  -0.0002604   0.0001971  -0.0000033  -0.0000074  -0.9424579   0.2781670
0.0097046    -0.9974327  -0.0002350  -0.0003976  -0.0000812  -0.0000017   0.0000127  -0.9425030   0.2781965
0.0098239    -0.9976389  -0.0000576  -0.0001700  -0.0000529  -0.0000008   0.0000001  -0.9425577   0.2783250
0.0099447    -0.9976191  -0.0003472  -0.0002735   0.0000761  -0.0000004  -0.0000051  -0.9425478   0.2783615
0.0100669    -0.9975631  -0.0002658  -0.0003301   0.0002568  -0.0000093  -0.0000186  -0.9425242   0.2785836
0.0101907    -0.9975781  -0.0000007  -0.0002487   0.0001186  -0.0000033  -0.0000092  -0.9425358   0.2786114
0.0103160    -0.9976216  -0.0003095  -0.0001088  -0.0000037   0.0000116  -0.0000083  -0.9425019   0.2787091
0.0104428    -0.9976933   0.0000278  -0.0002748   0.0001254  -0.0000035   0.0000003  -0.9425838   0.2789201
0.0105712    -0.9976445  -0.0000780  -0.0002470   0.0001485   0.0000088   0.0000015  -0.9425830   0.2789347
0.0107011    -0.9976223  -0.0001227  -0.0000403   0.0001354   0.0000044  -0.0000051  -0.9426090   0.2791118
0.0108327    -0.9976516  -0.0000779  -0.0003030   0.0001278   0.0000012  -0.0000062  -0.9425325   0.2791449
0.0109658    -0.9976113  -0.0001334  -0.0001726   0.0002180  -0.0000070  -0.0000045  -0.9426464   0.2792784
0.0111006    -0.9974450  -0.0000986  -0.0003194   0.0001846  -0.0000041  -0.0000068  -0.9426136   0.2795289
0.0112371    -0.9974428  -0.0002389  -0.0002409   0.0000045  -0.0000054   0.0000003  -0.9426557   0.2794251
0.0113752    -0.9974768  -0.0003063  -0.0001568  -0.0000972  -0.0000107   0.0000007  -0.9425597   0.2795968
0.0115151    -0.9978095  -0.0000405  -0.0003123   0.0000630   0.0000003  -0.0000004  -0.9427017   0.2798539
0.0116566    -0.9974784  -0.0002874  -0.0002601   0.0000676  -0.0000025  -0.0000093  -0.9425976   0.2797545
0.0117999    -0.9977942  -0.0001395  -0.0002749  -0.0000179  -0.0000078  -0.0000039  -0.9426702   0.2800117
0.0119450    -0.9955247  -0.0021587  -0.0002152   0.0000715  -0.0000012   0.0000006  -0.9434624   0.2782170
0.0120918    -0.9975977  -0.0000826  -0.0002782   0.0000860   0.0000006  -0.0000104  -0.9426943   0.2801527
0.0122405    -0.9975607  -0.0002073  -0.0002135   0.0001897  -0.0000107   0.0000039  -0.9427471   0.2801706
0.0123910    -0.9975982  -0.0000244  -0.0003237   0.0001254  -0.0000042  -0.0000100  -0.9426088   0.2804391
0.0125433    -0.9976469  -0.0001532  -0.0001987   0.0000274  -0.0000016   0.0000043  -0.9427097   0.2803775
0.0126975    -0.9975704  -0.0001430  -0.0003068  -0.0000691  -0.0000036  -0.0000023  -0.9425424   0.2804387
0.0128536    -0.9976612  -0.0002159  -0.0002323   0.0001109   0.0000036  -0.0000033  -0.9426407   0.2806492
0.0130116    -0.9975569  -0.0001045  -0.0001784   0.0002154   0.0000031   0.0000037  -0.9426215   0.2806846
0.0131716    -0.9976438  -0.0001720  -0.0002695   0.0001488  -0.0000045   0.0000010  -0.9426642   0.2806807
0.0133335    -0.9976355  -0.0002102  -0.0003241   0.0000613  -0.0000017  -0.0000095  -0.9425145   0.2809397
0.0134974    -0.9976483  -0.0000873  -0.0002961   0.0000863   0.0000014  -0.0000020  -0.9425677   0.2809175
0.0136633    -0.9975821  -0.0000349  -0.0003146   0.0001274   0.0000013  -0.0000062  -0.9426221   0.2811150
0.0138313    -0.9976901  -0.0000524  -0.0002604   0.0002946  -0.0000014  -0.0000050  -0.9425397   0.2811490
0.0140013    -0.9976239  -0.0001071  -0.0006007   0.0001047  -0.0000043  -0.0000027  -0.9426175   0.2812854
0.0141734    -0.9976689  -0.0001647  -0.0006976   0.0003449  -0.0000133  -0.0000052  -0.9426482   0.2814176
0.0143477    -0.9976382  -0.0001148   0.0000945   0.0003770   0.0000019  -0.0000050  -0.9426134   0.2813920
0.0145240    -0.9976239  -0.0001760  -0.0002129  -0.0001268   0.0000018   0.0000028  -0.9426510   0.2814696
0.0147026    -0.9975711  -0.0001198  -0.0003869   0.0000197   0.0000098  -0.0000082  -0.9425887   0.2815431
0.0148833    -0.9975106   0.0000122  -0.0002522   0.0001108  -0.0000038  -0.0000085  -0.9425701   0.2817147
0.0150663    -0.9977052  -0.0001604  -0.0003863   0.0002386   0.0000025  -0.0000094  -0.9425500   0.2817628
0.0152515    -0.9975146  -0.0000365  -0.0002771   0.0001450  -0.0000064  -0.0000097  -0.9425577   0.2819218
0.0154390    -0.9976825  -0.0000344  -0.0001688   0.0000962  -0.0000151   0.0000062  -0.9425825   0.2819117
0.0156288    -0.9976327  -0.0001605  -0.0002895   0.0000842  -0.0000092  -0.0000074  -0.9426634   0.2819290
0.0158209    -0.9975741  -0.0000362  -0.0002548   0.0001173  -0.0000031  -0.0000088  -0.9425187   0.2819562
0.0160154    -0.9976722  -0.0000622  -0.0005585   0.0000176   0.0000012  -0.0000067  -0.9425096   0.2821765
0.0162123    -0.9975094  -0.0001583  -0.0002142   0.0001203  -0.0000041  -0.0000005  -0.9424733   0.2823458
0.0164116    -0.9977158  -0.0000740  -0.0002534   0.0001450   0.0000020  -0.0000133  -0.9425390   0.2823374
0.0166134    -0.9976928  -0.0002129  -0.0002822   0.0002927   0.0000025   0.0000024  -0.9424725   0.2825105
0.0168176    -0.9977838  -0.0000204  -0.0002197   0.0001850   0.0000023  -0.0000011  -0.9425681   0.2824212
0.0170243    -0.9976899  -0.0000768  -0.0004092   0.0003974  -0.0000044  -0.0000021  -0.9425075   0.2825839
0.0172336    -0.9976503  -0.0000521  -0.0002609   0.0000278   0.0000039  -0.0000065  -0.9424701   0.2825693
0.0174455    -0.9976183  -0.0000781  -0.0001073   0.0000560  -0.0000069   0.0000054  -0.9424511   0.2826684
0.0176599    -0.9976895  -0.0001018  -0.0001318   0.0001998  -0.0000030  -0.0000096  -0.9424459   0.2827776
0.0178770    -0.9976870   0.0000860  -0.0002906   0.0000989  -0.0000056   0.0000042  -0.9424224   0.2829245
0.0180968    -0.9976529  -0.0000113  -0.0005369   0.0001634  -0.0000086  -0.0000035  -0.9424302   0.2828374
0.0183193    -0.9976988  -0.0000794  -0.0001112   0.0002832   0.0000087  -0.0000044  -0.9424509   0.2830002
0.0185445    -0.9976715  -0.0000132  -0.0007429  -0.0000980   0.0000103  -0.0000060  -0.9424455   0.2830423
0.0187724    -0.9976648  -0.0000414  -0.0001632   0.0001874   0.0000036   0.0000011  -0.9423371   0.2830841
0.0190032    -0.9977035   0.0000487  -0.0003128  -0.0000080  -0.0000030  -0.0000051  -0.9424280   0.2831313
0.0192368    -0.9975807  -0.0002063  -0.0004514   0.0000208   0.0000020   0.0000008  -0.9425254   0.2832695
0.0194733    -0.9975042  -0.0001168  -0.0003957   0.0002583   0.0000098  -0.0000044  -0.9424154   0.2833488
0.0197127    -0.9976068  -0.0001140  -0.0001868  -0.0001252  -0.0000072  -0.0000149  -0.9423865   0.2834325
0.0199550    -0.9976560  -0.0000647  -0.0001184   0.0002662  -0.0000085  -0.0000115  -0.9424142   0.2834576
0.0202003    -0.9975187  -0.0000559  -0.0000880   0.0002923  -0.0000027  -0.0000121  -0.9424186   0.2834956
0.0204487    -0.9975211  -0.0001092  -0.0002755   0.0001992  -0.0000126  -0.0000027  -0.9423482   0.2836018
0.0207001    -0.9975695  -0.0000926  -0.0001537   0.0003135  -0.0000050  -0.0000153  -0.9422820   0.2836091
0.0209545    -0.9976420  -0.0000655  -0.0001741   0.0001400  -0.0000042  -0.0000062  -0.9422991   0.2836966
0.0212121    -0.9976165  -0.0002038  -0.0001373   0.0002061   0.0000013   0.0000014  -0.9422630   0.2838958
0.0214729    -0.9976158  -0.0000404  -0.0001945   0.0001283  -0.0000082  -0.0000137  -0.9423046   0.2839225
0.0217369    -0.9975856  -0.0000945  -0.0000490   0.0000646   0.0000177  -0.0000012  -0.9422967   0.2839207
0.0220041    -0.9976197  -0.0001577  -0.0006840   0.0002403  -0.0000034  -0.0000052  -0.9423316   0.2839710
0.0222746    -0.9975729  -0.0000404  -0.0001275   0.0001830   0.0000044  -0.0000094  -0.9421834   0.2840686
0.0225484    -0.9976055  -0.0001424  -0.0000009   0.0002459  -0.0000069   0.0000029  -0.9421589   0.2840821
0.0228256    -0.9976351  -0.0000014  -0.0002325   0.0001799  -0.0000015   0.0000000  -0.9422130   0.2841121
0.0231062    -0.9976916   0.0000127  -0.0001757   0.0001878  -0.0000071  -0.0000067  -0.9422103   0.2841453
0.0233902    -0.9974988  -0.0000794  -0.0001569   0.0001816  -0.0000062   0.0000041  -0.9421501   0.2842650
0.0236778    -0.9977063  -0.0001027  -0.0002175   0.0001992   0.0000026  -0.0000065  -0.9421274   0.2843437
0.0239689    -0.9977752   0.0005418  -0.0002804  -0.0001551  -0.0000034  -0.0000028  -0.9431943   0.2849166
0.0242635    -0.9975894  -0.0000664  -0.0001684   0.0002023   0.0000020  -0.0000015  -0.9421554   0.2844378
0.0245618    -0.9975218  -0.0000748  -0.0002188   0.0001098  -0.0000175  -0.0000006  -0.9420997   0.2845678
0.0248637    -0.9976213  -0.0000603  -0.0002310   0.0001885  -0.0000010  -0.0000011  -0.9421057   0.2846436
0.0251694    -0.9976656   0.0000114  -0.0001524   0.0001276  -0.0000045  -0.0000092  -0.9421237   0.2846718
0.0254788    -0.9976008  -0.0000807  -0.0001122   0.0001541  -0.0000051  -0.0000060  -0.9420106   0.2847303
0.0257920    -0.9976762  -0.0000848  -0.0001565   0.0003023   0.0000011  -0.0000116  -0.9420984   0.2848583
0.0261091    -0.9975517  -0.0000509  -0.0001001   0.0001785   0.0000032  -0.0000093  -0.9419308   0.2848252
0.0264301    -0.9975072  -0.0001651  -0.0001591   0.0001846   0.0000051  -0.0000114  -0.9420806   0.2849199
0.0267550    -0.9975738  -0.0000794  -0.0000852   0.0001544  -0.0000017   0.0000036  -0.9419236   0.2849455
0.0270839    -0.9975712  -0.0001491  -0.0001132   0.0000972  -0.0000150  -0.0000070  -0.9420152   0.2849370
0.0274168    -0.9975209  -0.0000088  -0.0000943   0.0002051  -0.0000071  -0.0000091  -0.9419723   0.2849874
0.0277539    -0.9976694  -0.0000821  -0.0001473   0.0000708  -0.0000055  -0.0000124  -0.9418585   0.2850718
0.0280951    -0.9977688  -0.0000981  -0.0001181   0.0001916  -0.0000084  -0.0000131  -0.9418695   0.2851680
0.0284404    -0.9976081  -0.0000733  -0.0001229   0.0001829  -0.0000050  -0.0000027  -0.9418926   0.2852433
0.0287901    -0.9976377  -0.0000551  -0.0000687   0.0000772  -0.0000104  -0.0000071  -0.9419360   0.2851845
0.0291440    -0.9976027  -0.0000095  -0.0000437   0.0001266   0.0000046  -0.0000088  -0.9418947   0.2853351
0.0295023    -0.9976943  -0.0000799  -0.0002655   0.0001402   0.0000158   0.0000033  -0.9418181   0.2853636
0.0298649    -0.9975943  -0.0001412  -0.0001198   0.0001592   0.0000090  -0.0000008  -0.9418149   0.2853996
0.0302321    -0.9976984  -0.0000823  -0.0001319   0.0001157   0.0000043  -0.0000058  -0.9417208   0.2854923
0.0306037    -0.9975786  -0.0001310  -0.0000647   0.0001689  -0.0000045  -0.0000008  -0.9417143   0.2855678
0.0309799    -0.9976986  -0.0000711  -0.0002753   0.0001601  -0.0000045   0.0000013  -0.9418265   0.2855831
0.0313608    -0.9976146  -0.0000561  -0.0001503   0.0002880   0.0000041  -0.0000197  -0.9417779   0.2856653
0.0317463    -0.9975992  -0.0001426  -0.0001272   0.0002113  -0.0000047   0.0000050  -0.9416988   0.2857371
0.0321366    -0.9976019  -0.0000955  -0.0001405   0.0002499   0.0000041  -0.0000031  -0.9417880   0.2857474
0.0325316    -0.9975293  -0.0001237  -0.0000853   0.0001467   0.0000030  -0.0000159  -0.9416747   0.2858300
0.0329316    -0.9976750   0.0000374  -0.0000444   0.0001024   0.0000071  -0.0000175  -0.9416642   0.2859160
0.0333364    -0.9975845  -0.0001104  -0.0000118   0.0000413   0.0000033  -0.0000037  -0.9416956   0.2859965
0.0337462    -0.9976200  -0.0000933  -0.0002016   0.0001103   0.0000003   0.0000066  -0.9415459   0.2858363
0.0341610    -0.9975889  -0.0000690  -0.0000838   0.0002213   0.0000031  -0.0000018  -0.9415890   0.2860550
0.0345810    -0.9976151   0.0000259  -0.0001912   0.0001780   0.0000025  -0.0000054  -0.9415994   0.2860402
0.0350061    -0.9975938  -0.0000029  -0.0000475   0.0003567   0.0000041   0.0000028  -0.9416480   0.2861025
0.0354365    -0.9975419  -0.0000274  -0.0001881   0.0001382   0.0000008  -0.0000113  -0.9415532   0.2862356
0.0358721    -0.9977739  -0.0001925  -0.0000951   0.0001647   0.0000027   0.0000040  -0.9415274   0.2861881
0.0363131    -0.9974557   0.0000446  -0.0001306   0.0001267  -0.0000035  -0.0000022  -0.9415787   0.2862180
0.0367595    -0.9975933  -0.0001911  -0.0001389   0.0000827  -0.0000029  -0.0000134  -0.9414277   0.2863980
0.0372114    -0.9976396  -0.0001349  -0.0001798   0.0001024   0.0000021  -0.0000147  -0.9414660   0.2864445
0.0376688    -0.9976145  -0.0000810  -0.0001456   0.0000901  -0.0000015  -0.0000004  -0.9414265   0.2864517
0.0381319    -0.9977977  -0.0000755  -0.0001865   0.0002070  -0.0000009  -0.0000148  -0.9414994   0.2864761
0.0386006    -0.9976271  -0.0001216  -0.0001869   0.0002046  -0.0000001  -0.0000062  -0.9414738   0.2866139
0.0390752    -0.9977105  -0.0000539  -0.0000355   0.0000664   0.0000058  -0.0000044  -0.9413666   0.2865701
0.0395555    -0.9976351  -0.0000789  -0.0002109   0.0001187  -0.0000018  -0.0000008  -0.9413887   0.2866159
0.0400418    -0.9975892  -0.0000510  -0.0001039   0.0000908  -0.0000059  -0.0000090  -0.9414225   0.2867169
0.0405340    -0.9976146  -0.0000747  -0.0001181   0.0002045   0.0000032  -0.0000083  -0.9413678   0.2866962
0.0410323    -0.9976344  -0.0000799  -0.0000660   0.0002114   0.0000113  -0.0000063  -0.9412536   0.2867964
0.0415368    -0.9976294  -0.0001424  -0.0000706   0.0001452  -0.0000101   0.0000046  -0.9413906   0.2868516
0.0420474    -0.9976549  -0.0001687  -0.0000957   0.0001737  -0.0000032  -0.0000059  -0.9413047   0.2867908
0.0425643    -0.9976667  -0.0001146  -0.0000281   0.0001927   0.0000041  -0.0000041  -0.9412317   0.2868349
0.0430875    -0.9975977  -0.0000940  -0.0001217   0.0001839   0.0000041  -0.0000004  -0.9413051   0.2869693
0.0436172    -0.9976332  -0.0001158  -0.0001537   0.0003380  -0.0000077  -0.0000074  -0.9412355   0.2870156
0.0441534    -0.9976154  -0.0000221  -0.0001830   0.0004209   0.0000004  -0.0000073  -0.9411886   0.2871031
0.0446962    -0.9975981  -0.0001209  -0.0001377   0.0002270  -0.0000045  -0.0000057  -0.9411981   0.2871376
0.0452457    -0.9975003   0.0000461  -0.0002139   0.0003480   0.0000028  -0.0000074  -0.9411458   0.2871384
0.0458019    -0.9976674   0.0000322  -0.0001926   0.0002948   0.0000017  -0.0000085  -0.9411226   0.2871739
0.0463649    -0.9975449   0.0000320  -0.0001974   0.0001575   0.0000098   0.0000013  -0.9410879   0.2872438
0.0469349    -0.9976503  -0.0000763  -0.0000223   0.0002579  -0.0000076  -0.0000056  -0.9410962   0.2873527
0.0475119    -0.9976441  -0.0000899  -0.0001433   0.0000601   0.0000017  -0.0000071  -0.9410704   0.2873649
0.0480960    -0.9976793  -0.0000220  -0.0001253   0.0002118  -0.0000044  -0.0000019  -0.9409973   0.2874680
0.0486872    -0.9976559  -0.0001015  -0.0001534   0.0000955  -0.0000129  -0.0000110  -0.9409651   0.2874875
0.0492857    -0.9975612  -0.0001010  -0.0001982   0.0002090  -0.0000002  -0.0000042  -0.9409461   0.2875644
0.0498916    -0.9976829  -0.0000060  -0.0001927   0.0001003  -0.0000045  -0.0000018  -0.9408737   0.2876173
0.0505050    -0.9976071  -0.0000628  -0.0000665   0.0000481  -0.0000103  -0.0000166  -0.9409469   0.2876108
0.0511258    -0.9977210   0.0000991  -0.0001667   0.0002004  -0.0000017  -0.0000074  -0.9409396   0.2877756
0.0517543    -0.9976765  -0.0001883  -0.0001497   0.0000262  -0.0000078  -0.0000062  -0.9409543   0.2877150
0.0523906    -0.9975990  -0.0000035  -0.0001267   0.0000990   0.0000057  -0.0000072  -0.9408638   0.2877875
0.0530346    -0.9976597  -0.0000180  -0.0001823   0.0001234   0.0000032  -0.0000115  -0.9408033   0.2878187
0.0536866    -0.9975554  -0.0001413  -0.0001434   0.0000711  -0.0000095  -0.0000167  -0.9408350   0.2878571
0.0543466    -0.9975883  -0.0000534  -0.0001443   0.0001857  -0.0000052  -0.0000006  -0.9407425   0.2878680
0.0550146    -0.9976714   0.0000352  -0.0002026   0.0001147  -0.0000055  -0.0000045  -0.9407686   0.2879192
0.0556910    -0.9976198  -0.0001032  -0.0001538   0.0001044  -0.0000121  -0.0000102  -0.9406990   0.2879734
0.0563756    -0.9976769  -0.0000375  -0.0000412   0.0001146   0.0000018  -0.0000108  -0.9407175   0.2881117
0.0570686    -0.9975845  -0.0001072  -0.0002238   0.0001380   0.0000006  -0.0000166  -0.9406780   0.2881488
0.0577702    -0.9976357  -0.0001331  -0.0001000   0.0001190  -0.0000013  -0.0000054  -0.9406106   0.2882546
0.0584804    -0.9976696  -0.0001338  -0.0001438  -0.0000889   0.0000011  -0.0000075  -0.9405687   0.2881916
0.0591993    -0.9976110  -0.0000826  -0.0002208   0.0002760   0.0000087   0.0000003  -0.9405477   0.2882490
0.0599270    -0.9975588  -0.0000709  -0.0001991   0.0002798   0.0000084  -0.0000020  -0.9406534   0.2883762
0.0606637    -0.9975282  -0.0000737  -0.0000891   0.0001097  -0.0000008  -0.0000084  -0.9404613   0.2883609
0.0614095    -0.9976447   0.0000372  -0.0001879   0.0001187  -0.0000130   0.0000009  -0.9405219   0.2883972
0.0621644    -0.9975733  -0.0001466  -0.0001957   0.0001049  -0.0000010  -0.0000074  -0.9405535   0.2885076
0.0629286    -0.9977013  -0.0001930  -0.0002001   0.0000946  -0.0000052  -0.0000012  -0.9404398   0.2884878
0.0637022    -0.9975613  -0.0001174  -0.0000679   0.0001366   0.0000020  -0.0000046  -0.9403573   0.2886245
0.0644853    -0.9976597  -0.0001470  -0.0001256   0.0000632  -0.0000014  -0.0000039  -0.9404157   0.2886764
0.0652780    -0.9977266  -0.0001317  -0.0000815   0.0001418   0.0000039  -0.0000084  -0.9403190   0.2886986
0.0660805    -0.9975672  -0.0002065  -0.0002250   0.0001343  -0.0000050  -0.0000067  -0.9402917   0.2888275
0.0668928    -0.9976045  -0.0000880  -0.0001480   0.0002552  -0.0000128  -0.0000122  -0.9402203   0.2888212
0.0677152    -0.9975581  -0.0001096  -0.0001304   0.0001337   0.0000000  -0.0000112  -0.9402024   0.2888230
0.0685476    -0.9975866  -0.0002705  -0.0000818   0.0002253  -0.0000072  -0.0000117  -0.9401862   0.2888922
0.0693903    -0.9975826  -0.0001741  -0.0002090   0.0001505  -0.0000004  -0.0000041  -0.9401122   0.2890172
0.0702433    -0.9975662  -0.0001702  -0.0002020   0.0001985  -0.0000029   0.0000041  -0.9401311   0.2890242
0.0711068    -0.9975027  -0.0001117  -0.0001089   0.0001744   0.0000037  -0.0000059  -0.9400895   0.2890692
0.0719810    -0.9974966  -0.0000836  -0.0001678   0.0001031  -0.0000091   0.0000050  -0.9400307   0.2890734
0.0728659    -0.9976507  -0.0001466  -0.0001936   0.0001149   0.0000052  -0.0000014  -0.9399982   0.2891921
0.0737616    -0.9976911  -0.0001480  -0.0001097   0.0001848  -0.0000012   0.0000004  -0.9399166   0.2892475
0.0746684    -0.9975723  -0.0002021  -0.0001174   0.0001747   0.0000073  -0.0000086  -0.9399425   0.2892933
0.0755863    -0.9976268  -0.0002148  -0.0001746   0.0001700  -0.0000051  -0.0000018  -0.9398644   0.2893296
0.0765155    -0.9975937  -0.0001040  -0.0001630   0.0001987  -0.0000040  -0.0000102  -0.9398543   0.2893451
0.0774561    -0.9976302  -0.0001559   0.0000521   0.0003264   0.0000021  -0.0000132  -0.9397228   0.2894283
0.0784083    -0.9975512  -0.0000827   0.0000448   0.0002570   0.0000033   0.0000006  -0.9396576   0.2894038
0.0793722    -0.9975619  -0.0001668   0.0000546   0.0000917  -0.0000042  -0.0000104  -0.9396161   0.2895158
0.0803479    -0.9976777  -0.0000783  -0.0000536   0.0002536   0.0000014  -0.0000099  -0.9396115   0.2895176
0.0813357    -0.9975428  -0.0000544   0.0001885   0.0000929  -0.0000006  -0.0000007  -0.9394970   0.2895606
0.0823356    -0.9975867  -0.0002954   0.0000329   0.0001376  -0.0000053  -0.0000076  -0.9394075   0.2896695
0.0833477    -0.9975574  -0.0001550  -0.0001762   0.0002257   0.0000061  -0.0000029  -0.9393761   0.2896456
0.0843723    -0.9976295  -0.0002471  -0.0000994   0.0001855   0.0000086  -0.0000037  -0.9393115   0.2897923
0.0854095    -0.9976746  -0.0000889  -0.0002393   0.0002779  -0.0000026  -0.0000074  -0.9392051   0.2896720
0.0864595    -0.9975744  -0.0001959  -0.0001718   0.0001961  -0.0000029   0.0000073  -0.9391912   0.2898053
0.0875224    -0.9976513  -0.0000827  -0.0002227   0.0002598   0.0000034  -0.0000104  -0.9391330   0.2897833
0.0885983    -0.9975150  -0.0000777  -0.0001607   0.0002293  -0.0000022  -0.0000038  -0.9390844   0.2898074
0.0896875    -0.9975036  -0.0001672  -0.0000833   0.0003160   0.0000089  -0.0000091  -0.9389901   0.2898603
0.0907900    -0.9976128  -0.0002298  -0.0001840   0.0002098  -0.0000058  -0.0000009  -0.9389029   0.2897670
0.0919061    -0.9975542  -0.0002214  -0.0001831   0.0001994   0.0000026   0.0000009  -0.9387465   0.2898359
0.0930359    -0.9976119  -0.0002657  -0.0001428   0.0002116   0.0000012   0.0000016  -0.9387368   0.2897206
0.0941797    -0.9976160  -0.0002272  -0.0002594   0.0001886   0.0000025   0.0000095  -0.9386642   0.2897788
0.0953374    -0.9975526  -0.0003203  -0.0001763   0.0002652  -0.0000047   0.0000036  -0.9386589   0.2896874
0.0965094    -0.9974674  -0.0002273  -0.0002089   0.0003373   0.0000008  -0.0000022  -0.9385277   0.2897067
0.0976959    -0.9975730  -0.0002712  -0.0002257   0.0002462   0.0000064  -0.0000051  -0.9385353   0.2896980
0.0988969    -0.9975612  -0.0003036  -0.0002356   0.0002530  -0.0000068  -0.0000015  -0.9384663   0.2896201
0.1001126    -0.9976587  -0.0003244  -0.0000994   0.0001787  -0.0000042  -0.0000113  -0.9384273   0.2896009
0.1013433    -0.9976305  -0.0002046  -0.0002767   0.0002827  -0.0000066  -0.0000005  -0.9384162   0.2895283
0.1025892    -0.9975597  -0.0002535  -0.0002717   0.0002805  -0.0000089  -0.0000156  -0.9383242   0.2894642
0.1038503    -0.9975701  -0.0003880  -0.0001421   0.0003078  -0.0000061   0.0000026  -0.9383898   0.2893628
0.1051270    -0.9976732  -0.0002244  -0.0002474   0.0003143  -0.0000042   0.0000032  -0.9384645   0.2893710
0.1064193    -0.9976727  -0.0002714  -0.0001842   0.0003635  -0.0000009  -0.0000043  -0.9385210   0.2892712
0.1077276    -0.9975299  -0.0003014  -0.0002394   0.0003580  -0.0000010   0.0000042  -0.9385561   0.2893075
0.1090519    -0.9975826  -0.0002794  -0.0002674   0.0003206   0.0000081   0.0000023  -0.9386699   0.2891948
0.1103925    -0.9975984  -0.0002646  -0.0002692   0.0003221  -0.0000053  -0.0000082  -0.9386504   0.2892372
0.1117496    -0.9976718  -0.0003259  -0.0001250   0.0003171   0.0000070  -0.0000009  -0.9387449   0.2892651
0.1131233    -0.9977416  -0.0003519  -0.0002670   0.0003217  -0.0000109  -0.0000063  -0.9388706   0.2892237
0.1145140    -0.9977211  -0.0002636  -0.0002726   0.0002814  -0.0000020  -0.0000139  -0.9389367   0.2893050
0.1159217    -0.9976243  -0.0003309  -0.0002864   0.0003609  -0.0000058  -0.0000006  -0.9389502   0.2893045
0.1173468    -0.9977309  -0.0002182  -0.0002156   0.0002935   0.0000043  -0.0000100  -0.9390159   0.2893834
0.1187893    -0.9977076  -0.0003278  -0.0002390   0.0001873  -0.0000015  -0.0000112  -0.9391408   0.2894386
0.1202497    -0.9976873  -0.0002588  -0.0002170   0.0003046  -0.0000076  -0.0000202  -0.9391425   0.2894774
0.1217279    -0.9976112  -0.0002278  -0.0002143   0.0003617   0.0000047   0.0000067  -0.9391774   0.2895602
0.1232243    -0.9976274  -0.0003592  -0.0002337   0.0002894  -0.0000059  -0.0000097  -0.9393238   0.2897100
0.1247392    -0.9976284  -0.0002679  -0.0002618   0.0003448  -0.0000005  -0.0000021  -0.9393441   0.2897610
0.1262726    -0.9977462  -0.0002066  -0.0001866   0.0004004  -0.0000082  -0.0000107  -0.9393835   0.2898578
0.1278249    -0.9975775  -0.0003904  -0.0001735   0.0003743  -0.0000011  -0.0000062  -0.9393711   0.2899272
0.1293963    -0.9977185  -0.0002771  -0.0001536   0.0004798  -0.0000038  -0.0000042  -0.9394349   0.2900448
0.1309870    -0.9976467  -0.0002932  -0.0002072   0.0003676   0.0000004  -0.0000140  -0.9394403   0.2901690
0.1325973    -0.9976943  -0.0002243  -0.0001560   0.0004522  -0.0000006   0.0000020  -0.9394429   0.2901727
0.1342273    -0.9976468  -0.0002587  -0.0002159   0.0004720  -0.0000030  -0.0000066  -0.9395119   0.2902830
0.1358774    -0.9976701  -0.0002411  -0.0001574   0.0004368  -0.0000045   0.0000028  -0.9394840   0.2904587
0.1375478    -0.9976934  -0.0003367  -0.0002702   0.0004342   0.0000041  -0.0000011  -0.9395102   0.2904983
0.1392387    -0.9976028  -0.0003572  -0.0002221   0.0004205  -0.0000016  -0.0000030  -0.9394896   0.2906542
0.1409504    -0.9976483  -0.0002865  -0.0001542   0.0004812  -0.0000098  -0.0000030  -0.9395416   0.2907525
0.1426831    -0.9976205  -0.0002225  -0.0001900   0.0005151  -0.0000051  -0.0000032  -0.9395182   0.2907696
0.1444371    -0.9977282  -0.0003137  -0.0002404   0.0004746   0.0000040  -0.0000025  -0.9394529   0.2909111
0.1462127    -0.9977162  -0.0001749  -0.0001645   0.0004579   0.0000011  -0.0000080  -0.9395321   0.2910522
0.1480102    -0.9977075  -0.0003532  -0.0001397   0.0004198  -0.0000016  -0.0000117  -0.9394888   0.2911476
0.1498297    -0.9976736  -0.0002762  -0.0002717   0.0004897  -0.0000046   0.0000006  -0.9394295   0.2911965
0.1516716    -0.9975835  -0.0002335  -0.0002092   0.0004615  -0.0000031   0.0000037  -0.9394114   0.2913293
0.1535361    -0.9977489  -0.0002543  -0.0002117   0.0004883  -0.0000056  -0.0000089  -0.9394468   0.2914228
0.1554236    -0.9976983  -0.0003113  -0.0001700   0.0005295   0.0000006   0.0000022  -0.9394299   0.2915906
0.1573342    -0.9976509  -0.0003990  -0.0001919   0.0005288  -0.0000109  -0.0000090  -0.9393141   0.2916879
0.1592684    -0.9976615  -0.0002562  -0.0002186   0.0004968   0.0000048   0.0000032  -0.9394186   0.2917255
0.1612263    -0.9976165  -0.0002751  -0.0001578   0.0005230   0.0000049  -0.0000010  -0.9393069   0.2918717
0.1632083    -0.9976066  -0.0001956  -0.0001831   0.0004771   0.0000052  -0.0000046  -0.9393931   0.2919294
0.1652147    -0.9976676  -0.0003647  -0.0001700   0.0005706  -0.0000054   0.0000015  -0.9392935   0.2920767
0.1672457    -0.9976888  -0.0002548  -0.0001617   0.0005409   0.0000058  -0.0000092  -0.9392819   0.2921465
0.1693017    -0.9975765  -0.0004090  -0.0001626   0.0005895  -0.0000093  -0.0000026  -0.9392562   0.2921591
0.1713829    -0.9976752  -0.0002887  -0.0000855   0.0005979  -0.0000062  -0.0000029  -0.9392212   0.2923577
0.1734898    -0.9977131  -0.0002745  -0.0001392   0.0005401  -0.0000008   0.0000005  -0.9391912   0.2923584
0.1756225    -0.9976193  -0.0002336  -0.0001435   0.0006059   0.0000067  -0.0000024  -0.9391699   0.2925539
0.1777815    -0.9976555  -0.0003502  -0.0001674   0.0005619  -0.0000031  -0.0000086  -0.9390592   0.2925714
0.1799670    -0.9975968  -0.0002997  -0.0001596   0.0005346  -0.0000053  -0.0000102  -0.9390654   0.2927581
0.1821794    -0.9976632  -0.0004380  -0.0001929   0.0005430   0.0000027  -0.0000042  -0.9390483   0.2928551
0.1844190    -0.9976680  -0.0003502  -0.0002132   0.0005656  -0.0000014  -0.0000113  -0.9391059   0.2929285
0.1866861    -0.9976027  -0.0003682  -0.0001054   0.0005328  -0.0000025  -0.0000085  -0.9389236   0.2930493
0.1889811    -0.9976188  -0.0003281  -0.0001326   0.0005565  -0.0000052  -0.0000045  -0.9389341   0.2931909
0.1913043    -0.9977532  -0.0003357  -0.0001600   0.0005827  -0.0000022  -0.0000077  -0.9389398   0.2931881
0.1936560    -0.9976946  -0.0003186  -0.0001443   0.0005717  -0.0000029   0.0000011  -0.9388743   0.2934055
0.1960367    -0.9977702  -0.0002971  -0.0001846   0.0004912  -0.0000034  -0.0000113  -0.9388666   0.2935421
0.1984466    -0.9977081  -0.0002606  -0.0001836   0.0006284  -0.0000069  -0.0000007  -0.9388003   0.2935264
0.2008861    -0.9977491  -0.0003447  -0.0000837   0.0006554  -0.0000035  -0.0000135  -0.9388468   0.2937072
0.2033557    -0.9975358  -0.0003601  -0.0001166   0.0005459  -0.0000017  -0.0000072  -0.9388149   0.2937507
0.2058556    -0.9975989  -0.0002920  -0.0001895   0.0006696   0.0000063  -0.0000012  -0.9386165   0.2938308
0.2083862    -0.9975815  -0.0003780  -0.0001687   0.0006157  -0.0000007  -0.0000098  -0.9386430   0.2939738
0.2109480    -0.9975834  -0.0004898  -0.0001397   0.0006016  -0.0000041   0.0000037  -0.9386125   0.2940661
0.2135412    -0.9976067  -0.0002851  -0.0001799   0.0006626   0.0000026  -0.0000099  -0.9385548   0.2941996
0.2161663    -0.9977198  -0.0004291  -0.0001406   0.0006647   0.0000069  -0.0000061  -0.9385860   0.2942747
0.2188237    -0.9976760  -0.0003865  -0.0004008   0.0006401  -0.0000015  -0.0000051  -0.9385893   0.2944157
0.2215137    -0.9976491  -0.0003965  -0.0000261   0.0007476  -0.0000176  -0.0000081  -0.9384733   0.2944849
0.2242369    -0.9976712  -0.0003769  -0.0001505   0.0006627  -0.0000093  -0.0000156  -0.9383799   0.2946712
0.2269935    -0.9977572  -0.0003150  -0.0000923   0.0006407  -0.0000070  -0.0000102  -0.9383557   0.2947396
0.2297839    -0.9976235  -0.0004397  -0.0001382   0.0006844   0.0000008  -0.0000095  -0.9383288   0.2948782
0.2326087    -0.9976550  -0.0004393  -0.0000931   0.0007176  -0.0000072  -0.0000042  -0.9383012   0.2949777
0.2354682    -0.9976733  -0.0004511  -0.0000456   0.0006959   0.0000062  -0.0000025  -0.9382314   0.2950852
0.2383629    -0.9975782  -0.0004842  -0.0000954   0.0007275   0.0000095  -0.0000077  -0.9382402   0.2951383
0.2412932    -0.9975310  -0.0004119  -0.0001337   0.0006135  -0.0000204  -0.0000146  -0.9381400   0.2952565
0.2442594    -0.9976282  -0.0004052  -0.0000465   0.0007005  -0.0000093   0.0000065  -0.9381314   0.2954319
0.2472622    -0.9977825  -0.0003708  -0.0000899   0.0007150  -0.0000034  -0.0000044  -0.9381191   0.2955686
0.2503018    -0.9975755  -0.0003861  -0.0000640   0.0007830  -0.0000125  -0.0000093  -0.9379876   0.2957517
0.2533788    -0.9976539  -0.0004086  -0.0000387   0.0007260  -0.0000040   0.0000031  -0.9379655   0.2957465
0.2564937    -0.9976992  -0.0004141  -0.0001089   0.0007089  -0.0000017  -0.0000116  -0.9379517   0.2958429
0.2596468    -0.9975976  -0.0004113  -0.0000508   0.0007511  -0.0000103  -0.0000019  -0.9378675   0.2960615
0.2628387    -0.9976117  -0.0004260  -0.0000522   0.0006952   0.0000019   0.0000031  -0.9378421   0.2962113
0.2660699    -0.9976652  -0.0004787  -0.0000693   0.0007819   0.0000030  -0.0000001  -0.9377637   0.2962477
0.2693407    -0.9976789  -0.0004801  -0.0000131   0.0007757   0.0000029   0.0000017  -0.9376920   0.2964796
0.2726518    -0.9976340  -0.0005118  -0.0000722   0.0006986   0.0000098  -0.0000065  -0.9376563   0.2965318
0.2760036    -0.9975682  -0.0004703  -0.0001158   0.0008101  -0.0000009  -0.0000004  -0.9376370   0.2967253
0.2793966    -0.9976629  -0.0006880  -0.0000250   0.0008290   0.0000015  -0.0000069  -0.9375655   0.2967840
0.2828312    -0.9977169  -0.0004164  -0.0000396   0.0007469  -0.0000054  -0.0000065  -0.9375553   0.2969881
0.2863082    -0.9976461  -0.0004952   0.0000182   0.0008128  -0.0000069  -0.0000156  -0.9374514   0.2970842
0.2898278    -0.9976507  -0.0005146  -0.0000122   0.0008138   0.0000011  -0.0000148  -0.9373987   0.2972562
0.2933907    -0.9976401  -0.0004750  -0.0000932   0.0008111  -0.0000071  -0.0000110  -0.9374491   0.2973166
0.2969975    -0.9976103  -0.0005006  -0.0000637   0.0007869   0.0000025  -0.0000002  -0.9373918   0.2974570
0.3006485    -0.9975957  -0.0004662  -0.0000506   0.0008208  -0.0000037  -0.0000003  -0.9372446   0.2976492
0.3043445    -0.9977033  -0.0005051  -0.0000451   0.0007941   0.0000030  -0.0000090  -0.9372233   0.2977212
0.3080858    -0.9975997  -0.0004761  -0.0000829   0.0007440   0.0000008  -0.0000047  -0.9371217   0.2978439
0.3118732    -0.9977370  -0.0006461  -0.0000111   0.0008106  -0.0000029  -0.0000037  -0.9370846   0.2981255
0.3157071    -0.9976595  -0.0006996  -0.0000582   0.0008740   0.0000001  -0.0000051  -0.9369519   0.2981806
0.3195882    -0.9976146  -0.0005513  -0.0000728   0.0008253  -0.0000056  -0.0000075  -0.9369621   0.2983713
0.3235170    -0.9976071  -0.0004954  -0.0000042   0.0008486   0.0000005  -0.0000101  -0.9368877   0.2985743
0.3274941    -0.9975655  -0.0006086  -0.0000722   0.0009021  -0.0000171  -0.0000030  -0.9368245   0.2986018
0.3315200    -0.9975962  -0.0005505  -0.0000595   0.0008834  -0.0000011  -0.0000002  -0.9366881   0.2987612
0.3355955    -0.9976496  -0.0005346  -0.0000216   0.0009491   0.0000024  -0.0000098  -0.9367534   0.2988743
0.3397210    -0.9976015  -0.0006143   0.0000373   0.0009290  -0.0000033  -0.0000140  -0.9366286   0.2991156
0.3438973    -0.9975388  -0.0005668  -0.0000537   0.0008785   0.0000025  -0.0000018  -0.9365542   0.2991742
0.3481249    -0.9976441  -0.0006432  -0.0000318   0.0009905  -0.0000090  -0.0000003  -0.9365513   0.2993079
0.3524045    -0.9977447  -0.0006692  -0.0001290   0.0009637   0.0000071  -0.0000049  -0.9364981   0.2994654
0.3567367    -0.9977030  -0.0006468  -0.0000557   0.0008688   0.0000048  -0.0000006  -0.9364733   0.2996630
0.3611221    -0.9976895  -0.0006472  -0.0000756   0.0009184  -0.0000009  -0.0000053  -0.9363157   0.2998125
0.3655615    -0.9976158  -0.0006910  -0.0000050   0.0010250   0.0000008   0.0000035  -0.9362350   0.2999891
0.3700554    -0.9976869  -0.0006583   0.0000079   0.0009548  -0.0000078   0.0000013  -0.9361766   0.3001423
0.3746046    -0.9976157  -0.0006640  -0.0000544   0.0009726  -0.0000074   0.0000052  -0.9360952   0.3002810
0.3792097    -0.9976828  -0.0006977  -0.0000088   0.0009181   0.0000027  -0.0000014  -0.9360310   0.3005167
0.3838714    -0.9976807  -0.0007689  -0.0000635   0.0009715  -0.0000147   0.0000006  -0.9360487   0.3006684
0.3885905    -0.9976261  -0.0006801  -0.0000224   0.0009126   0.0000014  -0.0000025  -0.9359445   0.3008066
0.3933675    -0.9977936  -0.0006820  -0.0000017   0.0009717  -0.0000064  -0.0000079  -0.9358374   0.3010662
0.3982033    -0.9977138  -0.0007701  -0.0000498   0.0010120   0.0000045  -0.0000028  -0.9357388   0.3011775
0.4030985    -0.9976608  -0.0007114  -0.0000133   0.0009862  -0.0000013  -0.0000019  -0.9356822   0.3013380
0.4080538    -0.9976173  -0.0006495  -0.0000159   0.0009955   0.0000088  -0.0000011  -0.9356213   0.3015114
0.4130701    -0.9976338  -0.0007956   0.0000514   0.0010823  -0.0000030  -0.0000011  -0.9354990   0.3017008
0.4181481    -0.9976997  -0.0008032  -0.0000241   0.0009937  -0.0000217  -0.0000123  -0.9354835   0.3019167
0.4232885    -0.9977852  -0.0006508  -0.0000279   0.0010388   0.0000013  -0.0000042  -0.9353929   0.3020374
0.4284921    -0.9976606  -0.0007167  -0.0000146   0.0010908   0.0000050  -0.0000019  -0.9353126   0.3021829
0.4337597    -0.9976982  -0.0007038   0.0000192   0.0011351  -0.0000025  -0.0000129  -0.9351899   0.3024178
0.4390920    -0.9976560  -0.0008170  -0.0000005   0.0010864   0.0000014  -0.0000040  -0.9351455   0.3026475
0.4444898    -0.9976896  -0.0009364   0.0001790   0.0011288   0.0000003  -0.0000071  -0.9350953   0.3028394
0.4499541    -0.9976459  -0.0007906   0.0000266   0.0011006   0.0000018   0.0000071  -0.9349420   0.3029515
0.4554854    -0.9976805  -0.0009144  -0.0000374   0.0009682  -0.0000024   0.0000004  -0.9349191   0.3031716
0.4610848    -0.9976442  -0.0009218  -0.0001550   0.0010693   0.0000036  -0.0000010  -0.9347462   0.3034583
0.4667531    -0.9977231  -0.0008322  -0.0000044   0.0010830  -0.0000048  -0.0000122  -0.9347264   0.3035858
0.4724910    -0.9976251  -0.0008429   0.0000486   0.0011324   0.0000114  -0.0000039  -0.9345766   0.3037551
0.4782994    -0.9976599  -0.0008668  -0.0000034   0.0011678  -0.0000062  -0.0000052  -0.9345650   0.3040264
0.4841793    -0.9976902  -0.0008943   0.0000082   0.0011061   0.0000106   0.0000023  -0.9344129   0.3041643
0.4901314    -0.9977088  -0.0008783  -0.0000189   0.0011440   0.0000062  -0.0000086  -0.9344641   0.3044346
0.4961567    -0.9977617  -0.0009560  -0.0000152   0.0012257  -0.0000058  -0.0000014  -0.9343045   0.3046205
0.5022561    -0.9976223  -0.0008538  -0.0000041   0.0011668  -0.0000017  -0.0000053  -0.9341865   0.3048411
0.5084304    -0.9976459  -0.0008413   0.0000393   0.0012049  -0.0000013  -0.0000019  -0.9340425   0.3051119
0.5146807    -0.9975774  -0.0009286   0.0000061   0.0012331  -0.0000092  -0.0000063  -0.9339961   0.3052493
0.5210078    -0.9977106  -0.0009502   0.0000517   0.0012155   0.0000043  -0.0000041  -0.9338725   0.3054744
0.5274126    -0.9977178  -0.0009877   0.0000814   0.0012271  -0.0000064  -0.0000075  -0.9338402   0.3057256
0.5338963    -0.9976809  -0.0010044  -0.0000235   0.0012276   0.0000003   0.0000057  -0.9337405   0.3059158
0.5404596    -0.9976258  -0.0009335   0.0000319   0.0012793  -0.0000084   0.0000050  -0.9336710   0.3062319
0.5471036    -0.9976561  -0.0009755   0.0000320   0.0012874  -0.0000094  -0.0000065  -0.9335276   0.3063257
0.5538292    -0.9978143  -0.0009595   0.0000156   0.0012659   0.0000020  -0.0000054  -0.9334165   0.3066357
0.5606376    -0.9976322  -0.0009431   0.0000669   0.0012540  -0.0000026  -0.0000073  -0.9332411   0.3068205
0.5675297    -0.9977773  -0.0010342  -0.0000382   0.0012445  -0.0000022  -0.0000028  -0.9331879   0.3071370
0.5745064    -0.9976923  -0.0011472  -0.0000169   0.0013544   0.0000018   0.0000011  -0.9330557   0.3073340
0.5815690    -0.9976382  -0.0009425   0.0000114   0.0013497   0.0000020   0.0000047  -0.9330523   0.3075216
0.5887183    -0.9977059  -0.0009845   0.0000073   0.0014731  -0.0000109  -0.0000114  -0.9328489   0.3077647
0.5959556    -0.9976772  -0.0011437   0.0000195   0.0013668  -0.0000057  -0.0000093  -0.9327533   0.3080503
0.6032818    -0.9977379  -0.0011566  -0.0000315   0.0014731  -0.0000051  -0.0000031  -0.9326622   0.3083318
0.6106981    -0.9977222  -0.0010676   0.0000188   0.0014196   0.0000033  -0.0000101  -0.9325332   0.3086434
0.6182056    -0.9976691  -0.0010963   0.0000116   0.0014243   0.0000045  -0.0000047  -0.9324797   0.3087512
0.6258053    -0.9978229  -0.0011141   0.0001522   0.0011358  -0.0000036   0.0000009  -0.9323100   0.3090988
0.6334985    -0.9977123  -0.0009926   0.0000220   0.0014069   0.0000043  -0.0000057  -0.9322906   0.3093580
0.6412862    -0.9976991  -0.0010604   0.0000775   0.0014518  -0.0000087  -0.0000039  -0.9320162   0.3096498
0.6491697    -0.9977047  -0.0010973  -0.0000080   0.0015015  -0.0000025   0.0000017  -0.9320639   0.3099768
0.6571501    -0.9976193  -0.0011790   0.0000218   0.0014705  -0.0000156  -0.0000076  -0.9318527   0.3101546
0.6652286    -0.9977393  -0.0012564   0.0000140   0.0014882   0.0000013  -0.0000025  -0.9317385   0.3105023
0.6734064    -0.9976134  -0.0011648   0.0000266   0.0014670  -0.0000007  -0.0000128  -0.9316249   0.3107810
0.6816848    -0.9976717  -0.0011299   0.0000236   0.0015378  -0.0000108  -0.0000052  -0.9314518   0.3109770
0.6900649    -0.9976402  -0.0011628  -0.0000061   0.0015609  -0.0000001  -0.0000024  -0.9313558   0.3112493
0.6985480    -0.9977218  -0.0011590   0.0000355   0.0016080  -0.0000011  -0.0000022  -0.9312130   0.3116300
0.7071355    -0.9977925  -0.0013104   0.0000114   0.0015719   0.0000024  -0.0000047  -0.9311384   0.3119213
0.7158284    -0.9976237  -0.0012485  -0.0000107   0.0016417   0.0000018  -0.0000044  -0.9310515   0.3121998
0.7246283    -0.9976848  -0.0012989   0.0000476   0.0016575  -0.0000065  -0.0000022  -0.9308397   0.3124587
0.7335363    -0.9977440  -0.0012922   0.0001925   0.0015601   0.0000072  -0.0000030  -0.9308036   0.3127722
0.7425539    -0.9976426  -0.0013371   0.0000592   0.0016444  -0.0000014  -0.0000051  -0.9306783   0.3131388
0.7516822    -0.9976429  -0.0013131   0.0000260   0.0017313  -0.0000061   0.0000039  -0.9304417   0.3133883
0.7609229    -0.9977100  -0.0013509   0.0000053   0.0015773  -0.0000108  -0.0000073  -0.9302693   0.3136903
0.7702771    -0.9976421  -0.0014733  -0.0000691   0.0016996   0.0000060  -0.0000118  -0.9301103   0.3139566
0.7797463    -0.9976856  -0.0013876   0.0000365   0.0017540  -0.0000053  -0.0000039  -0.9299867   0.3143409
0.7893319    -0.9976396  -0.0013211   0.0000227   0.0018231  -0.0000011  -0.0000039  -0.9298566   0.3146606
0.7990353    -0.9976085  -0.0015103  -0.0000110   0.0018885   0.0000108   0.0000006  -0.9297423   0.3149845
0.8088580    -0.9976412  -0.0013452  -0.0000164   0.0017197  -0.0000011  -0.0000043  -0.9295781   0.3153214
0.8188015    -0.9976878  -0.0015408   0.0000597   0.0018010  -0.0000041  -0.0000032  -0.9294537   0.3156519
0.8288673    -0.9977066  -0.0014001   0.0000093   0.0018081  -0.0000032  -0.0000065  -0.9292674   0.3159989
0.8390567    -0.9977566  -0.0015144   0.0001236   0.0019905   0.0000029  -0.0000167  -0.9291964   0.3163791
0.8493714    -0.9975712  -0.0013635   0.0000180   0.0017421   0.0000081  -0.0000012  -0.9290133   0.3166715
0.8598130    -0.9976336  -0.0014925  -0.0000184   0.0018319   0.0000073  -0.0000083  -0.9288463   0.3170546
0.8703829    -0.9976438  -0.0014971  -0.0001077   0.0019456   0.0000037  -0.0000044  -0.9286617   0.3173866
0.8810827    -0.9977739  -0.0015023   0.0000160   0.0019548  -0.0000029  -0.0000054  -0.9285109   0.3178376
0.8919140    -0.9978021  -0.0015283   0.0000357   0.0019514   0.0000023  -0.0000108  -0.9283561   0.3181357
0.9028786    -0.9977355  -0.0016268   0.0001364   0.0020352  -0.0000092   0.0000004  -0.9281942   0.3185210
0.9139779    -0.9977341  -0.0014949   0.0000425   0.0020237  -0.0000026  -0.0000067  -0.9280326   0.3189216
0.9252136    -0.9977581  -0.0016130   0.0000012   0.0020333  -0.0000001  -0.0000139  -0.9278553   0.3192816
0.9365875    -0.9977282  -0.0016660  -0.0001604   0.0018500  -0.0000034   0.0000006  -0.9276938   0.3196557
0.9481012    -0.9976712  -0.0017085   0.0000559   0.0021196  -0.0000017  -0.0000055  -0.9275186   0.3200543
0.9597564    -0.9977507  -0.0017109   0.0001086   0.0020854  -0.0000017  -0.0000023  -0.9273121   0.3204456
0.9715549    -0.9976782  -0.0017441   0.0000583   0.0021747  -0.0000036  -0.0000012  -0.9271461   0.3208858
0.9834985    -0.9975965  -0.0017635   0.0000472   0.0021973  -0.0000065  -0.0000013  -0.9270109   0.3212321
0.9955889    -0.9976974  -0.0017009   0.0000616   0.0022160  -0.0000032  -0.0000050  -0.9268638   0.3216050
1.0078279    -0.9977273  -0.0016995   0.0000369   0.0022824   0.0000107  -0.0000079  -0.9265545   0.3220619
1.0202173    -0.9976365  -0.0017277   0.0000184   0.0022172   0.0000011  -0.0000053  -0.9264578   0.3224213
1.0327591    -0.9977047  -0.0017563   0.0000867   0.0022471  -0.0000039  -0.0000004  -0.9262505   0.3229331
1.0454551    -0.9976779  -0.0018720   0.0000698   0.0023183   0.0000008  -0.0000101  -0.9260666   0.3233381
1.0583071    -0.9977123  -0.0018094   0.0000027   0.0022969  -0.0000013   0.0000049  -0.9258682   0.3237213
1.0713171    -0.9977012  -0.0019163  -0.0000415   0.0024037  -0.0000064   0.0000018  -0.9255917   0.3241481
1.0844871    -0.9976036  -0.0018636   0.0000457   0.0024060  -0.0000048   0.0000027  -0.9254617   0.3245377
1.0978189    -0.9977532  -0.0018813   0.0000266   0.0024020   0.0000007   0.0000068  -0.9252756   0.3250599
1.1113147    -0.9977296  -0.0019230   0.0000456   0.0024687  -0.0000006  -0.0000055  -0.9250334   0.3254274
1.1249763    -0.9977092  -0.0019603   0.0000269   0.0024634  -0.0000013  -0.0000018  -0.9248774   0.3259905
1.1388059    -0.9977012  -0.0018902  -0.0000320   0.0024780  -0.0000019  -0.0000060  -0.9247198   0.3264517
1.1528056    -0.9977064  -0.0020083   0.0000285   0.0025594  -0.0000044  -0.0000036  -0.9244583   0.3268988
1.1669773    -0.9976979  -0.0020035  -0.0000079   0.0025986  -0.0000009  -0.0000082  -0.9242727   0.3273953
1.1813232    -0.9976747  -0.0021188   0.0000888   0.0026457  -0.0000031  -0.0000048  -0.9240773   0.3278585
1.1958455    -0.9977565  -0.0021197   0.0000073   0.0026242   0.0000009   0.0000004  -0.9238039   0.3283554
1.2105463    -0.9978145  -0.0021609   0.0000407   0.0026837  -0.0000031  -0.0000085  -0.9236208   0.3288517
1.2254278    -0.9978168  -0.0021635   0.0000528   0.0026806  -0.0000064   0.0000002  -0.9233540   0.3293477
1.2404923    -0.9977548  -0.0021115   0.0000593   0.0027428   0.0000005  -0.0000006  -0.9232183   0.3298264
1.2557420    -0.9977387  -0.0021948   0.0000918   0.0027694   0.0000060  -0.0000034  -0.9229541   0.3303611
1.2711791    -0.9977799  -0.0021396   0.0000602   0.0028063   0.0000058   0.0000032  -0.9226769   0.3308420
1.2868060    -0.9978557  -0.0021544   0.0000522   0.0028694  -0.0000086   0.0000018  -0.9224299   0.3313969
1.3026251    -0.9978507  -0.0023353   0.0000614   0.0028776   0.0000010  -0.0000178  -0.9221532   0.3319239
1.3186385    -0.9976625  -0.0022704   0.0000769   0.0028828  -0.0000032  -0.0000001  -0.9219294   0.3324706
1.3348489    -0.9977538  -0.0023423   0.0001046   0.0029233  -0.0000022  -0.0000067  -0.9217568   0.3330027
1.3512585    -0.9976697  -0.0023637   0.0000694   0.0029656  -0.0000067  -0.0000152  -0.9214508   0.3335168
1.3678698    -0.9977744  -0.0023289   0.0000469   0.0030178  -0.0000091  -0.0000157  -0.9212825   0.3340755
1.3846854    -0.9976131  -0.0023182   0.0001476   0.0030341   0.0000027  -0.0000135  -0.9210106   0.3347380
1.4017077    -0.9977846  -0.0024112   0.0000656   0.0030827   0.0000041   0.0000045  -0.9207423   0.3352204
1.4189392    -0.9978904  -0.0023896   0.0001634   0.0030501   0.0000006   0.0000001  -0.9205003   0.3357456
1.4363825    -0.9977284  -0.0025184   0.0000584   0.0031746  -0.0000072  -0.0000012  -0.9202484   0.3363581
1.4540403    -0.9977473  -0.0024693   0.0000697   0.0031993  -0.0000064  -0.0000011  -0.9199559   0.3369570
1.4719152    -0.9978213  -0.0023773   0.0001057   0.0032519   0.0000078   0.0000075  -0.9197156   0.3376479
1.4900098    -0.9977277  -0.0025867   0.0001021   0.0032835   0.0000059  -0.0000025  -0.9193985   0.3381595
1.5083269    -0.9979003  -0.0024880   0.0001248   0.0033285  -0.0000053   0.0000013  -0.9191216   0.3387463
1.5268691    -0.9977481  -0.0026645   0.0000356   0.0035167   0.0000075  -0.0000016  -0.9188447   0.3393919
1.5456392    -0.9977166  -0.0025861   0.0001164   0.0032692  -0.0000034  -0.0000016  -0.9186352   0.3399954
1.5646402    -0.9977013  -0.0025654   0.0001059   0.0034263   0.0000027  -0.0000022  -0.9183255   0.3407034
1.5838747    -0.9976744  -0.0027592   0.0000817   0.0034112  -0.0000058   0.0000018  -0.9180071   0.3413056
1.6033456    -0.9978302  -0.0027341   0.0001274   0.0035069  -0.0000038   0.0000005  -0.9178175   0.3419714
1.6230559    -0.9977770  -0.0027344   0.0001398   0.0035745   0.0000040  -0.0000088  -0.9174998   0.3426997
1.6430085    -0.9978688  -0.0028394   0.0002487   0.0036377  -0.0000092  -0.0000087  -0.9171685   0.3433497
1.6632064    -0.9977696  -0.0028636   0.0000300   0.0038359  -0.0000108  -0.0000073  -0.9168588   0.3440620
1.6836526    -0.9978491  -0.0029172   0.0000804   0.0036649   0.0000037  -0.0000099  -0.9166106   0.3447857
1.7043502    -0.9976964  -0.0028377   0.0001295   0.0037531   0.0000002  -0.0000113  -0.9161800   0.3455200
1.7253021    -0.9978031  -0.0029450   0.0000101   0.0040521  -0.0000079  -0.0000040  -0.9159925   0.3461715
1.7465117    -0.9978160  -0.0029735   0.0001972   0.0038189   0.0000025  -0.0000055  -0.9157903   0.3469968
1.7679820    -0.9977370  -0.0029604   0.0001536   0.0036071  -0.0000045   0.0000031  -0.9154066   0.3477171
1.7897162    -0.9977738  -0.0030001  -0.0001982   0.0040898  -0.0000016  -0.0000074  -0.9151174   0.3484560
1.8117176    -0.9977981  -0.0030685   0.0002416   0.0039488  -0.0000088  -0.0000035  -0.9147761   0.3493066
1.8339895    -0.9977890  -0.0031316   0.0001687   0.0040210  -0.0000118  -0.0000034  -0.9144893   0.3500739
1.8565352    -0.9977832  -0.0030862   0.0002297   0.0040764  -0.0000061  -0.0000007  -0.9141587   0.3508992
1.8793580    -0.9978598  -0.0030989   0.0001926   0.0039636   0.0000050  -0.0000067  -0.9138773   0.3516445
1.9024614    -0.9978214  -0.0031267   0.0002423   0.0041448   0.0000034   0.0000019  -0.9136433   0.3524820
1.9258488    -0.9978580  -0.0031726   0.0002370   0.0042115  -0.0000040  -0.0000066  -0.9132013   0.3533232
1.9495237    -0.9977769  -0.0033516   0.0002583   0.0042913  -0.0000036  -0.0000086  -0.9128573   0.3542622
1.9734897    -0.9978315  -0.0033798   0.0002678   0.0043105  -0.0000027  -0.0000027  -0.9124967   0.3551210
1.9977503    -0.9978310  -0.0034339   0.0003167   0.0042587  -0.0000022  -0.0000100  -0.9121862   0.3560367
2.0223091    -0.9978156  -0.0034066   0.0002534   0.0044260   0.0000036  -0.0000066  -0.9117146   0.3569520
2.0471698    -0.9978559  -0.0034656   0.0002397   0.0044877   0.0000021  -0.0000058  -0.9112576   0.3578717
2.0723362    -0.9978112  -0.0034809   0.0002493   0.0044830  -0.0000052  -0.0000109  -0.9108508   0.3587810
2.0978119    -0.9978076  -0.0034909   0.0002898   0.0046190  -0.0000046  -0.0000081  -0.9103719   0.3597379
2.1236008    -0.9977938  -0.0035113   0.0001966   0.0044449  -0.0000093  -0.0000004  -0.9098752   0.3606545
2.1497067    -0.9978915  -0.0036442   0.0003127   0.0046508  -0.0000046  -0.0000022  -0.9093895   0.3616367
2.1761336    -0.9979015  -0.0036819   0.0002997   0.0046880  -0.0000068  -0.0000094  -0.9089004   0.3624516
2.2028853    -0.9978179  -0.0037407   0.0002963   0.0047444  -0.0000069  -0.0000036  -0.9082573   0.3634525
2.2299659    -0.9978107  -0.0037259   0.0002656   0.0048120  -0.0000041  -0.0000103  -0.9079217   0.3643863
2.2573794    -0.9978533  -0.0038660   0.0003533   0.0048793  -0.0000005   0.0000045  -0.9073349   0.3653268
2.2851299    -0.9978137  -0.0039197   0.0003526   0.0048910  -0.0000203  -0.0000078  -0.9067572   0.3662666
2.3132216    -0.9978578  -0.0038909   0.0001527   0.0047946  -0.0000061  -0.0000051  -0.9062437   0.3671181
2.3416586    -0.9977485  -0.0038558   0.0003595   0.0049724   0.0000013  -0.0000147  -0.9056892   0.3680784
2.3704451    -0.9978226  -0.0040335   0.0002899   0.0050247  -0.0000051  -0.0000091  -0.9051684   0.3691096
2.3995856    -0.9977822  -0.0040804   0.0003261   0.0051311  -0.0000066  -0.0000082  -0.9045189   0.3700807
2.4290843    -0.9979276  -0.0041258   0.0001005   0.0051336  -0.0000003  -0.0000136  -0.9041214   0.3709168
2.4589456    -0.9979110  -0.0041517   0.0003823   0.0052355  -0.0000015  -0.0000055  -0.9035454   0.3719175
2.4891740    -0.9979370  -0.0042591   0.0003960   0.0053186   0.0000065   0.0000046  -0.9030067   0.3729132
2.5197740    -0.9979285  -0.0041931   0.0003696   0.0053949  -0.0000101  -0.0000049  -0.9025121   0.3739415
2.5507502    -0.9978693  -0.0042717   0.0004323   0.0053991  -0.0000041   0.0000006  -0.9019500   0.3748543
2.5821072    -0.9979486  -0.0043579   0.0004858   0.0055451   0.0000005  -0.0000009  -0.9013914   0.3758758
2.6138496    -0.9978827  -0.0044431   0.0004214   0.0054961  -0.0000073  -0.0000027  -0.9007222   0.3768633
2.6459823    -0.9979173  -0.0044456   0.0004180   0.0056143  -0.0000029   0.0000048  -0.9001987   0.3779199
2.6785100    -0.9978199  -0.0044861   0.0004059   0.0056731  -0.0000082  -0.0000121  -0.8996597   0.3790409
2.7114376    -0.9979372  -0.0045850   0.0003118   0.0057536  -0.0000063  -0.0000062  -0.8990225   0.3800620
2.7447699    -0.9979333  -0.0046997   0.0004635   0.0057652   0.0000017  -0.0000063  -0.8984440   0.3810689
2.7785120    -0.9979019  -0.0046474   0.0004132   0.0058106  -0.0000026  -0.0000068  -0.8978285   0.3821643
2.8126689    -0.9978108  -0.0047044   0.0003742   0.0059088  -0.0000122   0.0000035  -0.8973122   0.3833147
2.8472457    -0.9978485  -0.0047861   0.0004072   0.0059912  -0.0000035  -0.0000070  -0.8967607   0.3844286
2.8822476    -0.9979361  -0.0048880   0.0003768   0.0060589   0.0000060   0.0000022  -0.8961782   0.3855124
2.9176798    -0.9978628  -0.0048133   0.0004278   0.0060693  -0.0000007  -0.0000141  -0.8955195   0.3866086
2.9535475    -0.9978826  -0.0050286   0.0004537   0.0061859  -0.0000058  -0.0000054  -0.8949483   0.3878070
2.9898562    -0.9979117  -0.0050371   0.0005035   0.0062169  -0.0000028  -0.0000049  -0.8942470   0.3890268
3.0266112    -0.9979227  -0.0051321   0.0004684   0.0063348  -0.0000014  -0.0000102  -0.8936296   0.3901293
3.0638180    -0.9979069  -0.0051828   0.0004712   0.0064478  -0.0000027  -0.0000106  -0.8929854   0.3913348
3.1014823    -0.9978125  -0.0051641   0.0003349   0.0064701   0.0000122   0.0000001  -0.8923790   0.3926033
3.1396096    -0.9978353  -0.0051869   0.0004995   0.0065315   0.0000007  -0.0000151  -0.8916534   0.3937399
3.1782055    -0.9979632  -0.0052990   0.0004938   0.0065424  -0.0000052  -0.0000060  -0.8910269   0.3950064
3.2172760    -0.9980016  -0.0054091   0.0004470   0.0067186  -0.0000021  -0.0000025  -0.8903442   0.3962763
3.2568267    -0.9979116  -0.0056107   0.0005051   0.0067636   0.0000000   0.0000010  -0.8897056   0.3975141
3.2968637    -0.9978939  -0.0055923   0.0004546   0.0068331   0.0000079  -0.0000071  -0.8889123   0.3988380
3.3373928    -0.9979746  -0.0056935   0.0005502   0.0070892  -0.0000055  -0.0000043  -0.8882090   0.4000991
3.3784202    -0.9978945  -0.0055860   0.0004094   0.0070373   0.0000017  -0.0000115  -0.8874257   0.4014749
3.4199519    -0.9978197  -0.0057405   0.0005295   0.0070937  -0.0000018  -0.0000072  -0.8867184   0.4027799
3.4619942    -0.9979083  -0.0057931   0.0006656   0.0073800   0.0000094  -0.0000015  -0.8859021   0.4040620
3.5045533    -0.9979593  -0.0058624   0.0009585   0.0075797  -0.0000130  -0.0000043  -0.8851955   0.4055343
3.5476356    -0.9979071  -0.0060016   0.0012316   0.0072349  -0.0000032  -0.0000072  -0.8844131   0.4068135
3.5912475    -0.9979197  -0.0060154   0.0004231   0.0073098   0.0000050  -0.0000068  -0.8835820   0.4081858
3.6353956    -0.9979025  -0.0061362   0.0007300   0.0075356  -0.0000033   0.0000033  -0.8828196   0.4096963
3.6800864    -0.9979295  -0.0061541   0.0005792   0.0075905  -0.0000019  -0.0000012  -0.8820544   0.4111741
3.7253266    -0.9980380  -0.0062685  -0.0000073   0.0073133  -0.0000012   0.0000029  -0.8812237   0.4125975
3.7711229    -0.9979768  -0.0063152   0.0009025   0.0073589   0.0000036  -0.0000073  -0.8804596   0.4140384
3.8174822    -0.9979504  -0.0064008   0.0007653   0.0074463   0.0000054  -0.0000037  -0.8795996   0.4154965
3.8644115    -0.9979301  -0.0064600   0.0003786   0.0076419  -0.0000027  -0.0000005  -0.8788628   0.4170898
3.9119176    -0.9979255  -0.0064909   0.0004258   0.0086010   0.0000050  -0.0000047  -0.8780034   0.4186069
3.9600077    -0.9980189  -0.0065573   0.0007594   0.0080539  -0.0000003  -0.0000106  -0.8772529   0.4201030
4.0086890    -0.9978252  -0.0067187   0.0007531   0.0082846  -0.0000001  -0.0000011  -0.8762245   0.4216955
4.0579688    -0.9978807  -0.0068136   0.0005468   0.0083716   0.0000105  -0.0000087  -0.8753939   0.4232443
4.1078544    -0.9979153  -0.0067950   0.0004955   0.0082996   0.0000009  -0.0000062  -0.8745147   0.4247613
4.1583532    -0.9979607  -0.0069502   0.0006047   0.0084912  -0.0000076  -0.0000134  -0.8735491   0.4263804
4.2094729    -0.9979907  -0.0070626   0.0006381   0.0086739  -0.0000130  -0.0000085  -0.8727399   0.4279787
4.2612209    -0.9980282  -0.0070936   0.0006742   0.0086967   0.0000049  -0.0000003  -0.8717528   0.4295703
4.3136051    -0.9980018  -0.0073023   0.0008585   0.0087590   0.0000094  -0.0000038  -0.8707551   0.4312195
4.3666333    -0.9979392  -0.0073598   0.0006148   0.0088616  -0.0000042  -0.0000094  -0.8698497   0.4329018
4.4203134    -0.9980253  -0.0075287   0.0006175   0.0091277  -0.0000094  -0.0000055  -0.8687537   0.4345216
4.4746534    -0.9979549  -0.0074729   0.0006602   0.0091705  -0.0000100  -0.0000040  -0.8676684   0.4362446
4.5296613    -0.9979773  -0.0076693   0.0006659   0.0091981  -0.0000140  -0.0000062  -0.8666960   0.4379928
4.5853455    -0.9978656  -0.0077680   0.0007180   0.0095622   0.0000126  -0.0000056  -0.8655878   0.4397037
4.6417143    -0.9978070  -0.0077957   0.0007056   0.0094508   0.0000038  -0.0000010  -0.8644354   0.4412928
4.6987760    -0.9979306  -0.0078907   0.0007513   0.0096122  -0.0000146  -0.0000077  -0.8633619   0.4429503
4.7565392    -0.9980450  -0.0078650   0.0006977   0.0095399  -0.0000048  -0.0000118  -0.8622112   0.4446939
4.8150125    -0.9979322  -0.0081652   0.0006878   0.0097576   0.0000012  -0.0000054  -0.8610678   0.4463435
4.8742045    -0.9979871  -0.0082050   0.0007367   0.0098899   0.0000013  -0.0000100  -0.8598778   0.4479819
4.9341243    -0.9979939  -0.0082953   0.0007245   0.0099658  -0.0000079  -0.0000109  -0.8588102   0.4494953
4.9947807    -0.9979886  -0.0083811   0.0006778   0.0101516  -0.0000006  -0.0000013  -0.8578174   0.4510817
5.0561827    -0.9979821  -0.0084675   0.0005738   0.0101420  -0.0000007  -0.0000055  -0.8568059   0.4527803
5.1183396    -0.9980006  -0.0085989   0.0007703   0.0102565   0.0000014  -0.0000067  -0.8558557   0.4544847
5.1812606    -0.9979859  -0.0086534   0.0008873   0.0107277   0.0000041   0.0000007  -0.8549632   0.4562606
5.2449550    -0.9980223  -0.0087731   0.0007939   0.0105397  -0.0000038  -0.0000165  -0.8540537   0.4582926
5.3094325    -0.9978970  -0.0088350   0.0007605   0.0107083  -0.0000002  -0.0000129  -0.8530595   0.4601084
5.3747026    -0.9979197  -0.0089960   0.0007580   0.0107646  -0.0000032  -0.0000010  -0.8520304   0.4623129
5.4407751    -0.9980863  -0.0090991   0.0006977   0.0110088   0.0000050  -0.0000045  -0.8508710   0.4642557
5.5076599    -0.9979946  -0.0092300   0.0007796   0.0110477  -0.0000117  -0.0000096  -0.8497691   0.4663224
5.5753669    -0.9980077  -0.0093414   0.0007614   0.0111896   0.0000046  -0.0000046  -0.8485973   0.4684798
5.6439062    -0.9979632  -0.0094274   0.0007911   0.0113238   0.0000020  -0.0000020  -0.8474325   0.4705647
5.7132881    -0.9980150  -0.0095568   0.0008699   0.0115121  -0.0000053  -0.0000021  -0.8461542   0.4727491
5.7835229    -0.9980097  -0.0097608   0.0007083   0.0114931   0.0000120  -0.0000015  -0.8448744   0.4749231
5.8546211    -0.9981129  -0.0097799   0.0008232   0.0117545   0.0000019  -0.0000059  -0.8436650   0.4771559
5.9265934    -0.9980698  -0.0099402   0.0008311   0.0119737   0.0000031  -0.0000032  -0.8422969   0.4793258
5.9994504    -0.9980356  -0.0101299   0.0008588   0.0120562  -0.0000047  -0.0000054  -0.8409209   0.4814409
6.0732031    -0.9981020  -0.0101234   0.0008008   0.0121807  -0.0000113  -0.0000100  -0.8395623   0.4836481
6.1478624    -0.9980859  -0.0102889   0.0008267   0.0122700   0.0000063  -0.0000045  -0.8381859   0.4858738
6.2234396    -0.9980612  -0.0103466   0.0008454   0.0124076  -0.0000013  -0.0000036  -0.8366054   0.4881844
6.2999458    -0.9981409  -0.0104918   0.0008671   0.0125701  -0.0000015  -0.0000074  -0.8352632   0.4904485
6.3773925    -0.9979982  -0.0106025   0.0008469   0.0126614  -0.0000065  -0.0000109  -0.8337530   0.4927246
6.4557914    -0.9980821  -0.0108083   0.0008931   0.0129361   0.0000019  -0.0000044  -0.8322471   0.4949631
6.5351539    -0.9981150  -0.0108498   0.0008248   0.0130056  -0.0000016   0.0000001  -0.8307492   0.4973691
6.6154922    -0.9979911  -0.0108541   0.0008868   0.0131197   0.0000017  -0.0000067  -0.8291662   0.4997310
6.6968180    -0.9980575  -0.0110987   0.0008715   0.0133245  -0.0000013  -0.0000054  -0.8275994   0.5021189
6.7791436    -0.9980838  -0.0113576   0.0008581   0.0134960  -0.0000036  -0.0000061  -0.8260330   0.5044637
6.8624812    -0.9981114  -0.0114759   0.0009280   0.0136721  -0.0000017  -0.0000108  -0.8244187   0.5069328
6.9468433    -0.9979743  -0.0115603   0.0009244   0.0138290  -0.0000075   0.0000006  -0.8228260   0.5093485
7.0322425    -0.9979897  -0.0116532   0.0010147   0.0140739  -0.0000001  -0.0000017  -0.8211146   0.5118158
7.1186916    -0.9980591  -0.0119327   0.0008123   0.0141903   0.0000055  -0.0000068  -0.8194095   0.5143454
7.2062034    -0.9980460  -0.0121026   0.0009660   0.0143408  -0.0000054  -0.0000028  -0.8176992   0.5169044
7.2947909    -0.9981207  -0.0120467   0.0009575   0.0145197  -0.0000060  -0.0000003  -0.8159561   0.5194736
7.3844675    -0.9979876  -0.0123092   0.0009909   0.0146370  -0.0000109  -0.0000018  -0.8142863   0.5220747
7.4752466    -0.9979649  -0.0124178   0.0010462   0.0148236   0.0000062  -0.0000064  -0.8124937   0.5246904
7.5671416    -0.9981415  -0.0125982   0.0010218   0.0150256  -0.0000101   0.0000033  -0.8107805   0.5273408
7.6601662    -0.9980484  -0.0127135   0.0010357   0.0152005  -0.0000032  -0.0000058  -0.8089321   0.5300260
7.7543345    -0.9981310  -0.0129432   0.0010783   0.0153450  -0.0000011  -0.0000027  -0.8070409   0.5328550
7.8496604    -0.9980609  -0.0130628   0.0010423   0.0155531  -0.0000081  -0.0000079  -0.8052010   0.5356596
7.9461581    -0.9980680  -0.0131753   0.0010579   0.0156872  -0.0000041  -0.0000001  -0.8031845   0.5385086
8.0438422    -0.9980035  -0.0133277   0.0010607   0.0159472  -0.0000019   0.0000034  -0.8012046   0.5413537
8.1427270    -0.9980681  -0.0135346   0.0010342   0.0161025   0.0000042   0.0000010  -0.7990345   0.5443276
8.2428275    -0.9980577  -0.0137203   0.0011293   0.0162649   0.0000016   0.0000028  -0.7968067   0.5471867
8.3441586    -0.9980431  -0.0138248   0.0010894   0.0165177  -0.0000017   0.0000017  -0.7946318   0.5499687
8.4467353    -0.9979963  -0.0140613   0.0009313   0.0165603   0.0000085  -0.0000037  -0.7923743   0.5529673
8.5505731    -0.9980859  -0.0142365   0.0010869   0.0168657   0.0000036  -0.0000037  -0.7900742   0.5557386
8.6556873    -0.9981062  -0.0143943   0.0011115   0.0171319   0.0000022  -0.0000069  -0.7877981   0.5586649
8.7620937    -0.9980516  -0.0144895   0.0011026   0.0172728  -0.0000146  -0.0000022  -0.7855033   0.5615264
8.8698082    -0.9981526  -0.0146515   0.0011428   0.0174812   0.0000006  -0.0000076  -0.7831491   0.5644380
8.9788469    -0.9981164  -0.0148561   0.0011112   0.0178739   0.0000057  -0.0000060  -0.7808526   0.5673655
9.0892260    -0.9980155  -0.0150818   0.0011189   0.0179022  -0.0000017  -0.0000065  -0.7784899   0.5703176
9.2009621    -0.9981420  -0.0152846   0.0011696   0.0181661  -0.0000012  -0.0000011  -0.7759998   0.5733714
9.3140717    -0.9981649  -0.0154815   0.0011679   0.0183788   0.0000038   0.0000058  -0.7735743   0.5763568
9.4285718    -0.9980654  -0.0156246   0.0012015   0.0186085  -0.0000053  -0.0000121  -0.7711036   0.5794398
9.5444795    -0.9980747  -0.0159181   0.0012077   0.0188589  -0.0000082   0.0000062  -0.7685506   0.5825374
9.6618121    -0.9980348  -0.0160370   0.0012217   0.0189245   0.0000018  -0.0000043  -0.7660223   0.5856292
9.7805870    -0.9980816  -0.0163332   0.0011936   0.0192594   0.0000009   0.0000032  -0.7634060   0.5888029
9.9008221    -0.9981652  -0.0165204   0.0012660   0.0194868   0.0000039  -0.0000012  -0.7607542   0.5920226
10.0225353   -0.9981255  -0.0166700   0.0014104   0.0195658  -0.0000049  -0.0000083  -0.7581033   0.5951324
10.1457447   -0.9980275  -0.0168964   0.0012923   0.0199732  -0.0000039  -0.0000058  -0.7553612   0.5984296
10.2704688   -0.9981606  -0.0170043   0.0012563   0.0202240  -0.0000041  -0.0000085  -0.7526769   0.6017045
10.3967261   -0.9981194  -0.0172614   0.0013246   0.0203711  -0.0000061  -0.0000066  -0.7498397   0.6050384
10.5245356   -0.9981285  -0.0175393   0.0013494   0.0206668  -0.0000079  -0.0000076  -0.7469667   0.6082174
10.6539162   -0.9980575  -0.0176975   0.0014085   0.0209936   0.0000029   0.0000029  -0.7440703   0.6115378
10.7848873   -0.9981323  -0.0178417   0.0014345   0.0211105   0.0000005  -0.0000063  -0.7411368   0.6149778
10.9174685   -0.9982229  -0.0181559   0.0013855   0.0214299  -0.0000070  -0.0000035  -0.7381281   0.6183689
11.0516796   -0.9981270  -0.0183554   0.0014365   0.0217193  -0.0000045   0.0000037  -0.7349763   0.6217995
11.1875405   -0.9981206  -0.0185179   0.0014524   0.0218841   0.0000009  -0.0000076  -0.7319551   0.6253218
11.3250716   -0.9980642  -0.0186785   0.0015513   0.0220762  -0.0000013  -0.0000002  -0.7288001   0.6287838
11.4642934   -0.9981240  -0.0190398   0.0014737   0.0224797  -0.0000070  -0.0000020  -0.7255736   0.6322627
11.6052267   -0.9981288  -0.0192456   0.0014749   0.0227068  -0.0000104  -0.0000051  -0.7223402   0.6358978
11.7478926   -0.9980874  -0.0195329   0.0016119   0.0227717  -0.0000036   0.0000009  -0.7190147   0.6394037
11.8923122   -0.9981340  -0.0197210   0.0015501   0.0232824   0.0000007   0.0000002  -0.7156511   0.6429700
12.0385073   -0.9981842  -0.0199224   0.0015823   0.0235636  -0.0000075  -0.0000003  -0.7121713   0.6466395
12.1864995   -0.9981212  -0.0201786   0.0016330   0.0235719  -0.0000044  -0.0000095  -0.7086981   0.6502674
12.3363111   -0.9980610  -0.0204304   0.0015696   0.0241252  -0.0000098  -0.0000015  -0.7052440   0.6539590
12.4879643   -0.9981262  -0.0206632   0.0016336   0.0244026  -0.0000047  -0.0000026  -0.7015574   0.6576797
12.6414818   -0.9981249  -0.0209026   0.0016123   0.0246951   0.0000050  -0.0000068  -0.6978449   0.6613944
12.7968866   -0.9980736  -0.0210693   0.0017656   0.0247622   0.0000019  -0.0000131  -0.6941116   0.6651428
12.9542018   -0.9981149  -0.0214372   0.0016989   0.0252461   0.0000027   0.0000004  -0.6903715   0.6689079
13.1134509   -0.9981169  -0.0216282   0.0017640   0.0256099  -0.0000100  -0.0000035  -0.6864955   0.6727020
13.2746577   -0.9980385  -0.0219614   0.0017450   0.0258500  -0.0000033  -0.0000037  -0.6825288   0.6765492
13.4378462   -0.9980549  -0.0221904   0.0017590   0.0260198   0.0000116  -0.0000093  -0.6785797   0.6805044
13.6030409   -0.9981394  -0.0225492   0.0017729   0.0265022   0.0000024  -0.0000091  -0.6744924   0.6843455
13.7702663   -0.9981544  -0.0227722   0.0017930   0.0266310  -0.0000078   0.0000053  -0.6703140   0.6882447
13.9395475   -0.9979846  -0.0229912   0.0018326   0.0270946  -0.0000009  -0.0000010  -0.6661352   0.6921232
14.1109097   -0.9981488  -0.0232747   0.0018556   0.0274174  -0.0000038  -0.0000051  -0.6618006   0.6961022
14.2843785   -0.9981350  -0.0235942   0.0019746   0.0278840   0.0000052   0.0000030  -0.6574447   0.7000021
14.4599797   -0.9979649  -0.0238785   0.0018748   0.0281110   0.0000036  -0.0000067  -0.6530176   0.7040575
14.6377397   -0.9981660  -0.0241798   0.0019268   0.0284579  -0.0000093  -0.0000076  -0.6485291   0.7080584
14.8176850   -0.9980531  -0.0245004   0.0019512   0.0288035  -0.0000131   0.0000027  -0.6439510   0.7120446
14.9998423   -0.9981516  -0.0248119   0.0019883   0.0291577  -0.0000022  -0.0000131  -0.6392536   0.7161155
15.1842390   -0.9980928  -0.0251374   0.0020440   0.0295048  -0.0000130   0.0000049  -0.6344815   0.7202062
15.3709024   -0.9981391  -0.0254467   0.0020282   0.0298188  -0.0000048   0.0000017  -0.6297241   0.7242485
15.5598606   -0.9980322  -0.0257362   0.0020779   0.0301876  -0.0000054  -0.0000108  -0.6248621   0.7283607
15.7511417   -0.9980010  -0.0259626   0.0020494   0.0304242   0.0000019  -0.0000063  -0.6198680   0.7325479
15.9447743   -0.9980761  -0.0262822   0.0022576   0.0309259   0.0000020  -0.0000005  -0.6148227   0.7366409
16.1407872   -0.9981037  -0.0265613   0.0021859   0.0312848  -0.0000153  -0.0000110  -0.6095775   0.7408179
16.3392097   -0.9980706  -0.0269267   0.0020027   0.0314868  -0.0000056   0.0000011  -0.6043237   0.7450111
16.5400716   -0.9980675  -0.0272863   0.0022105   0.0319976  -0.0000077   0.0000002  -0.5990279   0.7492048
16.7434026   -0.9980717  -0.0276002   0.0021758   0.0323635  -0.0000112  -0.0000024  -0.5935454   0.7533613
16.9492333   -0.9980319  -0.0279294   0.0022714   0.0328015   0.0000049   0.0000022  -0.5880423   0.7577115
17.1575942   -0.9980295  -0.0281251   0.0022732   0.0328928  -0.0000039   0.0000064  -0.5824226   0.7618352
17.3685166   -0.9980599  -0.0286004   0.0023642   0.0335604  -0.0000002   0.0000013  -0.5767305   0.7661086
17.5820320   -0.9980001  -0.0289945   0.0022885   0.0338293  -0.0000036  -0.0000010  -0.5708657   0.7702965
17.7981721   -0.9980002  -0.0293490   0.0023597   0.0343411  -0.0000008  -0.0000063  -0.5649477   0.7746078
18.0169693   -0.9979695  -0.0296153   0.0023985   0.0348015  -0.0000148   0.0000015  -0.5589829   0.7788677
18.2384562   -0.9979733  -0.0299847   0.0024223   0.0352093  -0.0000088  -0.0000066  -0.5528978   0.7832294
18.4626659   -0.9979909  -0.0303737   0.0024682   0.0354928   0.0000017  -0.0000043  -0.5466180   0.7874117
18.6896319   -0.9979254  -0.0307866   0.0024406   0.0360069  -0.0000066   0.0000047  -0.5403799   0.7916946
18.9193880   -0.9979663  -0.0310195   0.0025610   0.0365623  -0.0000040  -0.0000020  -0.5338648   0.7960754
19.1519686   -0.9979523  -0.0315685   0.0024773   0.0367674   0.0000009  -0.0000067  -0.5272533   0.8003731
19.3874083   -0.9979430  -0.0318716   0.0027067   0.0374578  -0.0000090  -0.0000072  -0.5205907   0.8046701
19.6257423   -0.9979789  -0.0322566   0.0027945   0.0377228  -0.0000034  -0.0000054  -0.5139282   0.8090026
19.8670063   -0.9980351  -0.0326713   0.0027818   0.0383315  -0.0000003  -0.0000053  -0.5070653   0.8132444
20.1112361   -0.9979930  -0.0329827   0.0027181   0.0386843   0.0000014   0.0000039  -0.5000667   0.8175503
20.3584684   -0.9981011  -0.0334835   0.0029022   0.0392342  -0.0000109  -0.0000031  -0.4928451   0.8218131
20.6087399   -0.9979554  -0.0338718   0.0029315   0.0396444   0.0000064  -0.0000074  -0.4856078   0.8260492
20.8620881   -0.9979306  -0.0343064   0.0028645   0.0399415  -0.0000070   0.0000015  -0.4781752   0.8303917
21.1185507   -0.9979187  -0.0346952   0.0030016   0.0405700  -0.0000055   0.0000029  -0.4706816   0.8346281
21.3781661   -0.9979190  -0.0350932   0.0030667   0.0410282  -0.0000035  -0.0000010  -0.4630449   0.8387695
21.6409730   -0.9978036  -0.0355029   0.0031102   0.0415316  -0.0000039  -0.0000078  -0.4552968   0.8429882
21.9070107   -0.9978027  -0.0360204   0.0030568   0.0419191  -0.0000070   0.0000040  -0.4474480   0.8472129
22.1763188   -0.9979160  -0.0365227   0.0031383   0.0425158  -0.0000040   0.0000040  -0.4393970   0.8514093
22.4489376   -0.9978392  -0.0368393   0.0030565   0.0429475  -0.0000043  -0.0000038  -0.4312338   0.8556008
22.7249077   -0.9978352  -0.0372512   0.0032086   0.0435692  -0.0000006  -0.0000028  -0.4229033   0.8597198
23.0042705   -0.9978900  -0.0377121   0.0032548   0.0440317  -0.0000025   0.0000032  -0.4144679   0.8638397
23.2870675   -0.9978536  -0.0382583   0.0033046   0.0446372  -0.0000063   0.0000051  -0.4059703   0.8679089
23.5733409   -0.9978966  -0.0386074   0.0034031   0.0450822  -0.0000101  -0.0000119  -0.3971808   0.8719871
23.8631337   -0.9978767  -0.0392042   0.0033957   0.0455712  -0.0000095   0.0000009  -0.3882574   0.8759217
24.1564889   -0.9978200  -0.0396440   0.0034424   0.0460887  -0.0000145   0.0000020  -0.3793041   0.8799030
24.4534504   -0.9977884  -0.0401706   0.0034075   0.0463212  -0.0000039  -0.0000033  -0.3701540   0.8837846
24.7540625   -0.9977750  -0.0406103   0.0036466   0.0472991  -0.0000011  -0.0000056  -0.3608652   0.8877116
25.0583701   -0.9978559  -0.0411155   0.0035680   0.0478130   0.0000015  -0.0000007  -0.3513553   0.8915770
25.3664186   -0.9978231  -0.0415342   0.0038104   0.0483111  -0.0000058  -0.0000061  -0.3416299   0.8953736
25.6782541   -0.9977462  -0.0419590   0.0035512   0.0488213   0.0000039  -0.0000031  -0.3318719   0.8991532
25.9939230   -0.9976162  -0.0425890   0.0037486   0.0493226  -0.0000041  -0.0000050  -0.3219447   0.9027781
26.3134725   -0.9977587  -0.0431104   0.0039034   0.0502703   0.0000036  -0.0000035  -0.3118192   0.9063520
26.6369503   -0.9977213  -0.0436757   0.0037392   0.0506669  -0.0000030  -0.0000139  -0.3015927   0.9099376
26.9644047   -0.9977527  -0.0442199   0.0040108   0.0513919   0.0000019   0.0000037  -0.2911556   0.9134289
27.2958846   -0.9977759  -0.0446778   0.0041093   0.0520811  -0.0000076   0.0000021  -0.2805167   0.9167797
27.6314394   -0.9976492  -0.0452249   0.0040470   0.0525497  -0.0000017  -0.0000051  -0.2698048   0.9201340
27.9711193   -0.9976348  -0.0458657   0.0041947   0.0532951   0.0000071  -0.0000031  -0.2588429   0.9232956
28.3149750   -0.9976343  -0.0464440   0.0041710   0.0539416   0.0000039  -0.0000051  -0.2477763   0.9264440
28.6630578   -0.9975557  -0.0469494   0.0042623   0.0546692  -0.0000087  -0.0000003  -0.2365017   0.9294491
29.0154196   -0.9976494  -0.0475412   0.0042962   0.0551730  -0.0000064  -0.0000030  -0.2250419   0.9323611
29.3721131   -0.9975369  -0.0481153   0.0043502   0.0560267   0.0000014  -0.0000039  -0.2134533   0.9351741
29.7331915   -0.9975524  -0.0486935   0.0046305   0.0566915  -0.0000054  -0.0000036  -0.2016027   0.9379710
30.0987087   -0.9974977  -0.0493104   0.0046776   0.0573749  -0.0000033   0.0000123  -0.1897006   0.9405994
30.4687194   -0.9974791  -0.0498158   0.0046723   0.0579699  -0.0000021  -0.0000058  -0.1775500   0.9431766
30.8432786   -0.9975152  -0.0505404   0.0047733   0.0587324  -0.0000102   0.0000030  -0.1652043   0.9454509
31.2224424   -0.9974272  -0.0509881   0.0049003   0.0594512   0.0000061   0.0000027  -0.1527992   0.9476807
31.6062674   -0.9974539  -0.0516757   0.0050671   0.0602168  -0.0000091  -0.0000072  -0.1400337   0.9498177
31.9948108   -0.9975047  -0.0522891   0.0051800   0.0609525   0.0000000   0.0000043  -0.1271896   0.9518871
32.3881306   -0.9974764  -0.0528866   0.0053204   0.0615932  -0.0000007  -0.0000042  -0.1141830   0.9537462
32.7862857   -0.9972927  -0.0535784   0.0053985   0.0622468  -0.0000070  -0.0000062  -0.1009629   0.9553778
33.1893353   -0.9973193  -0.0542858   0.0053968   0.0629136  -0.0000018  -0.0000006  -0.0875903   0.9570247
33.5973398   -0.9973275  -0.0549221   0.0054315   0.0635860   0.0000037  -0.0000116  -0.0740442   0.9583378
34.0103599   -0.9973895  -0.0555535   0.0052615   0.0642646  -0.0000011   0.0000036  -0.0602129   0.9594876
34.4284574   -0.9973174  -0.0561000   0.0051308   0.0653348  -0.0000075  -0.0000028  -0.0465159   0.9606917
34.8516946   -0.9971463  -0.0569428   0.0053398   0.0663808  -0.0000053   0.0000028  -0.0322434   0.9616950
35.2801349   -0.9971796  -0.0575148   0.0056790   0.0672827  -0.0000032  -0.0000036  -0.0177784   0.9624635
35.7138420   -0.9972107  -0.0583217   0.0059088   0.0678240  -0.0000069  -0.0000060  -0.0032039   0.9628964
36.1528808   -0.9971418  -0.0589928   0.0059228   0.0689673  -0.0000086  -0.0000063   0.0115347   0.9632563
36.5973168   -0.9970844  -0.0596975   0.0062558   0.0697565   0.0000000  -0.0000055   0.0264333   0.9633738
37.0472164   -0.9971085  -0.0604179   0.0063296   0.0705105  -0.0000010  -0.0000025   0.0415912   0.9631242
37.5026467   -0.9969256  -0.0612936   0.0065873   0.0714762   0.0000005  -0.0000051   0.0569194   0.9628974
37.9636757   -0.9969589  -0.0619535   0.0069222   0.0720779  -0.0000025  -0.0000048   0.0726387   0.9619464
38.4303722   -0.9970114  -0.0626428   0.0070514   0.0726549   0.0000012  -0.0000023   0.0881824   0.9611452
38.9028060   -0.9969519  -0.0633547   0.0073892   0.0738180   0.0000032   0.0000041   0.1040381   0.9599848
39.3810475   -0.9969009  -0.0642497   0.0073298   0.0746208  -0.0000019   0.0000034   0.1201362   0.9586652
39.8651681   -0.9967594  -0.0649654   0.0073947   0.0751955  -0.0000008   0.0000047   0.1362896   0.9569852
40.3552402   -0.9967707  -0.0657577   0.0074080   0.0760477   0.0000052   0.0000025   0.1527017   0.9550329
40.8513368   -0.9968475  -0.0664810   0.0077035   0.0771821  -0.0000009  -0.0000083   0.1693457   0.9526915
41.3535320   -0.9967498  -0.0673920   0.0078202   0.0778604  -0.0000069  -0.0000035   0.1860114   0.9501695
41.8619009   -0.9967218  -0.0682716   0.0079659   0.0788087  -0.0000012   0.0000013   0.2030277   0.9472720
42.3765193   -0.9966371  -0.0690030   0.0081407   0.0798408   0.0000010  -0.0000008   0.2201222   0.9440599
42.8974639   -0.9965768  -0.0698108   0.0081996   0.0806425  -0.0000026   0.0000052   0.2373514   0.9404513
43.4248127   -0.9965138  -0.0706639   0.0083194   0.0815096   0.0000010  -0.0000060   0.2547651   0.9366341
43.9586443   -0.9965015  -0.0715471   0.0084367   0.0824415   0.0000045  -0.0000092   0.2723270   0.9323410
44.4990385   -0.9964475  -0.0723340   0.0085392   0.0834086  -0.0000060   0.0000010   0.2900678   0.9276746
45.0460758   -0.9964265  -0.0733071   0.0087203   0.0843597   0.0000030   0.0000042   0.3079234   0.9226692
45.5998380   -0.9962971  -0.0741736   0.0088499   0.0850992  -0.0000014  -0.0000026   0.3258964   0.9172927
46.1604077   -0.9961966  -0.0750272   0.0089093   0.0861572  -0.0000057  -0.0000096   0.3439905   0.9114112
46.7278686   -0.9962531  -0.0758740   0.0089739   0.0868640  -0.0000078  -0.0000061   0.3622095   0.9051561
47.3023055   -0.9960808  -0.0769226   0.0090141   0.0879067  -0.0000035   0.0000063   0.3805383   0.8984954
47.8838040   -0.9960403  -0.0778648   0.0089945   0.0890874   0.0000035  -0.0000116   0.3990787   0.8913030
48.4724511   -0.9959585  -0.0788279   0.0089606   0.0903286  -0.0000043   0.0000037   0.4175483   0.8837820
49.0683345   -0.9958396  -0.0797627   0.0090943   0.0916944  -0.0000065   0.0000016   0.4362200   0.8757527
49.6715433   -0.9957994  -0.0806742   0.0093663   0.0928490  -0.0000056  -0.0000091   0.4548566   0.8672616
50.2821675   -0.9958386  -0.0816364   0.0096629   0.0940103  -0.0000049  -0.0000026   0.4737366   0.8581977
50.9002982   -0.9956365  -0.0826477   0.0098022   0.0950194  -0.0000001  -0.0000023   0.4925113   0.8486204
51.5260277   -0.9957270  -0.0836736   0.0096144   0.0959659   0.0000016  -0.0000145   0.5114078   0.8386844
52.1594495   -0.9956068  -0.0847431   0.0095607   0.0973005   0.0000007  -0.0000111   0.5302185   0.8281260
52.8006581   -0.9954411  -0.0856740   0.0094538   0.0986495   0.0000019  -0.0000070   0.5491565   0.8169084
53.4497492   -0.9953584  -0.0867146   0.0096301   0.1001556   0.0000038  -0.0000035   0.5682259   0.8053365
54.1068198   -0.9952443  -0.0878876   0.0102212   0.1014855   0.0000014  -0.0000070   0.5870810   0.7931806
54.7719678   -0.9952649  -0.0888299   0.0106185   0.1025191  -0.0000080  -0.0000108   0.6059003   0.7804755
55.4452927   -0.9951471  -0.0899929   0.0107872   0.1036931  -0.0000031   0.0000036   0.6248029   0.7668483
56.1268950   -0.9949727  -0.0909897   0.0105636   0.1045699  -0.0000012  -0.0000006   0.6436129   0.7528409
56.8168763   -0.9950005  -0.0921253   0.0103445   0.1066878  -0.0000113  -0.0000002   0.6623330   0.7382715
57.5153398   -0.9948623  -0.0932396   0.0107178   0.1082981  -0.0000006  -0.0000099   0.6809259   0.7230836
58.2223896   -0.9946274  -0.0944231   0.0112449   0.1100343   0.0000062  -0.0000063   0.6993919   0.7071741
58.9381314   -0.9946588  -0.0955754   0.0120146   0.1113916   0.0000077  -0.0000018   0.7177304   0.6906869
59.6626719   -0.9945398  -0.0966742   0.0122689   0.1119547   0.0000018  -0.0000044   0.7358872   0.6734457
60.3961194   -0.9944426  -0.0979318   0.0123782   0.1135064  -0.0000076  -0.0000076   0.7539451   0.6555725
61.1385834   -0.9943020  -0.0990648   0.0125899   0.1149167   0.0000077  -0.0000151   0.7717916   0.6369847
61.8901746   -0.9942365  -0.1003141   0.0126978   0.1162575  -0.0000007  -0.0000055   0.7892939   0.6177425
62.6510053   -0.9941745  -0.1014222   0.0132326   0.1172861  -0.0000042  -0.0000129   0.8065969   0.5978861
63.4211891   -0.9939953  -0.1026959   0.0131454   0.1186200  -0.0000005   0.0000010   0.8236544   0.5771804
64.2008409   -0.9938385  -0.1040238   0.0129750   0.1203815  -0.0000013  -0.0000071   0.8403290   0.5559154
64.9900772   -0.9936623  -0.1052070   0.0125039   0.1220719   0.0000060  -0.0000039   0.8567017   0.5338548
65.7890158   -0.9935282  -0.1065659   0.0125719   0.1247241   0.0000066  -0.0000067   0.8726612   0.5111127
66.5977759   -0.9934125  -0.1077962   0.0135027   0.1267502  -0.0000110   0.0000004   0.8881822   0.4875516
67.4164783   -0.9932785  -0.1091783   0.0146088   0.1288978   0.0000024  -0.0000098   0.9034119   0.4632958
68.2452452   -0.9932050  -0.1104835   0.0154271   0.1294217  -0.0000016  -0.0000030   0.9180764   0.4384124
69.0842003   -0.9929561  -0.1117185   0.0160425   0.1316768  -0.0000021  -0.0000152   0.9322427   0.4127304
69.9334689   -0.9929232  -0.1130670   0.0169198   0.1331959  -0.0000106  -0.0000085   0.9455765   0.3863505
70.7931778   -0.9927166  -0.1145934   0.0174324   0.1334028   0.0000082  -0.0000021   0.9591080   0.3591561
71.6634552   -0.9924729  -0.1159959   0.0170416   0.1340447  -0.0000035  -0.0000070   0.9716677   0.3310241
72.5444312   -0.9923821  -0.1173220   0.0167634   0.1363792   0.0000123   0.0000005   0.9836817   0.3023485
73.4362373   -0.9921567  -0.1187406   0.0158158   0.1381814  -0.0000012  -0.0000107   0.9948434   0.2729349
74.3390065   -0.9919596  -0.1201055   0.0163732   0.1408161   0.0000080  -0.0000129   1.0046945   0.2431284
75.2528737   -0.9917821  -0.1216408   0.0167847   0.1436881  -0.0000040  -0.0000102   1.0143737   0.2123149
76.1779753   -0.9916476  -0.1231153   0.0177997   0.1462225  -0.0000051  -0.0000124   1.0232854   0.1808396
77.1144493   -0.9915643  -0.1245883   0.0188646   0.1478416  -0.0000026  -0.0000045   1.0313023   0.1486103
78.0624357   -0.9913207  -0.1261894   0.0203634   0.1503813  -0.0000029  -0.0000080   1.0384154   0.1157628
79.0220759   -0.9910521  -0.1276849   0.0216884   0.1514820   0.0000002  -0.0000036   1.0445212   0.0821697
79.9935132   -0.9909041  -0.1291641   0.0219277   0.1518505   0.0000041  -0.0000131   1.0496229   0.0480313
80.9768926   -0.9906898  -0.1306739   0.0214767   0.1528038  -0.0000064  -0.0000116   1.0537186   0.0132410
81.9723609   -0.9905567  -0.1322363   0.0205166   0.1548889   0.0000053  -0.0000071   1.0567157  -0.0222640
82.9800667   -0.9902663  -0.1338391   0.0199789   0.1584044  -0.0000016  -0.0000180   1.0586042  -0.0582525
84.0001605   -0.9898975  -0.1355711   0.0202282   0.1620460   0.0000053  -0.0000160   1.0593000  -0.0947391
85.0327946   -0.9897670  -0.1372586   0.0216270   0.1660815   0.0000022  -0.0000081   1.0586965  -0.1319093
86.0781231   -0.9895741  -0.1389947   0.0248802   0.1691644   0.0000029  -0.0000101   1.0568105  -0.1694968
87.1363020   -0.9894255  -0.1406307   0.0265461   0.1700948   0.0000048  -0.0000041   1.0536046  -0.2074041
88.2074894   -0.9891434  -0.1422901   0.0289767   0.1720303  -0.0000051  -0.0000155   1.0489040  -0.2458368
89.2918452   -0.9890071  -0.1440787   0.0307324   0.1735092  -0.0000005  -0.0000021   1.0430306  -0.2849234
90.3895312   -0.9887481  -0.1457967   0.0315328   0.1745704  -0.0000024  -0.0000180   1.0355088  -0.3237174
91.5007114   -0.9883977  -0.1475030   0.0319656   0.1732223  -0.0000084  -0.0000163   1.0264270  -0.3630294
92.6255515   -0.9881924  -0.1492868   0.0326129   0.1758765  -0.0000034  -0.0000041   1.0155656  -0.4024850
93.7642195   -0.9878294  -0.1509748   0.0327465   0.1780892  -0.0000052  -0.0000188   1.0031624  -0.4420937
94.9168855   -0.9876012  -0.1529586   0.0330626   0.1804272  -0.0000125  -0.0000104   0.9892346  -0.4818269
96.0837215   -0.9872979  -0.1547141   0.0342306   0.1823998  -0.0000039  -0.0000178   0.9734644  -0.5215695
97.2649017   -0.9869451  -0.1566096   0.0347961   0.1835418  -0.0000004  -0.0000104   0.9559370  -0.5609835
98.4606024   -0.9868039  -0.1583103   0.0340637   0.1834443  -0.0000038  -0.0000064   0.9365502  -0.6005025
99.6710021   -0.9863813  -0.1602261   0.0342712   0.1876344  -0.0000145  -0.0000062   0.9153443  -0.6396754
100.8962816  -0.9859531  -0.1621981   0.0341430   0.1903338  -0.0000102  -0.0000124   0.8922365  -0.6784421
102.1366237  -0.9855648  -0.1642789   0.0337601   0.1931471   0.0000052  -0.0000179   0.8671283  -0.7166929
103.3922136  -0.9851735  -0.1662212   0.0339992   0.1975250  -0.0000096  -0.0000112   0.8401955  -0.7544722
104.6632389  -0.9847059  -0.1682834   0.0370603   0.2024909  -0.0000105  -0.0000055   0.8113415  -0.7912682
105.9498891  -0.9844173  -0.1701108   0.0399246   0.2041370  -0.0000069  -0.0000089   0.7803574  -0.8250929
107.2523564  -0.9845173  -0.1725370   0.0443363   0.2063985  -0.0000016  -0.0000085   0.7458400  -0.8653272
108.5708353  -0.9839872  -0.1745520   0.0460018   0.2072095  -0.0000106  -0.0000041   0.7121824  -0.8993932
109.9055225  -0.9823340  -0.1765421   0.0443307   0.2061675   0.0000076  -0.0000064   0.6774515  -0.9319120
111.2566174  -0.9829888  -0.1786259   0.0461625   0.2091461  -0.0000017  -0.0000120   0.6366632  -0.9623526
112.6243216  -0.9826833  -0.1807141   0.0466007   0.2107368   0.0000017  -0.0000150   0.5956314  -0.9930429
114.0088393  -0.9821673  -0.1828257   0.0465405   0.2126084  -0.0000127  -0.0000032   0.5528684  -1.0220177
115.4103773  -0.9817886  -0.1851025   0.0464374   0.2146371  -0.0000076  -0.0000214   0.5080600  -1.0493846
116.8291446  -0.9812868  -0.1872023   0.0459300   0.2166973   0.0000125  -0.0000049   0.4616156  -1.0748125
118.2653533  -0.9808315  -0.1893646   0.0452204   0.2194502  -0.0000004  -0.0000118   0.4131618  -1.0983546
119.7192175  -0.9802121  -0.1917193   0.0442538   0.2222791  -0.0000147  -0.0000006   0.3630310  -1.1198741
121.1909545  -0.9796814  -0.1939800   0.0430580   0.2261927  -0.0000096  -0.0000137   0.3112472  -1.1389094
122.6807839  -0.9790935  -0.1964713   0.0420453   0.2306650  -0.0000186  -0.0000183   0.2578829  -1.1556283
124.1889281  -0.9784298  -0.1988182   0.0412332   0.2370171   0.0000025  -0.0000021   0.2030196  -1.1697805
125.7156123  -0.9779566  -0.2013531   0.0415428   0.2435057  -0.0000108  -0.0000053   0.1468018  -1.1813263
127.2610644  -0.9773544  -0.2036749   0.0439386   0.2504002  -0.0000061  -0.0000096   0.0899457  -1.1898236
128.8255151  -0.9767961  -0.2062373   0.0472400   0.2566027  -0.0000125  -0.0000101   0.0310541  -1.1954536
130.4091980  -0.9761546  -0.2087680   0.0503638   0.2622936  -0.0000132  -0.0000125  -0.0282397  -1.1979713
132.0123495  -0.9755700  -0.2113608   0.0551209   0.2674394  -0.0000062  -0.0000027  -0.0885005  -1.1971293
133.6352088  -0.9750622  -0.2139566   0.0593484   0.2722880  -0.0000239  -0.0000059  -0.1491135  -1.1931309
135.2780184  -0.9746026  -0.2166702   0.0641917   0.2763272  -0.0000031  -0.0000057  -0.2103454  -1.1854267
136.9410235  -0.9739956  -0.2193108   0.0690557   0.2789856  -0.0000093  -0.0000137  -0.2717939  -1.1740384
138.6244722  -0.9733647  -0.2220021   0.0734829   0.2822514  -0.0000096  -0.0000023  -0.3330388  -1.1591738
140.3286160  -0.9726391  -0.2247475   0.0778959   0.2844173  -0.0000127  -0.0000127  -0.3943408  -1.1406394
142.0537093  -0.9717013  -0.2275345   0.0817075   0.2864088  -0.0000183  -0.0000196  -0.4577303  -1.1193078
143.8000095  -0.9716504  -0.2295139   0.0853242   0.2884241  -0.0000058   0.0000000  -0.5114804  -1.0920313
145.5677774  -0.9715247  -0.2329669   0.0887344   0.2912897   0.0000058  -0.0000122  -0.5686752  -1.0596310
147.3572769  -0.9702182  -0.2358638   0.0922298   0.2926973  -0.0000021  -0.0000169  -0.6296031  -1.0274029
149.1687752  -0.9694600  -0.2383094   0.0951989   0.2935112   0.0000015  -0.0000091  -0.6842854  -0.9897038
151.0025426  -0.9687406  -0.2411601   0.0983089   0.2968884  -0.0000053  -0.0000193  -0.7376444  -0.9478988
152.8588530  -0.9680046  -0.2441764   0.1013027   0.2992039  -0.0000013  -0.0000092  -0.7884430  -0.9023780
154.7379834  -0.9670948  -0.2467510   0.1039249   0.3011257  -0.0000086  -0.0000110  -0.8368112  -0.8532143
156.6402144  -0.9664418  -0.2498940   0.1070208   0.3031174  -0.0000084  -0.0000061  -0.8822036  -0.8005717
158.5658301  -0.9654833  -0.2528276   0.1096611   0.3050678  -0.0000037   0.0000147  -0.9241073  -0.7445390
160.5151177  -0.9647567  -0.2558770   0.1125044   0.3073298   0.0000014  -0.0000065  -0.9630209  -0.6849737
162.4883685  -0.9636491  -0.2594480   0.1155773   0.3107880   0.0000013  -0.0000028  -0.9967976  -0.6237559
164.4858769  -0.9628175  -0.2619632   0.1185089   0.3127284   0.0000046  -0.0000033  -1.0278789  -0.5582318
166.5079411  -0.9620669  -0.2653584   0.1212474   0.3148201  -0.0000070  -0.0000102  -1.0539276  -0.4910024
168.5548630  -0.9611519  -0.2682255   0.1243874   0.3184549  -0.0000107   0.0000016  -1.0755896  -0.4214285
170.6269483  -0.9601768  -0.2715006   0.1273149   0.3207478  -0.0000006  -0.0000172  -1.0920161  -0.3500769
172.7245062  -0.9592172  -0.2747200   0.1301437   0.3237864   0.0000046  -0.0000030  -1.1035268  -0.2774294
174.8478498  -0.9580180  -0.2781036   0.1331823   0.3268862   0.0000061  -0.0000036  -1.1094082  -0.2032648
176.9972963  -0.9569634  -0.2815007   0.1362578   0.3299591   0.0000235  -0.0000062  -1.1102204  -0.1277967
179.1731664  -0.9554983  -0.2874429   0.1392610   0.3357085  -0.0000187  -0.0000088  -1.1019377  -0.0580540
181.3757850  -0.9558859  -0.2882541   0.1433763   0.3350415  -0.0000020  -0.0000058  -1.0923748   0.0172629
183.6054809  -0.9535079  -0.2918326   0.1456232   0.3387801  -0.0000115  -0.0000014  -1.0773858   0.0954521
185.8625870  -0.9525955  -0.2952221   0.1495388   0.3419735  -0.0000271  -0.0000083  -1.0548059   0.1676861
188.1474402  -0.9510121  -0.2990569   0.1531983   0.3449572  -0.0000045  -0.0000041  -1.0266452   0.2388777
190.4603817  -0.9500340  -0.3027317   0.1568110   0.3478553  -0.0000241  -0.0000166  -0.9928692   0.3077410
192.8017567  -0.9490685  -0.3064361   0.1605754   0.3504511   0.0000113  -0.0000080  -0.9528826   0.3737659
195.1719148  -0.9479314  -0.3104671   0.1642650   0.3537539  -0.0000411   0.0000164  -0.9079903   0.4365081
197.5712099  -0.9475089  -0.3139889   0.1688361   0.3564940   0.0000064  -0.0000064  -0.8584258   0.4960860
200.0000000  -0.9464369  -0.3171298   0.1719264   0.3587447  -0.0000129  -0.0000066  -0.8026131   0.5505821
