! ListType=Log
# MHZ S RI R 50
0.0010000    -0.9958061  -0.0003468  -0.0010396   0.0022658  -0.0000115  -0.0000299  -0.9088780   0.2599563
0.0010123    -0.9964644  -0.0011250  -0.0021370   0.0022505   0.0000121  -0.0000287  -0.9094622   0.2603417
0.0010247    -0.9944686  -0.0001548  -0.0024896   0.0029091  -0.0000157   0.0000266  -0.9095897   0.2591301
0.0010373    -0.9954678  -0.0005711  -0.0018419   0.0027544  -0.0000085  -0.0000056  -0.9097936   0.2598523
0.0010501    -0.9957582   0.0006375  -0.0022773   0.0028551  -0.0000136  -0.0000118  -0.9091506   0.2596915
0.0010630    -0.9959951  -0.0007056  -0.0020189   0.0024917   0.0000229   0.0000125  -0.9105505   0.2595735
0.0010761    -0.9948411  -0.0007318  -0.0021898   0.0025233  -0.0000149   0.0000095  -0.9107037   0.2587981
0.0010893    -0.9962134  -0.0008492  -0.0019975   0.0024300   0.0000198  -0.0000037  -0.9110865   0.2599258
0.0011027    -0.9955211  -0.0003946  -0.0022175   0.0028970   0.0000030  -0.0000187  -0.9110775   0.2587990
0.0011162    -0.9947993  -0.0012345  -0.0021487   0.0026488  -0.0000056   0.0000030  -0.9120701   0.2584382
0.0011300    -0.9951956   0.0002375  -0.0026833   0.0026988  -0.0000259  -0.0000173  -0.9112969   0.2587179
0.0011439    -0.9961924  -0.0008451  -0.0019757   0.0024847   0.0000190  -0.0000020  -0.9120502   0.2590832
0.0011579    -0.9945934  -0.0000078  -0.0022254   0.0025625  -0.0000080   0.0000011  -0.9120575   0.2578675
0.0011721    -0.9956270  -0.0004343  -0.0021694   0.0025580   0.0000114  -0.0000118  -0.9124015   0.2585311
0.0011866    -0.9952603   0.0005636  -0.0020416   0.0024809  -0.0000454  -0.0000152  -0.9122040   0.2582435
0.0012011    -0.9953945  -0.0000914  -0.0021410   0.0023242  -0.0000151   0.0000003  -0.9128818   0.2582597
0.0012159    -0.9959425  -0.0010328  -0.0023466   0.0021338   0.0000208   0.0000031  -0.9136437   0.2584854
0.0012309    -0.9950920  -0.0005555  -0.0021970   0.0023184   0.0000094   0.0000109  -0.9137401   0.2577885
0.0012460    -0.9957270   0.0005041  -0.0021643   0.0021363  -0.0000062  -0.0000060  -0.9134154   0.2581256
0.0012613    -0.9956213  -0.0015612  -0.0018700   0.0022189   0.0000269  -0.0000021  -0.9147353   0.2579363
0.0012768    -0.9952624  -0.0001380  -0.0021240   0.0023160  -0.0000207   0.0000053  -0.9141770   0.2576231
0.0012925    -0.9959403  -0.0007590  -0.0018665   0.0023161   0.0000140   0.0000076  -0.9151106   0.2580592
0.0013084    -0.9954327  -0.0002861  -0.0018854   0.0025238  -0.0000049   0.0000097  -0.9149123   0.2575421
0.0013245    -0.9959949  -0.0007681  -0.0022816   0.0019636   0.0000181  -0.0000016  -0.9155488   0.2580240
0.0013408    -0.9950438  -0.0003860  -0.0022434   0.0021592   0.0000024  -0.0000096  -0.9153819   0.2572752
0.0013572    -0.9957616  -0.0010968  -0.0018481   0.0023353   0.0000187   0.0000077  -0.9163567   0.2576933
0.0013739    -0.9954387  -0.0002159  -0.0020623   0.0021869   0.0000133   0.0000164  -0.9162218   0.2575399
0.0013908    -0.9954120  -0.0009569  -0.0022092   0.0022697   0.0000136   0.0000045  -0.9169530   0.2576089
0.0014079    -0.9954748  -0.0002617  -0.0021125   0.0021488  -0.0000214  -0.0000005  -0.9167295   0.2573538
0.0014252    -0.9956675  -0.0011555  -0.0020934   0.0018090   0.0000186   0.0000247  -0.9176592   0.2572531
0.0014427    -0.9953247  -0.0001732  -0.0020136   0.0022887  -0.0000097  -0.0000156  -0.9173659   0.2571991
0.0014605    -0.9959306  -0.0006679  -0.0019317   0.0023501   0.0000009  -0.0000180  -0.9180822   0.2573986
0.0014784    -0.9952154  -0.0000734  -0.0020762   0.0021888  -0.0000049   0.0000082  -0.9178605   0.2569127
0.0014966    -0.9957353  -0.0005989  -0.0022220   0.0023272   0.0000002  -0.0000287  -0.9186111   0.2574162
0.0015150    -0.9952932  -0.0007851  -0.0023757   0.0022421   0.0000270   0.0000241  -0.9189818   0.2573396
0.0015336    -0.9953995  -0.0003438  -0.0022728   0.0019973  -0.0000074  -0.0000028  -0.9190102   0.2570696
0.0015525    -0.9956006   0.0001709  -0.0022335   0.0019167  -0.0000076  -0.0000167  -0.9190290   0.2573496
0.0015716    -0.9954790  -0.0003357  -0.0021100   0.0022722   0.0000126  -0.0000211  -0.9196280   0.2571869
0.0015909    -0.9960346  -0.0005987  -0.0020749   0.0020700   0.0000100  -0.0000345  -0.9199847   0.2575694
0.0016104    -0.9952203  -0.0005803  -0.0020691   0.0019166  -0.0000243   0.0000094  -0.9203199   0.2569523
0.0016302    -0.9953760  -0.0002314  -0.0022827   0.0019401   0.0000135  -0.0000063  -0.9203642   0.2573044
0.0016503    -0.9954397  -0.0009262  -0.0019654   0.0019692   0.0000088  -0.0000100  -0.9213751   0.2574882
0.0016706    -0.9952899  -0.0006440  -0.0021139   0.0019965   0.0000033  -0.0000045  -0.9211996   0.2574022
0.0016911    -0.9950497  -0.0005712  -0.0020950   0.0018024  -0.0000210  -0.0000159  -0.9218180   0.2570958
0.0017119    -0.9960119  -0.0000659  -0.0020442   0.0017911  -0.0000161  -0.0000298  -0.9218589   0.2574357
0.0017329    -0.9957110  -0.0005961  -0.0020150   0.0017395  -0.0000031   0.0000134  -0.9220861   0.2573962
0.0017542    -0.9951199  -0.0006920  -0.0018819   0.0016735   0.0000071   0.0000175  -0.9225671   0.2571541
0.0017758    -0.9956264  -0.0005514  -0.0020522   0.0016548  -0.0000018  -0.0000029  -0.9227763   0.2574617
0.0017976    -0.9951829  -0.0007030  -0.0021217   0.0016152   0.0000059  -0.0000063  -0.9233452   0.2574793
0.0018197    -0.9953299  -0.0002605  -0.0021445   0.0016469  -0.0000150  -0.0000040  -0.9231438   0.2573279
0.0018421    -0.9954909  -0.0006353  -0.0021915   0.0018156   0.0000151  -0.0000070  -0.9238326   0.2577191
0.0018648    -0.9955745  -0.0000958  -0.0016996   0.0016613  -0.0000028   0.0000040  -0.9239003   0.2574820
0.0018877    -0.9958008  -0.0002182  -0.0019650   0.0012780  -0.0000105  -0.0000158  -0.9239804   0.2577066
0.0019109    -0.9953847  -0.0005092  -0.0020989   0.0016414  -0.0000036   0.0000066  -0.9248491   0.2579357
0.0019344    -0.9957882  -0.0003425  -0.0017079   0.0016402  -0.0000050  -0.0000064  -0.9247153   0.2577397
0.0019582    -0.9957182  -0.0001674  -0.0019126   0.0016319   0.0000018  -0.0000051  -0.9248236   0.2579512
0.0019822    -0.9955479  -0.0007056  -0.0021140   0.0013589   0.0000061   0.0000007  -0.9256894   0.2580907
0.0020066    -0.9955365  -0.0004371  -0.0022910   0.0015072   0.0000030   0.0000010  -0.9257598   0.2582423
0.0020313    -0.9956342  -0.0007267  -0.0021500   0.0013382   0.0000072   0.0000076  -0.9261621   0.2581689
0.0020562    -0.9951931  -0.0006363  -0.0022079   0.0016597  -0.0000161  -0.0000018  -0.9265384   0.2580705
0.0020815    -0.9958591  -0.0003756  -0.0021389   0.0015674   0.0000003  -0.0000015  -0.9265952   0.2584793
0.0021071    -0.9956459  -0.0004198  -0.0019749   0.0016967  -0.0000104  -0.0000033  -0.9270215   0.2585237
0.0021330    -0.9954832  -0.0002844  -0.0021075   0.0015501  -0.0000010  -0.0000229  -0.9272019   0.2587586
0.0021592    -0.9960914  -0.0007491  -0.0021495   0.0015756  -0.0000025  -0.0000190  -0.9277383   0.2588852
0.0021858    -0.9954025  -0.0006131  -0.0021169   0.0015342  -0.0000026  -0.0000044  -0.9279115   0.2586740
0.0022126    -0.9959010  -0.0002895  -0.0020839   0.0012811  -0.0000054  -0.0000144  -0.9280733   0.2590422
0.0022398    -0.9953830  -0.0005023  -0.0020926   0.0014730  -0.0000122   0.0000062  -0.9283379   0.2590142
0.0022674    -0.9958256  -0.0005711  -0.0020773   0.0015141   0.0000047  -0.0000181  -0.9287816   0.2593020
0.0022953    -0.9959262  -0.0006729  -0.0021675   0.0014200   0.0000060  -0.0000025  -0.9290308   0.2594769
0.0023235    -0.9956577  -0.0008854  -0.0019058   0.0014575  -0.0000061  -0.0000002  -0.9294341   0.2594680
0.0023520    -0.9955439  -0.0001039  -0.0021680   0.0014336  -0.0000078  -0.0000054  -0.9292532   0.2594361
0.0023809    -0.9956058  -0.0005105  -0.0021322   0.0015226  -0.0000079   0.0000077  -0.9299422   0.2596373
0.0024102    -0.9956791  -0.0003384  -0.0021715   0.0015430   0.0000131   0.0000064  -0.9298942   0.2598229
0.0024398    -0.9955714  -0.0004248  -0.0022176   0.0014170   0.0000033   0.0000032  -0.9303333   0.2599209
0.0024698    -0.9957079  -0.0002981  -0.0019374   0.0013922   0.0000079  -0.0000170  -0.9305707   0.2602177
0.0025002    -0.9959116  -0.0005272  -0.0023052   0.0014328  -0.0000013  -0.0000042  -0.9307198   0.2603729
0.0025309    -0.9959484  -0.0004278  -0.0019744   0.0013784  -0.0000087  -0.0000112  -0.9309336   0.2606611
0.0025621    -0.9959126  -0.0005947  -0.0020906   0.0013181   0.0000070  -0.0000087  -0.9313972   0.2606534
0.0025935    -0.9957103  -0.0008897  -0.0020390   0.0012517  -0.0000057  -0.0000035  -0.9316742   0.2605261
0.0026254    -0.9956080  -0.0004677  -0.0020104   0.0012716  -0.0000042  -0.0000026  -0.9317934   0.2605545
0.0026577    -0.9957018  -0.0001830  -0.0020952   0.0013080  -0.0000107  -0.0000105  -0.9319015   0.2609742
0.0026904    -0.9958608  -0.0004234  -0.0019302   0.0012235  -0.0000128  -0.0000062  -0.9320964   0.2613407
0.0027235    -0.9957646  -0.0007642  -0.0020474   0.0012058  -0.0000013  -0.0000137  -0.9327563   0.2611832
0.0027569    -0.9956042  -0.0004672  -0.0020770   0.0013471  -0.0000088  -0.0000033  -0.9327095   0.2612955
0.0027908    -0.9959639  -0.0002682  -0.0020112   0.0013708   0.0000059  -0.0000083  -0.9327881   0.2617246
0.0028251    -0.9959622  -0.0007105  -0.0020373   0.0012652   0.0000069   0.0000018  -0.9332618   0.2618815
0.0028599    -0.9955773  -0.0007054  -0.0021079   0.0013219  -0.0000022   0.0000010  -0.9334185   0.2618729
0.0028950    -0.9955257  -0.0002493  -0.0021044   0.0013466   0.0000031   0.0000025  -0.9336124   0.2618484
0.0029306    -0.9956853  -0.0004062  -0.0020174   0.0012671  -0.0000042  -0.0000190  -0.9337557   0.2620064
0.0029666    -0.9956296  -0.0004157  -0.0020624   0.0014505   0.0000131  -0.0000065  -0.9339990   0.2622600
0.0030031    -0.9956838  -0.0003802  -0.0020968   0.0008740  -0.0000049   0.0000133  -0.9341076   0.2625548
0.0030400    -0.9958180  -0.0004481  -0.0019136   0.0012800  -0.0000027  -0.0000165  -0.9343379   0.2628196
0.0030774    -0.9957340  -0.0003823  -0.0020134   0.0011901  -0.0000097  -0.0000045  -0.9345217   0.2629743
0.0031152    -0.9957437  -0.0005190  -0.0020606   0.0011479   0.0000102   0.0000018  -0.9348862   0.2629809
0.0031535    -0.9958244  -0.0002902  -0.0020303   0.0012628  -0.0000035  -0.0000120  -0.9349260   0.2633534
0.0031923    -0.9959462  -0.0006506  -0.0021121   0.0011639   0.0000126  -0.0000124  -0.9353236   0.2634966
0.0032315    -0.9957248  -0.0009717  -0.0019902   0.0011459  -0.0000004  -0.0000064  -0.9355121   0.2636469
0.0032713    -0.9956135  -0.0006817  -0.0019773   0.0010903   0.0000023  -0.0000089  -0.9356770   0.2636865
0.0033115    -0.9959017  -0.0004124  -0.0020684   0.0010909   0.0000084  -0.0000006  -0.9357024   0.2639999
0.0033522    -0.9961176  -0.0007609  -0.0019844   0.0012143  -0.0000109  -0.0000057  -0.9360229   0.2644064
0.0033934    -0.9955167  -0.0005110  -0.0018903   0.0011029   0.0000014   0.0000021  -0.9362628   0.2642656
0.0034351    -0.9958327  -0.0003025  -0.0021175   0.0008804  -0.0000013   0.0000084  -0.9364516   0.2645556
0.0034773    -0.9958548  -0.0003438  -0.0020111   0.0009236   0.0000084  -0.0000086  -0.9364323   0.2647053
0.0035201    -0.9957906  -0.0004858  -0.0020133   0.0009943   0.0000056  -0.0000029  -0.9367876   0.2648143
0.0035634    -0.9956532  -0.0002019  -0.0020490   0.0010471   0.0000070  -0.0000048  -0.9368663   0.2649771
0.0036072    -0.9958165  -0.0003217  -0.0020857   0.0011325  -0.0000008  -0.0000046  -0.9369396   0.2652301
0.0036515    -0.9958074  -0.0003181  -0.0020255   0.0009543  -0.0000051   0.0000044  -0.9372120   0.2655556
0.0036964    -0.9960320  -0.0002442  -0.0021232   0.0009859  -0.0000114   0.0000007  -0.9371598   0.2658447
0.0037418    -0.9958242  -0.0006573  -0.0021063   0.0009829   0.0000014  -0.0000077  -0.9373776   0.2659021
0.0037878    -0.9958747  -0.0001832  -0.0019100   0.0009974   0.0000009  -0.0000191  -0.9374859   0.2660117
0.0038344    -0.9959576  -0.0003414  -0.0020394   0.0009593   0.0000059  -0.0000063  -0.9376847   0.2663411
0.0038815    -0.9957643  -0.0003459  -0.0020158   0.0010100  -0.0000009   0.0000041  -0.9378065   0.2664228
0.0039293    -0.9958777  -0.0002978  -0.0019943   0.0009019   0.0000049  -0.0000071  -0.9379777   0.2663981
0.0039776    -0.9957521  -0.0003908  -0.0014629   0.0012587  -0.0000018  -0.0000120  -0.9381920   0.2668196
0.0040265    -0.9956743  -0.0005075  -0.0015929   0.0009974   0.0000000   0.0000014  -0.9383100   0.2667670
0.0040759    -0.9958359  -0.0003777  -0.0019470   0.0009615  -0.0000007   0.0000008  -0.9384242   0.2671272
0.0041261    -0.9956840  -0.0004294  -0.0020263   0.0008323   0.0000015  -0.0000048  -0.9385339   0.2672093
0.0041768    -0.9958202  -0.0003482  -0.0019602   0.0009257  -0.0000009   0.0000009  -0.9387328   0.2675105
0.0042281    -0.9958285  -0.0005062  -0.0020690   0.0009276   0.0000064  -0.0000054  -0.9388509   0.2677209
0.0042801    -0.9958904  -0.0004617  -0.0019999   0.0008475   0.0000041  -0.0000002  -0.9389324   0.2679158
0.0043327    -0.9960918  -0.0005343  -0.0019464   0.0008855  -0.0000035  -0.0000042  -0.9390299   0.2683019
0.0043860    -0.9958917  -0.0004869  -0.0019424   0.0008583  -0.0000025   0.0000091  -0.9392749   0.2683077
0.0044399    -0.9958106  -0.0002894  -0.0020285   0.0008093   0.0000007  -0.0000043  -0.9393379   0.2684832
0.0044945    -0.9958174  -0.0004703  -0.0019818   0.0008482  -0.0000065  -0.0000034  -0.9394909   0.2686169
0.0045497    -0.9957508  -0.0003886  -0.0019633   0.0008897  -0.0000109  -0.0000034  -0.9394766   0.2688047
0.0046057    -0.9957376  -0.0003180  -0.0020135   0.0008222  -0.0000053   0.0000049  -0.9395575   0.2689400
0.0046623    -0.9961021  -0.0003071  -0.0019195   0.0007762   0.0000035  -0.0000071  -0.9395089   0.2692334
0.0047196    -0.9957723  -0.0003274  -0.0019323   0.0007378  -0.0000083  -0.0000009  -0.9398293   0.2694102
0.0047776    -0.9959988  -0.0003990  -0.0020150   0.0007698   0.0000065  -0.0000104  -0.9398891   0.2695281
0.0048363    -0.9960237  -0.0003343  -0.0019655   0.0007239   0.0000003  -0.0000094  -0.9399332   0.2697804
0.0048958    -0.9960719  -0.0003503  -0.0019508   0.0007749  -0.0000047  -0.0000137  -0.9400721   0.2700554
0.0049560    -0.9959138  -0.0004168  -0.0019939   0.0008124  -0.0000099  -0.0000067  -0.9402632   0.2701632
0.0050169    -0.9958027  -0.0001963  -0.0019783   0.0008241  -0.0000178   0.0000051  -0.9403351   0.2701639
0.0050786    -0.9960453  -0.0002992  -0.0019174   0.0007948   0.0000062   0.0000011  -0.9403187   0.2703988
0.0051410    -0.9957343  -0.0004185  -0.0020165   0.0007447  -0.0000039  -0.0000105  -0.9404152   0.2706001
0.0052042    -0.9958397  -0.0004065  -0.0019897   0.0007419   0.0000035  -0.0000032  -0.9405021   0.2708001
0.0052682    -0.9960874  -0.0004382  -0.0019709   0.0007268   0.0000060  -0.0000054  -0.9406327   0.2710467
0.0053330    -0.9959023  -0.0003847  -0.0020956   0.0007755  -0.0000089  -0.0000088  -0.9406896   0.2711812
0.0053985    -0.9961303  -0.0003234  -0.0019866   0.0007193  -0.0000131  -0.0000073  -0.9407775   0.2713440
0.0054649    -0.9960401  -0.0004252  -0.0019798   0.0006874   0.0000164  -0.0000018  -0.9409076   0.2714998
0.0055321    -0.9959042  -0.0004689  -0.0019541   0.0006553  -0.0000015  -0.0000112  -0.9409565   0.2716945
0.0056001    -0.9960053  -0.0003005  -0.0019445   0.0006357   0.0000146   0.0000031  -0.9411138   0.2719386
0.0056689    -0.9960111  -0.0004082  -0.0019837   0.0006727  -0.0000082  -0.0000200  -0.9411273   0.2720064
0.0057386    -0.9961006  -0.0004024  -0.0020345   0.0006286   0.0000036  -0.0000155  -0.9411893   0.2721200
0.0058091    -0.9958488  -0.0002397  -0.0020225   0.0006736   0.0000022   0.0000047  -0.9411386   0.2723728
0.0058806    -0.9958863  -0.0002252  -0.0019613   0.0006498  -0.0000013  -0.0000061  -0.9411190   0.2724188
0.0059529    -0.9960443  -0.0002215  -0.0019725   0.0007080  -0.0000054  -0.0000104  -0.9412062   0.2727041
0.0060260    -0.9961129  -0.0004094  -0.0022380   0.0006586  -0.0000053  -0.0000183  -0.9412507   0.2727098
0.0061001    -0.9961028  -0.0003785  -0.0020382   0.0006839  -0.0000142  -0.0000055  -0.9413455   0.2729546
0.0061751    -0.9959548  -0.0001776  -0.0019921   0.0005833   0.0000003   0.0000049  -0.9413314   0.2731470
0.0062510    -0.9959072  -0.0002991  -0.0019401   0.0006191  -0.0000030  -0.0000002  -0.9415101   0.2732916
0.0063279    -0.9960030  -0.0003756  -0.0019145   0.0005869  -0.0000043  -0.0000012  -0.9416430   0.2734560
0.0064056    -0.9960146  -0.0002695  -0.0019533   0.0006205   0.0000044  -0.0000061  -0.9416371   0.2736081
0.0064844    -0.9959921  -0.0002546  -0.0019763   0.0006015   0.0000000  -0.0000076  -0.9416977   0.2736701
0.0065641    -0.9960252  -0.0002284  -0.0020580   0.0005121  -0.0000063  -0.0000193  -0.9415242   0.2737903
0.0066448    -0.9960304  -0.0001750  -0.0020290   0.0005878   0.0000005  -0.0000093  -0.9416728   0.2739591
0.0067265    -0.9960026  -0.0002781  -0.0019460   0.0005800  -0.0000082   0.0000041  -0.9417777   0.2741424
0.0068092    -0.9958701  -0.0003825  -0.0019735   0.0006009   0.0000036   0.0000010  -0.9418365   0.2743665
0.0068929    -0.9961024  -0.0002385  -0.0019872   0.0006186   0.0000128  -0.0000086  -0.9418909   0.2744498
0.0069776    -0.9957350  -0.0002846  -0.0017479   0.0005090   0.0000024  -0.0000116  -0.9420478   0.2746782
0.0070634    -0.9961289  -0.0003223  -0.0020750   0.0007090   0.0000023  -0.0000052  -0.9419420   0.2748400
0.0071502    -0.9959740  -0.0002239  -0.0020821   0.0007178   0.0000031  -0.0000154  -0.9419125   0.2748555
0.0072381    -0.9960254  -0.0000077  -0.0020842   0.0005070  -0.0000033  -0.0000122  -0.9418756   0.2750367
0.0073271    -0.9961066  -0.0001277  -0.0020643   0.0005608  -0.0000089  -0.0000030  -0.9420109   0.2752536
0.0074172    -0.9958639  -0.0002712  -0.0020863   0.0005306   0.0000121  -0.0000083  -0.9421284   0.2753567
0.0075084    -0.9960911  -0.0002182  -0.0021161   0.0005647   0.0000064  -0.0000108  -0.9421577   0.2755385
0.0076007    -0.9959313  -0.0002923  -0.0020461   0.0005341   0.0000004  -0.0000116  -0.9421461   0.2756577
0.0076941    -0.9959753  -0.0002811  -0.0020833   0.0005766  -0.0000021   0.0000084  -0.9421786   0.2759126
0.0077887    -0.9960454  -0.0001741  -0.0021114   0.0005479   0.0000107  -0.0000020  -0.9421820   0.2759312
0.0078844    -0.9960830  -0.0001235  -0.0020017   0.0005330  -0.0000035  -0.0000018  -0.9422685   0.2760016
0.0079814    -0.9961003  -0.0001788  -0.0019901   0.0005797   0.0000006  -0.0000059  -0.9422404   0.2762762
0.0080795    -0.9959479  -0.0001618  -0.0020261   0.0004498   0.0000058  -0.0000034  -0.9423989   0.2763341
0.0081788    -0.9959745  -0.0002233  -0.0020253   0.0004731  -0.0000045   0.0000043  -0.9422137   0.2765218
0.0082793    -0.9960979  -0.0001347  -0.0020389   0.0004367  -0.0000005  -0.0000093  -0.9423942   0.2765888
0.0083811    -0.9958992  -0.0001379  -0.0019756   0.0004312  -0.0000037   0.0000070  -0.9423573   0.2767983
0.0084842    -0.9960725  -0.0001695  -0.0019817   0.0004439  -0.0000016   0.0000005  -0.9423313   0.2768930
0.0085885    -0.9961927  -0.0002451  -0.0020570   0.0004330   0.0000015  -0.0000070  -0.9424398   0.2769427
0.0086940    -0.9960556  -0.0002491  -0.0020104   0.0004199   0.0000127  -0.0000141  -0.9423699   0.2771411
0.0088009    -0.9960532  -0.0001759  -0.0020627   0.0004350   0.0000002   0.0000062  -0.9423860   0.2772914
0.0089091    -0.9959376  -0.0002565  -0.0020972   0.0004134   0.0000024  -0.0000112  -0.9423989   0.2774866
0.0090186    -0.9959824  -0.0001819  -0.0020227   0.0004221  -0.0000090  -0.0000046  -0.9424998   0.2774735
0.0091295    -0.9957612  -0.0002111  -0.0020572   0.0004015   0.0000055  -0.0000005  -0.9425199   0.2777457
0.0092417    -0.9959499  -0.0003260  -0.0020138   0.0004042   0.0000093  -0.0000054  -0.9424069   0.2777833
0.0093553    -0.9960374  -0.0002199  -0.0020514   0.0004712   0.0000041  -0.0000095  -0.9424297   0.2779104
0.0094703    -0.9959873  -0.0002773  -0.0020410   0.0004520   0.0000006   0.0000108  -0.9425230   0.2779699
0.0095868    -0.9959359  -0.0001686  -0.0020440   0.0004265  -0.0000033  -0.0000074  -0.9424579   0.2781670
0.0097046    -0.9960734  -0.0001182  -0.0020757   0.0004280  -0.0000017   0.0000127  -0.9425030   0.2781965
0.0098239    -0.9960083  -0.0001707  -0.0020040   0.0004267  -0.0000008   0.0000001  -0.9425577   0.2783250
0.0099447    -0.9960504  -0.0001647  -0.0020051   0.0003945  -0.0000004  -0.0000051  -0.9425478   0.2783615
0.0100669    -0.9960551  -0.0000190  -0.0020018   0.0004195  -0.0000093  -0.0000186  -0.9425242   0.2785836
0.0101907    -0.9961160   0.0000216  -0.0020539   0.0004502  -0.0000033  -0.0000092  -0.9425358   0.2786114
0.0103160    -0.9960443  -0.0001458  -0.0020358   0.0003864   0.0000116  -0.0000083  -0.9425019   0.2787091
0.0104428    -0.9958087  -0.0001849  -0.0020534   0.0003959  -0.0000035   0.0000003  -0.9425838   0.2789201
0.0105712    -0.9959848  -0.0002624  -0.0020877   0.0003203   0.0000088   0.0000015  -0.9425830   0.2789347
0.0107011    -0.9960471  -0.0001838  -0.0020753   0.0003846   0.0000044  -0.0000051  -0.9426090   0.2791118
0.0108327    -0.9959471  -0.0001264  -0.0020436   0.0004189   0.0000012  -0.0000062  -0.9425325   0.2791449
0.0109658    -0.9961718  -0.0001883  -0.0021205   0.0003571  -0.0000070  -0.0000045  -0.9426464   0.2792784
0.0111006    -0.9959051  -0.0000756  -0.0020767   0.0003595  -0.0000041  -0.0000068  -0.9426136   0.2795289
0.0112371    -0.9959892  -0.0001337  -0.0020357   0.0003812  -0.0000054   0.0000003  -0.9426557   0.2794251
0.0113752    -0.9961223  -0.0002263  -0.0020868   0.0003562  -0.0000107   0.0000007  -0.9425597   0.2795968
0.0115151    -0.9960546   0.0000335  -0.0020254   0.0003235   0.0000003  -0.0000004  -0.9427017   0.2798539
0.0116566    -0.9962267  -0.0002847  -0.0020799   0.0003847  -0.0000025  -0.0000093  -0.9425976   0.2797545
0.0117999    -0.9960369  -0.0000546  -0.0021345   0.0004410  -0.0000078  -0.0000039  -0.9426702   0.2800117
0.0119450    -0.9994019  -0.0020709  -0.0021371   0.0003495  -0.0000012   0.0000006  -0.9434624   0.2782170
0.0120918    -0.9959545  -0.0000699  -0.0020757   0.0003360   0.0000006  -0.0000104  -0.9426943   0.2801527
0.0122405    -0.9962837  -0.0002607  -0.0021011   0.0002980  -0.0000107   0.0000039  -0.9427471   0.2801706
0.0123910    -0.9959417  -0.0000429  -0.0020421   0.0004406  -0.0000042  -0.0000100  -0.9426088   0.2804391
0.0125433    -0.9960562  -0.0003330  -0.0020854   0.0004366  -0.0000016   0.0000043  -0.9427097   0.2803775
0.0126975    -0.9958891  -0.0000850  -0.0020610   0.0003900  -0.0000036  -0.0000023  -0.9425424   0.2804387
0.0128536    -0.9960428   0.0000474  -0.0021567   0.0003738   0.0000036  -0.0000033  -0.9426407   0.2806492
0.0130116    -0.9960297  -0.0001891  -0.0021120   0.0002601   0.0000031   0.0000037  -0.9426215   0.2806846
0.0131716    -0.9961636  -0.0002978  -0.0021149   0.0004463  -0.0000045   0.0000010  -0.9426642   0.2806807
0.0133335    -0.9959910  -0.0000935  -0.0021160   0.0003183  -0.0000017  -0.0000095  -0.9425145   0.2809397
0.0134974    -0.9960832  -0.0001208  -0.0020765   0.0003910   0.0000014  -0.0000020  -0.9425677   0.2809175
0.0136633    -0.9961308   0.0000257  -0.0021202   0.0002691   0.0000013  -0.0000062  -0.9426221   0.2811150
0.0138313    -0.9960319  -0.0001110  -0.0020933   0.0003109  -0.0000014  -0.0000050  -0.9425397   0.2811490
0.0140013    -0.9960483  -0.0000771  -0.0022316   0.0004427  -0.0000043  -0.0000027  -0.9426175   0.2812854
0.0141734    -0.9960473  -0.0001375  -0.0023017   0.0003273  -0.0000133  -0.0000052  -0.9426482   0.2814176
0.0143477    -0.9961445  -0.0000723  -0.0024004  -0.0002108   0.0000019  -0.0000050  -0.9426134   0.2813920
0.0145240    -0.9960842  -0.0000745  -0.0022924   0.0003245   0.0000018   0.0000028  -0.9426510   0.2814696
0.0147026    -0.9960745  -0.0000934  -0.0021384   0.0004247   0.0000098  -0.0000082  -0.9425887   0.2815431
0.0148833    -0.9961690   0.0000490  -0.0021511   0.0003289  -0.0000038  -0.0000085  -0.9425701   0.2817147
0.0150663    -0.9961008  -0.0001187  -0.0021192   0.0004447   0.0000025  -0.0000094  -0.9425500   0.2817628
0.0152515    -0.9960186  -0.0000255  -0.0020870   0.0003535  -0.0000064  -0.0000097  -0.9425577   0.2819218
0.0154390    -0.9960390  -0.0000296  -0.0020945   0.0002253  -0.0000151   0.0000062  -0.9425825   0.2819117
0.0156288    -0.9959848  -0.0000439  -0.0022029   0.0003771  -0.0000092  -0.0000074  -0.9426634   0.2819290
0.0158209    -0.9959505  -0.0000202  -0.0020097   0.0003282  -0.0000031  -0.0000088  -0.9425187   0.2819562
0.0160154    -0.9961025  -0.0000749  -0.0022304   0.0003877   0.0000012  -0.0000067  -0.9425096   0.2821765
0.0162123    -0.9960051  -0.0001501  -0.0021193   0.0003399  -0.0000041  -0.0000005  -0.9424733   0.2823458
0.0164116    -0.9959727  -0.0001143  -0.0022106   0.0003470   0.0000020  -0.0000133  -0.9425390   0.2823374
0.0166134    -0.9960469  -0.0001885  -0.0021376   0.0002816   0.0000025   0.0000024  -0.9424725   0.2825105
0.0168176    -0.9960429  -0.0000830  -0.0021271   0.0002576   0.0000023  -0.0000011  -0.9425681   0.2824212
0.0170243    -0.9960456  -0.0001041  -0.0021357   0.0002954  -0.0000044  -0.0000021  -0.9425075   0.2825839
0.0172336    -0.9960850  -0.0001127  -0.0021477   0.0004215   0.0000039  -0.0000065  -0.9424701   0.2825693
0.0174455    -0.9959716  -0.0001664  -0.0021455   0.0003628  -0.0000069   0.0000054  -0.9424511   0.2826684
0.0176599    -0.9960315  -0.0000145  -0.0021070   0.0002857  -0.0000030  -0.0000096  -0.9424459   0.2827776
0.0178770    -0.9961040  -0.0000769  -0.0021296   0.0005000  -0.0000056   0.0000042  -0.9424224   0.2829245
0.0180968    -0.9960233  -0.0000797  -0.0021084   0.0004128  -0.0000086  -0.0000035  -0.9424302   0.2828374
0.0183193    -0.9960440   0.0000516  -0.0021125   0.0003056   0.0000087  -0.0000044  -0.9424509   0.2830002
0.0185445    -0.9960771  -0.0001810  -0.0021717   0.0003510   0.0000103  -0.0000060  -0.9424455   0.2830423
0.0187724    -0.9960376  -0.0000519  -0.0021434   0.0003352   0.0000036   0.0000011  -0.9423371   0.2830841
0.0190032    -0.9960892  -0.0001077  -0.0023880   0.0004279  -0.0000030  -0.0000051  -0.9424280   0.2831313
0.0192368    -0.9960755   0.0000228  -0.0024858   0.0004672   0.0000020   0.0000008  -0.9425254   0.2832695
0.0194733    -0.9960999   0.0000041  -0.0023324   0.0004338   0.0000098  -0.0000044  -0.9424154   0.2833488
0.0197127    -0.9960068  -0.0000702  -0.0022244   0.0004015  -0.0000072  -0.0000149  -0.9423865   0.2834325
0.0199550    -0.9959587   0.0001121  -0.0022942   0.0003100  -0.0000085  -0.0000115  -0.9424142   0.2834576
0.0202003    -0.9960348  -0.0001329  -0.0021126   0.0003684  -0.0000027  -0.0000121  -0.9424186   0.2834956
0.0204487    -0.9959665  -0.0000050  -0.0021938   0.0004314  -0.0000126  -0.0000027  -0.9423482   0.2836018
0.0207001    -0.9960998  -0.0001147  -0.0021287   0.0003673  -0.0000050  -0.0000153  -0.9422820   0.2836091
0.0209545    -0.9961164  -0.0000470  -0.0021693   0.0003914  -0.0000042  -0.0000062  -0.9422991   0.2836966
0.0212121    -0.9961326   0.0000379  -0.0022191   0.0004453   0.0000013   0.0000014  -0.9422630   0.2838958
0.0214729    -0.9961438  -0.0000510  -0.0021409   0.0003585  -0.0000082  -0.0000137  -0.9423046   0.2839225
0.0217369    -0.9961052  -0.0000808  -0.0020880   0.0003583   0.0000177  -0.0000012  -0.9422967   0.2839207
0.0220041    -0.9959985  -0.0001009  -0.0021132   0.0002128  -0.0000034  -0.0000052  -0.9423316   0.2839710
0.0222746    -0.9960755  -0.0001514  -0.0021561   0.0003510   0.0000044  -0.0000094  -0.9421834   0.2840686
0.0225484    -0.9961927   0.0000514  -0.0021612   0.0003332  -0.0000069   0.0000029  -0.9421589   0.2840821
0.0228256    -0.9960955  -0.0001017  -0.0021492   0.0003977  -0.0000015   0.0000000  -0.9422130   0.2841121
0.0231062    -0.9960607  -0.0000295  -0.0021698   0.0003792  -0.0000071  -0.0000067  -0.9422103   0.2841453
0.0233902    -0.9959692  -0.0000404  -0.0021610   0.0002915  -0.0000062   0.0000041  -0.9421501   0.2842650
0.0236778    -0.9960877   0.0000331  -0.0021597   0.0004317   0.0000026  -0.0000065  -0.9421274   0.2843437
0.0239689    -0.9938985  -0.0009143  -0.0024203   0.0006463  -0.0000034  -0.0000028  -0.9431943   0.2849166
0.0242635    -0.9960869  -0.0001011  -0.0021722   0.0003965   0.0000020  -0.0000015  -0.9421554   0.2844378
0.0245618    -0.9960502  -0.0000358  -0.0021672   0.0003950  -0.0000175  -0.0000006  -0.9420997   0.2845678
0.0248637    -0.9960668   0.0000786  -0.0021951   0.0003574  -0.0000010  -0.0000011  -0.9421057   0.2846436
0.0251694    -0.9959775  -0.0000465  -0.0021668   0.0003743  -0.0000045  -0.0000092  -0.9421237   0.2846718
0.0254788    -0.9960947  -0.0001256  -0.0021838   0.0003901  -0.0000051  -0.0000060  -0.9420106   0.2847303
0.0257920    -0.9959990   0.0000056  -0.0021612   0.0003949   0.0000011  -0.0000116  -0.9420984   0.2848583
0.0261091    -0.9960497  -0.0000542  -0.0021801   0.0004104   0.0000032  -0.0000093  -0.9419308   0.2848252
0.0264301    -0.9960836  -0.0000462  -0.0022025   0.0003962   0.0000051  -0.0000114  -0.9420806   0.2849199
0.0267550    -0.9961017  -0.0000582  -0.0021352   0.0003787  -0.0000017   0.0000036  -0.9419236   0.2849455
0.0270839    -0.9960844  -0.0000924  -0.0021714   0.0004175  -0.0000150  -0.0000070  -0.9420152   0.2849370
0.0274168    -0.9961870  -0.0000542  -0.0021611   0.0003763  -0.0000071  -0.0000091  -0.9419723   0.2849874
0.0277539    -0.9960276   0.0000818  -0.0021652   0.0004535  -0.0000055  -0.0000124  -0.9418585   0.2850718
0.0280951    -0.9961101  -0.0001217  -0.0021195   0.0004110  -0.0000084  -0.0000131  -0.9418695   0.2851680
0.0284404    -0.9959658  -0.0000263  -0.0021858   0.0004104  -0.0000050  -0.0000027  -0.9418926   0.2852433
0.0287901    -0.9960748  -0.0000607  -0.0022148   0.0004380  -0.0000104  -0.0000071  -0.9419360   0.2851845
0.0291440    -0.9960792  -0.0000623  -0.0021666   0.0004341   0.0000046  -0.0000088  -0.9418947   0.2853351
0.0295023    -0.9959095  -0.0000037  -0.0021594   0.0004255   0.0000158   0.0000033  -0.9418181   0.2853636
0.0298649    -0.9961655  -0.0001040  -0.0021459   0.0004404   0.0000090  -0.0000008  -0.9418149   0.2853996
0.0302321    -0.9959287   0.0000723  -0.0021446   0.0004400   0.0000043  -0.0000058  -0.9417208   0.2854923
0.0306037    -0.9961867  -0.0000344  -0.0021687   0.0003843  -0.0000045  -0.0000008  -0.9417143   0.2855678
0.0309799    -0.9958835  -0.0000825  -0.0021540   0.0004933  -0.0000045   0.0000013  -0.9418265   0.2855831
0.0313608    -0.9960632  -0.0000262  -0.0022129   0.0004330   0.0000041  -0.0000197  -0.9417779   0.2856653
0.0317463    -0.9959628   0.0000342  -0.0021895   0.0004703  -0.0000047   0.0000050  -0.9416988   0.2857371
0.0321366    -0.9961131  -0.0000757  -0.0021996   0.0004465   0.0000041  -0.0000031  -0.9417880   0.2857474
0.0325316    -0.9960696  -0.0000541  -0.0021502   0.0004452   0.0000030  -0.0000159  -0.9416747   0.2858300
0.0329316    -0.9961375  -0.0000541  -0.0021282   0.0003834   0.0000071  -0.0000175  -0.9416642   0.2859160
0.0333364    -0.9961313  -0.0000293  -0.0022753   0.0004176   0.0000033  -0.0000037  -0.9416956   0.2859965
0.0337462    -0.9959427  -0.0001545  -0.0021563   0.0004741   0.0000003   0.0000066  -0.9415459   0.2858363
0.0341610    -0.9960443  -0.0001069  -0.0021972   0.0004474   0.0000031  -0.0000018  -0.9415890   0.2860550
0.0345810    -0.9960784   0.0000568  -0.0021943   0.0004384   0.0000025  -0.0000054  -0.9415994   0.2860402
0.0350061    -0.9961096  -0.0001113  -0.0021925   0.0004252   0.0000041   0.0000028  -0.9416480   0.2861025
0.0354365    -0.9960305   0.0000005  -0.0021925   0.0004454   0.0000008  -0.0000113  -0.9415532   0.2862356
0.0358721    -0.9960309  -0.0000598  -0.0021186   0.0004196   0.0000027   0.0000040  -0.9415274   0.2861881
0.0363131    -0.9958942  -0.0000333  -0.0021581   0.0004397  -0.0000035  -0.0000022  -0.9415787   0.2862180
0.0367595    -0.9961372  -0.0001509  -0.0021517   0.0003557  -0.0000029  -0.0000134  -0.9414277   0.2863980
0.0372114    -0.9961240   0.0000516  -0.0021958   0.0004053   0.0000021  -0.0000147  -0.9414660   0.2864445
0.0376688    -0.9960213  -0.0001501  -0.0021651   0.0004624  -0.0000015  -0.0000004  -0.9414265   0.2864517
0.0381319    -0.9959929  -0.0000314  -0.0019801   0.0003564  -0.0000009  -0.0000148  -0.9414994   0.2864761
0.0386006    -0.9961953  -0.0000364  -0.0020510   0.0005486  -0.0000001  -0.0000062  -0.9414738   0.2866139
0.0390752    -0.9960608  -0.0000677  -0.0020667   0.0004293   0.0000058  -0.0000044  -0.9413666   0.2865701
0.0395555    -0.9960882  -0.0000353  -0.0021272   0.0004165  -0.0000018  -0.0000008  -0.9413887   0.2866159
0.0400418    -0.9960797  -0.0000209  -0.0021778   0.0004801  -0.0000059  -0.0000090  -0.9414225   0.2867169
0.0405340    -0.9961152   0.0000491  -0.0021325   0.0004701   0.0000032  -0.0000083  -0.9413678   0.2866962
0.0410323    -0.9960284  -0.0001127  -0.0021180   0.0004871   0.0000113  -0.0000063  -0.9412536   0.2867964
0.0415368    -0.9960217  -0.0000172  -0.0021615   0.0004852  -0.0000101   0.0000046  -0.9413906   0.2868516
0.0420474    -0.9960335   0.0000624  -0.0020939   0.0004805  -0.0000032  -0.0000059  -0.9413047   0.2867908
0.0425643    -0.9960342  -0.0000324  -0.0021420   0.0005001   0.0000041  -0.0000041  -0.9412317   0.2868349
0.0430875    -0.9961069  -0.0001137  -0.0021269   0.0004807   0.0000041  -0.0000004  -0.9413051   0.2869693
0.0436172    -0.9959716   0.0000498  -0.0021379   0.0004850  -0.0000077  -0.0000074  -0.9412355   0.2870156
0.0441534    -0.9960709  -0.0000908  -0.0021409   0.0004762   0.0000004  -0.0000073  -0.9411886   0.2871031
0.0446962    -0.9960531  -0.0000677  -0.0020816   0.0005147  -0.0000045  -0.0000057  -0.9411981   0.2871376
0.0452457    -0.9960006  -0.0000486  -0.0021339   0.0005149   0.0000028  -0.0000074  -0.9411458   0.2871384
0.0458019    -0.9960391  -0.0001282  -0.0021076   0.0004822   0.0000017  -0.0000085  -0.9411226   0.2871739
0.0463649    -0.9960033   0.0000259  -0.0021451   0.0005259   0.0000098   0.0000013  -0.9410879   0.2872438
0.0469349    -0.9960908  -0.0000163  -0.0021275   0.0004986  -0.0000076  -0.0000056  -0.9410962   0.2873527
0.0475119    -0.9960611  -0.0000954  -0.0021319   0.0005137   0.0000017  -0.0000071  -0.9410704   0.2873649
0.0480960    -0.9959680  -0.0000881  -0.0021417   0.0005083  -0.0000044  -0.0000019  -0.9409973   0.2874680
0.0486872    -0.9959353  -0.0000294  -0.0021353   0.0005297  -0.0000129  -0.0000110  -0.9409651   0.2874875
0.0492857    -0.9961949  -0.0000992  -0.0020905   0.0005070  -0.0000002  -0.0000042  -0.9409461   0.2875644
0.0498916    -0.9961033   0.0000127  -0.0020759   0.0005679  -0.0000045  -0.0000018  -0.9408737   0.2876173
0.0505050    -0.9960032   0.0000406  -0.0020867   0.0005206  -0.0000103  -0.0000166  -0.9409469   0.2876108
0.0511258    -0.9960164  -0.0000326  -0.0021186   0.0005033  -0.0000017  -0.0000074  -0.9409396   0.2877756
0.0517543    -0.9960667   0.0000183  -0.0020987   0.0004928  -0.0000078  -0.0000062  -0.9409543   0.2877150
0.0523906    -0.9960647  -0.0000002  -0.0021604   0.0005585   0.0000057  -0.0000072  -0.9408638   0.2877875
0.0530346    -0.9960597  -0.0000189  -0.0021386   0.0005500   0.0000032  -0.0000115  -0.9408033   0.2878187
0.0536866    -0.9959208   0.0000179  -0.0021382   0.0005189  -0.0000095  -0.0000167  -0.9408350   0.2878571
0.0543466    -0.9960653   0.0000119  -0.0020986   0.0005349  -0.0000052  -0.0000006  -0.9407425   0.2878680
0.0550146    -0.9959983  -0.0000947  -0.0020927   0.0005636  -0.0000055  -0.0000045  -0.9407686   0.2879192
0.0556910    -0.9960789  -0.0000213  -0.0020823   0.0005919  -0.0000121  -0.0000102  -0.9406990   0.2879734
0.0563756    -0.9960372   0.0000022  -0.0021226   0.0004753   0.0000018  -0.0000108  -0.9407175   0.2881117
0.0570686    -0.9960511  -0.0000917  -0.0020634   0.0005607   0.0000006  -0.0000166  -0.9406780   0.2881488
0.0577702    -0.9960267  -0.0000219  -0.0021475   0.0005411  -0.0000013  -0.0000054  -0.9406106   0.2882546
0.0584804    -0.9959534  -0.0001367  -0.0021583   0.0005111   0.0000011  -0.0000075  -0.9405687   0.2881916
0.0591993    -0.9960003  -0.0001211  -0.0021224   0.0005710   0.0000087   0.0000003  -0.9405477   0.2882490
0.0599270    -0.9961452  -0.0001018  -0.0021862   0.0005506   0.0000084  -0.0000020  -0.9406534   0.2883762
0.0606637    -0.9960093  -0.0000268  -0.0021118   0.0005460  -0.0000008  -0.0000084  -0.9404613   0.2883609
0.0614095    -0.9959939  -0.0000062  -0.0020957   0.0005753  -0.0000130   0.0000009  -0.9405219   0.2883972
0.0621644    -0.9961750  -0.0001617  -0.0020803   0.0005633  -0.0000010  -0.0000074  -0.9405535   0.2885076
0.0629286    -0.9960029  -0.0000796  -0.0021274   0.0005501  -0.0000052  -0.0000012  -0.9404398   0.2884878
0.0637022    -0.9960096   0.0000603  -0.0020740   0.0005753   0.0000020  -0.0000046  -0.9403573   0.2886245
0.0644853    -0.9960792  -0.0000768  -0.0020642   0.0005731  -0.0000014  -0.0000039  -0.9404157   0.2886764
0.0652780    -0.9960013   0.0000065  -0.0020963   0.0006219   0.0000039  -0.0000084  -0.9403190   0.2886986
0.0660805    -0.9960494  -0.0001314  -0.0021239   0.0005414  -0.0000050  -0.0000067  -0.9402917   0.2888275
0.0668928    -0.9960765  -0.0001142  -0.0020748   0.0006011  -0.0000128  -0.0000122  -0.9402203   0.2888212
0.0677152    -0.9960104   0.0000144  -0.0020898   0.0006094   0.0000000  -0.0000112  -0.9402024   0.2888230
0.0685476    -0.9960005  -0.0001651  -0.0020989   0.0005769  -0.0000072  -0.0000117  -0.9401862   0.2888922
0.0693903    -0.9960178  -0.0000548  -0.0020897   0.0005934  -0.0000004  -0.0000041  -0.9401122   0.2890172
0.0702433    -0.9960921  -0.0001394  -0.0020799   0.0006370  -0.0000029   0.0000041  -0.9401311   0.2890242
0.0711068    -0.9959803  -0.0001116  -0.0021013   0.0006170   0.0000037  -0.0000059  -0.9400895   0.2890692
0.0719810    -0.9960700   0.0000109  -0.0020981   0.0005884  -0.0000091   0.0000050  -0.9400307   0.2890734
0.0728659    -0.9960751  -0.0001005  -0.0020802   0.0006251   0.0000052  -0.0000014  -0.9399982   0.2891921
0.0737616    -0.9960537  -0.0000078  -0.0021310   0.0006439  -0.0000012   0.0000004  -0.9399166   0.2892475
0.0746684    -0.9960366  -0.0000777  -0.0020495   0.0006222   0.0000073  -0.0000086  -0.9399425   0.2892933
0.0755863    -0.9960798  -0.0000308  -0.0020640   0.0006019  -0.0000051  -0.0000018  -0.9398644   0.2893296
0.0765155    -0.9959706   0.0000359  -0.0020994   0.0006172  -0.0000040  -0.0000102  -0.9398543   0.2893451
0.0774561    -0.9959576  -0.0001265  -0.0021011   0.0006118   0.0000021  -0.0000132  -0.9397228   0.2894283
0.0784083    -0.9959272  -0.0000824  -0.0020931   0.0006029   0.0000033   0.0000006  -0.9396576   0.2894038
0.0793722    -0.9958896  -0.0000964  -0.0021103   0.0006351  -0.0000042  -0.0000104  -0.9396161   0.2895158
0.0803479    -0.9959583  -0.0000214  -0.0021252   0.0006327   0.0000014  -0.0000099  -0.9396115   0.2895176
0.0813357    -0.9958793  -0.0001639  -0.0021131   0.0006308  -0.0000006  -0.0000007  -0.9394970   0.2895606
0.0823356    -0.9960171  -0.0000222  -0.0020979   0.0006187  -0.0000053  -0.0000076  -0.9394075   0.2896695
0.0833477    -0.9960502  -0.0001556  -0.0021404   0.0006251   0.0000061  -0.0000029  -0.9393761   0.2896456
0.0843723    -0.9960231  -0.0001274  -0.0021522   0.0006647   0.0000086  -0.0000037  -0.9393115   0.2897923
0.0854095    -0.9960403  -0.0001063  -0.0021032   0.0006166  -0.0000026  -0.0000074  -0.9392051   0.2896720
0.0864595    -0.9959712  -0.0001118  -0.0021202   0.0006411  -0.0000029   0.0000073  -0.9391912   0.2898053
0.0875224    -0.9959843   0.0000143  -0.0021392   0.0006711   0.0000034  -0.0000104  -0.9391330   0.2897833
0.0885983    -0.9959361  -0.0001338  -0.0021203   0.0006620  -0.0000022  -0.0000038  -0.9390844   0.2898074
0.0896875    -0.9959725   0.0000061  -0.0021273   0.0006273   0.0000089  -0.0000091  -0.9389901   0.2898603
0.0907900    -0.9958836  -0.0001905  -0.0021423   0.0006607  -0.0000058  -0.0000009  -0.9389029   0.2897670
0.0919061    -0.9959635  -0.0000919  -0.0021429   0.0006299   0.0000026   0.0000009  -0.9387465   0.2898359
0.0930359    -0.9959379  -0.0002290  -0.0021094   0.0006636   0.0000012   0.0000016  -0.9387368   0.2897206
0.0941797    -0.9960142  -0.0002414  -0.0021737   0.0007004   0.0000025   0.0000095  -0.9386642   0.2897788
0.0953374    -0.9959698  -0.0002128  -0.0021159   0.0006801  -0.0000047   0.0000036  -0.9386589   0.2896874
0.0965094    -0.9959852  -0.0002218  -0.0021119   0.0007141   0.0000008  -0.0000022  -0.9385277   0.2897067
0.0976959    -0.9959594  -0.0002418  -0.0021383   0.0006860   0.0000064  -0.0000051  -0.9385353   0.2896980
0.0988969    -0.9958851  -0.0002170  -0.0021537   0.0006934  -0.0000068  -0.0000015  -0.9384663   0.2896201
0.1001126    -0.9959633  -0.0003391  -0.0021223   0.0006822  -0.0000042  -0.0000113  -0.9384273   0.2896009
0.1013433    -0.9960491  -0.0003334  -0.0021319   0.0006919  -0.0000066  -0.0000005  -0.9384162   0.2895283
0.1025892    -0.9959689  -0.0002270  -0.0021237   0.0007117  -0.0000089  -0.0000156  -0.9383242   0.2894642
0.1038503    -0.9960328  -0.0003755  -0.0021755   0.0007324  -0.0000061   0.0000026  -0.9383898   0.2893628
0.1051270    -0.9960066  -0.0004088  -0.0021236   0.0007042  -0.0000042   0.0000032  -0.9384645   0.2893710
0.1064193    -0.9961719  -0.0002493  -0.0021548   0.0007238  -0.0000009  -0.0000043  -0.9385210   0.2892712
0.1077276    -0.9960280  -0.0002094  -0.0021676   0.0007699  -0.0000010   0.0000042  -0.9385561   0.2893075
0.1090519    -0.9960577  -0.0003626  -0.0021243   0.0007692   0.0000081   0.0000023  -0.9386699   0.2891948
0.1103925    -0.9960606  -0.0002231  -0.0021477   0.0007719  -0.0000053  -0.0000082  -0.9386504   0.2892372
0.1117496    -0.9962342  -0.0003332  -0.0021580   0.0007633   0.0000070  -0.0000009  -0.9387449   0.2892651
0.1131233    -0.9961184  -0.0002421  -0.0021609   0.0007340  -0.0000109  -0.0000063  -0.9388706   0.2892237
0.1145140    -0.9961608  -0.0002546  -0.0021247   0.0007824  -0.0000020  -0.0000139  -0.9389367   0.2893050
0.1159217    -0.9961043  -0.0002809  -0.0021629   0.0008315  -0.0000058  -0.0000006  -0.9389502   0.2893045
0.1173468    -0.9961289  -0.0001974  -0.0021560   0.0007800   0.0000043  -0.0000100  -0.9390159   0.2893834
0.1187893    -0.9961526  -0.0002812  -0.0021277   0.0007924  -0.0000015  -0.0000112  -0.9391408   0.2894386
0.1202497    -0.9960724  -0.0002097  -0.0021252   0.0008254  -0.0000076  -0.0000202  -0.9391425   0.2894774
0.1217279    -0.9960984  -0.0001765  -0.0021264   0.0008194   0.0000047   0.0000067  -0.9391774   0.2895602
0.1232243    -0.9961307  -0.0002161  -0.0021167   0.0008378  -0.0000059  -0.0000097  -0.9393238   0.2897100
0.1247392    -0.9961867  -0.0001188  -0.0021267   0.0008495  -0.0000005  -0.0000021  -0.9393441   0.2897610
0.1262726    -0.9961782  -0.0001210  -0.0021279   0.0008679  -0.0000082  -0.0000107  -0.9393835   0.2898578
0.1278249    -0.9961761  -0.0001236  -0.0021272   0.0008530  -0.0000011  -0.0000062  -0.9393711   0.2899272
0.1293963    -0.9960889  -0.0002209  -0.0021355   0.0008441  -0.0000038  -0.0000042  -0.9394349   0.2900448
0.1309870    -0.9961483  -0.0002782  -0.0021419   0.0009039   0.0000004  -0.0000140  -0.9394403   0.2901690
0.1325973    -0.9960899  -0.0001694  -0.0021702   0.0008991  -0.0000006   0.0000020  -0.9394429   0.2901727
0.1342273    -0.9961580  -0.0002905  -0.0021485   0.0008894  -0.0000030  -0.0000066  -0.9395119   0.2902830
0.1358774    -0.9960103  -0.0001623  -0.0021563   0.0008914  -0.0000045   0.0000028  -0.9394840   0.2904587
0.1375478    -0.9962264  -0.0002008  -0.0021461   0.0009373   0.0000041  -0.0000011  -0.9395102   0.2904983
0.1392387    -0.9962318  -0.0001707  -0.0021651   0.0009479  -0.0000016  -0.0000030  -0.9394896   0.2906542
0.1409504    -0.9961933  -0.0001842  -0.0021567   0.0009588  -0.0000098  -0.0000030  -0.9395416   0.2907525
0.1426831    -0.9962225  -0.0001573  -0.0021619   0.0010026  -0.0000051  -0.0000032  -0.9395182   0.2907696
0.1444371    -0.9960780  -0.0001560  -0.0020980   0.0010401   0.0000040  -0.0000025  -0.9394529   0.2909111
0.1462127    -0.9960703  -0.0002593  -0.0021530   0.0009975   0.0000011  -0.0000080  -0.9395321   0.2910522
0.1480102    -0.9961425  -0.0001326  -0.0021445   0.0010123  -0.0000016  -0.0000117  -0.9394888   0.2911476
0.1498297    -0.9961037  -0.0002322  -0.0021547   0.0010006  -0.0000046   0.0000006  -0.9394295   0.2911965
0.1516716    -0.9960664  -0.0002770  -0.0021467   0.0010900  -0.0000031   0.0000037  -0.9394114   0.2913293
0.1535361    -0.9961853  -0.0002707  -0.0021568   0.0010202  -0.0000056  -0.0000089  -0.9394468   0.2914228
0.1554236    -0.9961171  -0.0001834  -0.0021585   0.0010766   0.0000006   0.0000022  -0.9394299   0.2915906
0.1573342    -0.9960906  -0.0002797  -0.0021654   0.0010642  -0.0000109  -0.0000090  -0.9393141   0.2916879
0.1592684    -0.9962204  -0.0002307  -0.0021418   0.0010511   0.0000048   0.0000032  -0.9394186   0.2917255
0.1612263    -0.9961926  -0.0002374  -0.0021526   0.0010944   0.0000049  -0.0000010  -0.9393069   0.2918717
0.1632083    -0.9961752  -0.0002098  -0.0021606   0.0010875   0.0000052  -0.0000046  -0.9393931   0.2919294
0.1652147    -0.9961067  -0.0001575  -0.0021797   0.0011002  -0.0000054   0.0000015  -0.9392935   0.2920767
0.1672457    -0.9962296  -0.0002122  -0.0021950   0.0011313   0.0000058  -0.0000092  -0.9392819   0.2921465
0.1693017    -0.9959450  -0.0002156  -0.0021840   0.0011402  -0.0000093  -0.0000026  -0.9392562   0.2921591
0.1713829    -0.9959776  -0.0002608  -0.0021663   0.0011287  -0.0000062  -0.0000029  -0.9392212   0.2923577
0.1734898    -0.9962466  -0.0003001  -0.0021656   0.0011452  -0.0000008   0.0000005  -0.9391912   0.2923584
0.1756225    -0.9960413  -0.0002050  -0.0021702   0.0011882   0.0000067  -0.0000024  -0.9391699   0.2925539
0.1777815    -0.9960877  -0.0002378  -0.0021756   0.0011889  -0.0000031  -0.0000086  -0.9390592   0.2925714
0.1799670    -0.9961089  -0.0002998  -0.0021779   0.0012170  -0.0000053  -0.0000102  -0.9390654   0.2927581
0.1821794    -0.9961435  -0.0003048  -0.0021496   0.0012196   0.0000027  -0.0000042  -0.9390483   0.2928551
0.1844190    -0.9961281  -0.0002938  -0.0021542   0.0012512  -0.0000014  -0.0000113  -0.9391059   0.2929285
0.1866861    -0.9961031  -0.0003472  -0.0021837   0.0012499  -0.0000025  -0.0000085  -0.9389236   0.2930493
0.1889811    -0.9960150  -0.0003469  -0.0021915   0.0012689  -0.0000052  -0.0000045  -0.9389341   0.2931909
0.1913043    -0.9960853  -0.0003230  -0.0022082   0.0013007  -0.0000022  -0.0000077  -0.9389398   0.2931881
0.1936560    -0.9961100  -0.0002917  -0.0021569   0.0012951  -0.0000029   0.0000011  -0.9388743   0.2934055
0.1960367    -0.9960708  -0.0003658  -0.0021577   0.0013143  -0.0000034  -0.0000113  -0.9388666   0.2935421
0.1984466    -0.9960343  -0.0003722  -0.0021468   0.0013182  -0.0000069  -0.0000007  -0.9388003   0.2935264
0.2008861    -0.9959934  -0.0003690  -0.0021496   0.0013498  -0.0000035  -0.0000135  -0.9388468   0.2937072
0.2033557    -0.9962354  -0.0003417  -0.0021644   0.0013605  -0.0000017  -0.0000072  -0.9388149   0.2937507
0.2058556    -0.9960407  -0.0004089  -0.0021155   0.0013755   0.0000063  -0.0000012  -0.9386165   0.2938308
0.2083862    -0.9961103  -0.0003455  -0.0021454   0.0013706  -0.0000007  -0.0000098  -0.9386430   0.2939738
0.2109480    -0.9960994  -0.0003649  -0.0021580   0.0013979  -0.0000041   0.0000037  -0.9386125   0.2940661
0.2135412    -0.9961390  -0.0002156  -0.0021473   0.0014341   0.0000026  -0.0000099  -0.9385548   0.2941996
0.2161663    -0.9961137  -0.0003218  -0.0021519   0.0014343   0.0000069  -0.0000061  -0.9385860   0.2942747
0.2188237    -0.9961974  -0.0003584  -0.0021486   0.0014812  -0.0000015  -0.0000051  -0.9385893   0.2944157
0.2215137    -0.9959880  -0.0002948  -0.0021177   0.0014695  -0.0000176  -0.0000081  -0.9384733   0.2944849
0.2242369    -0.9960926  -0.0003301  -0.0021182   0.0014861  -0.0000093  -0.0000156  -0.9383799   0.2946712
0.2269935    -0.9960457  -0.0003904  -0.0021567   0.0015159  -0.0000070  -0.0000102  -0.9383557   0.2947396
0.2297839    -0.9961169  -0.0002820  -0.0021260   0.0015400   0.0000008  -0.0000095  -0.9383288   0.2948782
0.2326087    -0.9960574  -0.0004344  -0.0020965   0.0015635  -0.0000072  -0.0000042  -0.9383012   0.2949777
0.2354682    -0.9961717  -0.0003692  -0.0021320   0.0015811   0.0000062  -0.0000025  -0.9382314   0.2950852
0.2383629    -0.9959567  -0.0002164  -0.0021124   0.0015901   0.0000095  -0.0000077  -0.9382402   0.2951383
0.2412932    -0.9959958  -0.0003976  -0.0020811   0.0016116  -0.0000204  -0.0000146  -0.9381400   0.2952565
0.2442594    -0.9959719  -0.0004805  -0.0020451   0.0016084  -0.0000093   0.0000065  -0.9381314   0.2954319
0.2472622    -0.9961203  -0.0004146  -0.0021454   0.0016322  -0.0000034  -0.0000044  -0.9381191   0.2955686
0.2503018    -0.9960382  -0.0003989  -0.0021089   0.0016975  -0.0000125  -0.0000093  -0.9379876   0.2957517
0.2533788    -0.9961524  -0.0004205  -0.0020933   0.0016774  -0.0000040   0.0000031  -0.9379655   0.2957465
0.2564937    -0.9961775  -0.0004329  -0.0021002   0.0016865  -0.0000017  -0.0000116  -0.9379517   0.2958429
0.2596468    -0.9960363  -0.0004492  -0.0021365   0.0017221  -0.0000103  -0.0000019  -0.9378675   0.2960615
0.2628387    -0.9960932  -0.0003201  -0.0021128   0.0017446   0.0000019   0.0000031  -0.9378421   0.2962113
0.2660699    -0.9960496  -0.0004061  -0.0021165   0.0017669   0.0000030  -0.0000001  -0.9377637   0.2962477
0.2693407    -0.9961716  -0.0004018  -0.0020751   0.0017731   0.0000029   0.0000017  -0.9376920   0.2964796
0.2726518    -0.9960020  -0.0003879  -0.0021403   0.0018065   0.0000098  -0.0000065  -0.9376563   0.2965318
0.2760036    -0.9960588  -0.0004684  -0.0020892   0.0017928  -0.0000009  -0.0000004  -0.9376370   0.2967253
0.2793966    -0.9960807  -0.0005298  -0.0021189   0.0018500   0.0000015  -0.0000069  -0.9375655   0.2967840
0.2828312    -0.9961834  -0.0004491  -0.0021011   0.0018714  -0.0000054  -0.0000065  -0.9375553   0.2969881
0.2863082    -0.9960798  -0.0004407  -0.0020512   0.0018749  -0.0000069  -0.0000156  -0.9374514   0.2970842
0.2898278    -0.9960830  -0.0004505  -0.0020966   0.0019037   0.0000011  -0.0000148  -0.9373987   0.2972562
0.2933907    -0.9961223  -0.0004880  -0.0021169   0.0019481  -0.0000071  -0.0000110  -0.9374491   0.2973166
0.2969975    -0.9959804  -0.0004850  -0.0020646   0.0019191   0.0000025  -0.0000002  -0.9373918   0.2974570
0.3006485    -0.9961198  -0.0005568  -0.0020694   0.0019725  -0.0000037  -0.0000003  -0.9372446   0.2976492
0.3043445    -0.9960353  -0.0005287  -0.0020807   0.0020126   0.0000030  -0.0000090  -0.9372233   0.2977212
0.3080858    -0.9961214  -0.0004756  -0.0020869   0.0020079   0.0000008  -0.0000047  -0.9371217   0.2978439
0.3118732    -0.9959793  -0.0005099  -0.0020481   0.0020440  -0.0000029  -0.0000037  -0.9370846   0.2981255
0.3157071    -0.9961002  -0.0004491  -0.0020424   0.0020544   0.0000001  -0.0000051  -0.9369519   0.2981806
0.3195882    -0.9959927  -0.0005573  -0.0020776   0.0020937  -0.0000056  -0.0000075  -0.9369621   0.2983713
0.3235170    -0.9961539  -0.0005596  -0.0020760   0.0021177   0.0000005  -0.0000101  -0.9368877   0.2985743
0.3274941    -0.9961486  -0.0004884  -0.0020826   0.0021511  -0.0000171  -0.0000030  -0.9368245   0.2986018
0.3315200    -0.9959142  -0.0004887  -0.0020517   0.0021678  -0.0000011  -0.0000002  -0.9366881   0.2987612
0.3355955    -0.9960653  -0.0005694  -0.0020357   0.0021822   0.0000024  -0.0000098  -0.9367534   0.2988743
0.3397210    -0.9959429  -0.0005222  -0.0020447   0.0022123  -0.0000033  -0.0000140  -0.9366286   0.2991156
0.3438973    -0.9962294  -0.0005262  -0.0020449   0.0022372   0.0000025  -0.0000018  -0.9365542   0.2991742
0.3481249    -0.9960942  -0.0005121  -0.0020011   0.0022665  -0.0000090  -0.0000003  -0.9365513   0.2993079
0.3524045    -0.9960583  -0.0005706  -0.0020202   0.0022895   0.0000071  -0.0000049  -0.9364981   0.2994654
0.3567367    -0.9961070  -0.0006074  -0.0020356   0.0023027   0.0000048  -0.0000006  -0.9364733   0.2996630
0.3611221    -0.9959762  -0.0005628  -0.0019962   0.0023319  -0.0000009  -0.0000053  -0.9363157   0.2998125
0.3655615    -0.9960376  -0.0005434  -0.0020166   0.0023254   0.0000008   0.0000035  -0.9362350   0.2999891
0.3700554    -0.9960646  -0.0005888  -0.0020046   0.0024176  -0.0000078   0.0000013  -0.9361766   0.3001423
0.3746046    -0.9960502  -0.0005982  -0.0020239   0.0024372  -0.0000074   0.0000052  -0.9360952   0.3002810
0.3792097    -0.9960841  -0.0006192  -0.0019929   0.0024192   0.0000027  -0.0000014  -0.9360310   0.3005167
0.3838714    -0.9960530  -0.0006358  -0.0020261   0.0024945  -0.0000147   0.0000006  -0.9360487   0.3006684
0.3885905    -0.9959937  -0.0006906  -0.0020017   0.0024978   0.0000014  -0.0000025  -0.9359445   0.3008066
0.3933675    -0.9959782  -0.0006256  -0.0019743   0.0025277  -0.0000064  -0.0000079  -0.9358374   0.3010662
0.3982033    -0.9961075  -0.0005784  -0.0019838   0.0025731   0.0000045  -0.0000028  -0.9357388   0.3011775
0.4030985    -0.9959914  -0.0006730  -0.0019930   0.0025735  -0.0000013  -0.0000019  -0.9356822   0.3013380
0.4080538    -0.9961209  -0.0005333  -0.0020013   0.0025991   0.0000088  -0.0000011  -0.9356213   0.3015114
0.4130701    -0.9960837  -0.0006209  -0.0019937   0.0025939  -0.0000030  -0.0000011  -0.9354990   0.3017008
0.4181481    -0.9961109  -0.0006275  -0.0019813   0.0026664  -0.0000217  -0.0000123  -0.9354835   0.3019167
0.4232885    -0.9961310  -0.0007043  -0.0019722   0.0026992   0.0000013  -0.0000042  -0.9353929   0.3020374
0.4284921    -0.9961104  -0.0007104  -0.0019608   0.0027163   0.0000050  -0.0000019  -0.9353126   0.3021829
0.4337597    -0.9961548  -0.0007822  -0.0019493   0.0027547  -0.0000025  -0.0000129  -0.9351899   0.3024178
0.4390920    -0.9959651  -0.0007578  -0.0019523   0.0027917   0.0000014  -0.0000040  -0.9351455   0.3026475
0.4444898    -0.9960274  -0.0007101  -0.0019373   0.0027811   0.0000003  -0.0000071  -0.9350953   0.3028394
0.4499541    -0.9962337  -0.0007017  -0.0019472   0.0027815   0.0000018   0.0000071  -0.9349420   0.3029515
0.4554854    -0.9960887  -0.0007734  -0.0019481   0.0028728  -0.0000024   0.0000004  -0.9349191   0.3031716
0.4610848    -0.9961738  -0.0007885  -0.0019187   0.0029178   0.0000036  -0.0000010  -0.9347462   0.3034583
0.4667531    -0.9961401  -0.0006687  -0.0019327   0.0028978  -0.0000048  -0.0000122  -0.9347264   0.3035858
0.4724910    -0.9961624  -0.0008254  -0.0018962   0.0029634   0.0000114  -0.0000039  -0.9345766   0.3037551
0.4782994    -0.9960802  -0.0007333  -0.0019298   0.0029878  -0.0000062  -0.0000052  -0.9345650   0.3040264
0.4841793    -0.9961250  -0.0008075  -0.0019270   0.0029794   0.0000106   0.0000023  -0.9344129   0.3041643
0.4901314    -0.9961515  -0.0008404  -0.0019146   0.0030374   0.0000062  -0.0000086  -0.9344641   0.3044346
0.4961567    -0.9960724  -0.0007780  -0.0019193   0.0030928  -0.0000058  -0.0000014  -0.9343045   0.3046205
0.5022561    -0.9960856  -0.0008305  -0.0019199   0.0031313  -0.0000017  -0.0000053  -0.9341865   0.3048411
0.5084304    -0.9960682  -0.0006887  -0.0019110   0.0031112  -0.0000013  -0.0000019  -0.9340425   0.3051119
0.5146807    -0.9960513  -0.0008290  -0.0019229   0.0031960  -0.0000092  -0.0000063  -0.9339961   0.3052493
0.5210078    -0.9960619  -0.0008484  -0.0018582   0.0032361   0.0000043  -0.0000041  -0.9338725   0.3054744
0.5274126    -0.9960921  -0.0007307  -0.0019108   0.0032370  -0.0000064  -0.0000075  -0.9338402   0.3057256
0.5338963    -0.9960710  -0.0008343  -0.0018614   0.0032999   0.0000003   0.0000057  -0.9337405   0.3059158
0.5404596    -0.9961929  -0.0009004  -0.0018983   0.0033362  -0.0000084   0.0000050  -0.9336710   0.3062319
0.5471036    -0.9960602  -0.0010059  -0.0018521   0.0033422  -0.0000094  -0.0000065  -0.9335276   0.3063257
0.5538292    -0.9961697  -0.0009199  -0.0018727   0.0034186   0.0000020  -0.0000054  -0.9334165   0.3066357
0.5606376    -0.9960441  -0.0009256  -0.0018890   0.0034411  -0.0000026  -0.0000073  -0.9332411   0.3068205
0.5675297    -0.9961074  -0.0009188  -0.0018843   0.0034246  -0.0000022  -0.0000028  -0.9331879   0.3071370
0.5745064    -0.9961003  -0.0010097  -0.0018744   0.0034933   0.0000018   0.0000011  -0.9330557   0.3073340
0.5815690    -0.9961891  -0.0009815  -0.0018454   0.0035322   0.0000020   0.0000047  -0.9330523   0.3075216
0.5887183    -0.9959701  -0.0010216  -0.0018250   0.0035878  -0.0000109  -0.0000114  -0.9328489   0.3077647
0.5959556    -0.9961388  -0.0008805  -0.0018643   0.0035672  -0.0000057  -0.0000093  -0.9327533   0.3080503
0.6032818    -0.9961017  -0.0009087  -0.0018825   0.0036220  -0.0000051  -0.0000031  -0.9326622   0.3083318
0.6106981    -0.9960907  -0.0010198  -0.0018352   0.0036902   0.0000033  -0.0000101  -0.9325332   0.3086434
0.6182056    -0.9961155  -0.0010565  -0.0018593   0.0036916   0.0000045  -0.0000047  -0.9324797   0.3087512
0.6258053    -0.9960407  -0.0010201  -0.0018312   0.0037916  -0.0000036   0.0000009  -0.9323100   0.3090988
0.6334985    -0.9961562  -0.0010317  -0.0018339   0.0038054   0.0000043  -0.0000057  -0.9322906   0.3093580
0.6412862    -0.9961964  -0.0010414  -0.0018283   0.0038319  -0.0000087  -0.0000039  -0.9320162   0.3096498
0.6491697    -0.9961742  -0.0010933  -0.0018508   0.0038340  -0.0000025   0.0000017  -0.9320639   0.3099768
0.6571501    -0.9960837  -0.0011561  -0.0018172   0.0039102  -0.0000156  -0.0000076  -0.9318527   0.3101546
0.6652286    -0.9960307  -0.0010364  -0.0018294   0.0039746   0.0000013  -0.0000025  -0.9317385   0.3105023
0.6734064    -0.9961431  -0.0011167  -0.0018310   0.0040062  -0.0000007  -0.0000128  -0.9316249   0.3107810
0.6816848    -0.9960938  -0.0011000  -0.0017960   0.0040806  -0.0000108  -0.0000052  -0.9314518   0.3109770
0.6900649    -0.9960572  -0.0011780  -0.0017874   0.0041069  -0.0000001  -0.0000024  -0.9313558   0.3112493
0.6985480    -0.9961097  -0.0011409  -0.0018116   0.0041189  -0.0000011  -0.0000022  -0.9312130   0.3116300
0.7071355    -0.9960875  -0.0011245  -0.0017832   0.0041832   0.0000024  -0.0000047  -0.9311384   0.3119213
0.7158284    -0.9960989  -0.0011552  -0.0017760   0.0042237   0.0000018  -0.0000044  -0.9310515   0.3121998
0.7246283    -0.9960421  -0.0011520  -0.0017684   0.0042697  -0.0000065  -0.0000022  -0.9308397   0.3124587
0.7335363    -0.9961599  -0.0011878  -0.0017965   0.0043265   0.0000072  -0.0000030  -0.9308036   0.3127722
0.7425539    -0.9962215  -0.0012409  -0.0017714   0.0043613  -0.0000014  -0.0000051  -0.9306783   0.3131388
0.7516822    -0.9960365  -0.0012465  -0.0017835   0.0044108  -0.0000061   0.0000039  -0.9304417   0.3133883
0.7609229    -0.9962348  -0.0012210  -0.0017638   0.0044535  -0.0000108  -0.0000073  -0.9302693   0.3136903
0.7702771    -0.9960163  -0.0012567  -0.0018027   0.0045310   0.0000060  -0.0000118  -0.9301103   0.3139566
0.7797463    -0.9961972  -0.0012051  -0.0017635   0.0045513  -0.0000053  -0.0000039  -0.9299867   0.3143409
0.7893319    -0.9961028  -0.0012421  -0.0017987   0.0045947  -0.0000011  -0.0000039  -0.9298566   0.3146606
0.7990353    -0.9960466  -0.0013721  -0.0017910   0.0046490   0.0000108   0.0000006  -0.9297423   0.3149845
0.8088580    -0.9961656  -0.0012995  -0.0017527   0.0047113  -0.0000011  -0.0000043  -0.9295781   0.3153214
0.8188015    -0.9961083  -0.0013631  -0.0017803   0.0047891  -0.0000041  -0.0000032  -0.9294537   0.3156519
0.8288673    -0.9961352  -0.0014023  -0.0017675   0.0048176  -0.0000032  -0.0000065  -0.9292674   0.3159989
0.8390567    -0.9960683  -0.0012855  -0.0017600   0.0048709   0.0000029  -0.0000167  -0.9291964   0.3163791
0.8493714    -0.9961148  -0.0014289  -0.0018268   0.0049568   0.0000081  -0.0000012  -0.9290133   0.3166715
0.8598130    -0.9961312  -0.0013525  -0.0017890   0.0050144   0.0000073  -0.0000083  -0.9288463   0.3170546
0.8703829    -0.9960060  -0.0014527  -0.0017580   0.0050368   0.0000037  -0.0000044  -0.9286617   0.3173866
0.8810827    -0.9960792  -0.0014167  -0.0017362   0.0051009  -0.0000029  -0.0000054  -0.9285109   0.3178376
0.8919140    -0.9961844  -0.0014312  -0.0017360   0.0051574   0.0000023  -0.0000108  -0.9283561   0.3181357
0.9028786    -0.9961523  -0.0013823  -0.0017410   0.0052265  -0.0000092   0.0000004  -0.9281942   0.3185210
0.9139779    -0.9962081  -0.0015539  -0.0017337   0.0052790  -0.0000026  -0.0000067  -0.9280326   0.3189216
0.9252136    -0.9960712  -0.0015069  -0.0017379   0.0053480  -0.0000001  -0.0000139  -0.9278553   0.3192816
0.9365875    -0.9962401  -0.0015577  -0.0017181   0.0054094  -0.0000034   0.0000006  -0.9276938   0.3196557
0.9481012    -0.9961110  -0.0013883  -0.0017278   0.0054545  -0.0000017  -0.0000055  -0.9275186   0.3200543
0.9597564    -0.9961692  -0.0015540  -0.0017698   0.0055512  -0.0000017  -0.0000023  -0.9273121   0.3204456
0.9715549    -0.9960580  -0.0015892  -0.0017199   0.0056220  -0.0000036  -0.0000012  -0.9271461   0.3208858
0.9834985    -0.9961440  -0.0016458  -0.0016871   0.0056619  -0.0000065  -0.0000013  -0.9270109   0.3212321
0.9955889    -0.9960643  -0.0015858  -0.0016837   0.0056886  -0.0000032  -0.0000050  -0.9268638   0.3216050
1.0078279    -0.9961509  -0.0016789  -0.0017245   0.0057829   0.0000107  -0.0000079  -0.9265545   0.3220619
1.0202173    -0.9961154  -0.0016826  -0.0017002   0.0058432   0.0000011  -0.0000053  -0.9264578   0.3224213
1.0327591    -0.9961103  -0.0016694  -0.0016773   0.0058827  -0.0000039  -0.0000004  -0.9262505   0.3229331
1.0454551    -0.9961303  -0.0017438  -0.0016688   0.0059768   0.0000008  -0.0000101  -0.9260666   0.3233381
1.0583071    -0.9960261  -0.0017784  -0.0017011   0.0060530  -0.0000013   0.0000049  -0.9258682   0.3237213
1.0713171    -0.9962081  -0.0017737  -0.0016687   0.0061143  -0.0000064   0.0000018  -0.9255917   0.3241481
1.0844871    -0.9960543  -0.0017905  -0.0016827   0.0061654  -0.0000048   0.0000027  -0.9254617   0.3245377
1.0978189    -0.9960236  -0.0018629  -0.0016696   0.0062329   0.0000007   0.0000068  -0.9252756   0.3250599
1.1113147    -0.9961773  -0.0017619  -0.0016486   0.0063152  -0.0000006  -0.0000055  -0.9250334   0.3254274
1.1249763    -0.9960420  -0.0018382  -0.0016572   0.0063811  -0.0000013  -0.0000018  -0.9248774   0.3259905
1.1388059    -0.9960176  -0.0019358  -0.0016842   0.0064653  -0.0000019  -0.0000060  -0.9247198   0.3264517
1.1528056    -0.9961382  -0.0019236  -0.0016475   0.0065374  -0.0000044  -0.0000036  -0.9244583   0.3268988
1.1669773    -0.9961857  -0.0019184  -0.0016551   0.0066204  -0.0000009  -0.0000082  -0.9242727   0.3273953
1.1813232    -0.9962250  -0.0019067  -0.0016392   0.0066983  -0.0000031  -0.0000048  -0.9240773   0.3278585
1.1958455    -0.9961680  -0.0019967  -0.0016479   0.0067941   0.0000009   0.0000004  -0.9238039   0.3283554
1.2105463    -0.9961985  -0.0020164  -0.0016477   0.0068570  -0.0000031  -0.0000085  -0.9236208   0.3288517
1.2254278    -0.9961402  -0.0019894  -0.0016413   0.0069246  -0.0000064   0.0000002  -0.9233540   0.3293477
1.2404923    -0.9960370  -0.0020093  -0.0016398   0.0070146   0.0000005  -0.0000006  -0.9232183   0.3298264
1.2557420    -0.9961482  -0.0020376  -0.0016217   0.0070937   0.0000060  -0.0000034  -0.9229541   0.3303611
1.2711791    -0.9960912  -0.0020334  -0.0015985   0.0071738   0.0000058   0.0000032  -0.9226769   0.3308420
1.2868060    -0.9961907  -0.0021409  -0.0016344   0.0072432  -0.0000086   0.0000018  -0.9224299   0.3313969
1.3026251    -0.9961340  -0.0021549  -0.0016131   0.0073488   0.0000010  -0.0000178  -0.9221532   0.3319239
1.3186385    -0.9961177  -0.0020783  -0.0015971   0.0074219  -0.0000032  -0.0000001  -0.9219294   0.3324706
1.3348489    -0.9961745  -0.0021297  -0.0015735   0.0075366  -0.0000022  -0.0000067  -0.9217568   0.3330027
1.3512585    -0.9961010  -0.0021809  -0.0015951   0.0076613  -0.0000067  -0.0000152  -0.9214508   0.3335168
1.3678698    -0.9961584  -0.0022072  -0.0015900   0.0077186  -0.0000091  -0.0000157  -0.9212825   0.3340755
1.3846854    -0.9961418  -0.0022873  -0.0016430   0.0078086   0.0000027  -0.0000135  -0.9210106   0.3347380
1.4017077    -0.9960867  -0.0022556  -0.0015540   0.0079563   0.0000041   0.0000045  -0.9207423   0.3352204
1.4189392    -0.9962152  -0.0023355  -0.0015936   0.0080158   0.0000006   0.0000001  -0.9205003   0.3357456
1.4363825    -0.9961572  -0.0022691  -0.0015794   0.0081182  -0.0000072  -0.0000012  -0.9202484   0.3363581
1.4540403    -0.9961266  -0.0023527  -0.0015687   0.0081919  -0.0000064  -0.0000011  -0.9199559   0.3369570
1.4719152    -0.9962440  -0.0023757  -0.0015701   0.0082347   0.0000078   0.0000075  -0.9197156   0.3376479
1.4900098    -0.9960235  -0.0024241  -0.0015638   0.0083336   0.0000059  -0.0000025  -0.9193985   0.3381595
1.5083269    -0.9961653  -0.0024485  -0.0015450   0.0084110  -0.0000053   0.0000013  -0.9191216   0.3387463
1.5268691    -0.9961429  -0.0024747  -0.0015670   0.0085511   0.0000075  -0.0000016  -0.9188447   0.3393919
1.5456392    -0.9961538  -0.0025090  -0.0015601   0.0086302  -0.0000034  -0.0000016  -0.9186352   0.3399954
1.5646402    -0.9960592  -0.0025634  -0.0015597   0.0087048   0.0000027  -0.0000022  -0.9183255   0.3407034
1.5838747    -0.9960808  -0.0025301  -0.0015597   0.0088265  -0.0000058   0.0000018  -0.9180071   0.3413056
1.6033456    -0.9961906  -0.0025649  -0.0015584   0.0088908  -0.0000038   0.0000005  -0.9178175   0.3419714
1.6230559    -0.9961687  -0.0026117  -0.0015555   0.0089944   0.0000040  -0.0000088  -0.9174998   0.3426997
1.6430085    -0.9962189  -0.0026977  -0.0015537   0.0090948  -0.0000092  -0.0000087  -0.9171685   0.3433497
1.6632064    -0.9962183  -0.0027796  -0.0015441   0.0092009  -0.0000108  -0.0000073  -0.9168588   0.3440620
1.6836526    -0.9961269  -0.0027107  -0.0015440   0.0093295   0.0000037  -0.0000099  -0.9166106   0.3447857
1.7043502    -0.9962038  -0.0027432  -0.0015355   0.0094103   0.0000002  -0.0000113  -0.9161800   0.3455200
1.7253021    -0.9960969  -0.0028773  -0.0015281   0.0094951  -0.0000079  -0.0000040  -0.9159925   0.3461715
1.7465117    -0.9960600  -0.0029083  -0.0015373   0.0096144   0.0000025  -0.0000055  -0.9157903   0.3469968
1.7679820    -0.9961688  -0.0028330  -0.0015156   0.0097073  -0.0000045   0.0000031  -0.9154066   0.3477171
1.7897162    -0.9961903  -0.0029241  -0.0014965   0.0098288  -0.0000016  -0.0000074  -0.9151174   0.3484560
1.8117176    -0.9960780  -0.0030532  -0.0015100   0.0099621  -0.0000088  -0.0000035  -0.9147761   0.3493066
1.8339895    -0.9961348  -0.0029605  -0.0015128   0.0100558  -0.0000118  -0.0000034  -0.9144893   0.3500739
1.8565352    -0.9960903  -0.0029556  -0.0015030   0.0101992  -0.0000061  -0.0000007  -0.9141587   0.3508992
1.8793580    -0.9962159  -0.0030973  -0.0014738   0.0103084   0.0000050  -0.0000067  -0.9138773   0.3516445
1.9024614    -0.9961720  -0.0030740  -0.0014895   0.0104307   0.0000034   0.0000019  -0.9136433   0.3524820
1.9258488    -0.9961775  -0.0032320  -0.0014707   0.0105545  -0.0000040  -0.0000066  -0.9132013   0.3533232
1.9495237    -0.9961891  -0.0032316  -0.0014755   0.0106780  -0.0000036  -0.0000086  -0.9128573   0.3542622
1.9734897    -0.9961620  -0.0031534  -0.0014568   0.0108286  -0.0000027  -0.0000027  -0.9124967   0.3551210
1.9977503    -0.9961712  -0.0032380  -0.0014410   0.0109514  -0.0000022  -0.0000100  -0.9121862   0.3560367
2.0223091    -0.9961744  -0.0033222  -0.0014117   0.0111041   0.0000036  -0.0000066  -0.9117146   0.3569520
2.0471698    -0.9962545  -0.0033131  -0.0014579   0.0112078   0.0000021  -0.0000058  -0.9112576   0.3578717
2.0723362    -0.9961462  -0.0034183  -0.0014203   0.0113368  -0.0000052  -0.0000109  -0.9108508   0.3587810
2.0978119    -0.9962817  -0.0034549  -0.0013137   0.0114984  -0.0000046  -0.0000081  -0.9103719   0.3597379
2.1236008    -0.9961341  -0.0034541  -0.0013792   0.0116454  -0.0000093  -0.0000004  -0.9098752   0.3606545
2.1497067    -0.9962110  -0.0034998  -0.0013824   0.0117673  -0.0000046  -0.0000022  -0.9093895   0.3616367
2.1761336    -0.9961277  -0.0036109  -0.0012984   0.0119018  -0.0000068  -0.0000094  -0.9089004   0.3624516
2.2028853    -0.9962262  -0.0035558  -0.0013161   0.0120596  -0.0000069  -0.0000036  -0.9082573   0.3634525
2.2299659    -0.9961794  -0.0037050  -0.0013315   0.0122067  -0.0000041  -0.0000103  -0.9079217   0.3643863
2.2573794    -0.9961732  -0.0037280  -0.0013751   0.0123540  -0.0000005   0.0000045  -0.9073349   0.3653268
2.2851299    -0.9961881  -0.0037070  -0.0013602   0.0124934  -0.0000203  -0.0000078  -0.9067572   0.3662666
2.3132216    -0.9962962  -0.0037966  -0.0013663   0.0126589  -0.0000061  -0.0000051  -0.9062437   0.3671181
2.3416586    -0.9961892  -0.0038870  -0.0013606   0.0127747   0.0000013  -0.0000147  -0.9056892   0.3680784
2.3704451    -0.9962651  -0.0038538  -0.0013340   0.0129462  -0.0000051  -0.0000091  -0.9051684   0.3691096
2.3995856    -0.9962328  -0.0038968  -0.0013477   0.0130811  -0.0000066  -0.0000082  -0.9045189   0.3700807
2.4290843    -0.9961697  -0.0039682  -0.0013290   0.0132451  -0.0000003  -0.0000136  -0.9041214   0.3709168
2.4589456    -0.9962094  -0.0040210  -0.0013231   0.0133999  -0.0000015  -0.0000055  -0.9035454   0.3719175
2.4891740    -0.9962196  -0.0042067  -0.0013162   0.0135394   0.0000065   0.0000046  -0.9030067   0.3729132
2.5197740    -0.9961468  -0.0042026  -0.0012759   0.0137136  -0.0000101  -0.0000049  -0.9025121   0.3739415
2.5507502    -0.9962716  -0.0041302  -0.0012758   0.0138489  -0.0000041   0.0000006  -0.9019500   0.3748543
2.5821072    -0.9962449  -0.0043128  -0.0012490   0.0140200   0.0000005  -0.0000009  -0.9013914   0.3758758
2.6138496    -0.9962353  -0.0042068  -0.0012790   0.0142316  -0.0000073  -0.0000027  -0.9007222   0.3768633
2.6459823    -0.9963070  -0.0044311  -0.0012658   0.0143621  -0.0000029   0.0000048  -0.9001987   0.3779199
2.6785100    -0.9963028  -0.0043956  -0.0012476   0.0145480  -0.0000082  -0.0000121  -0.8996597   0.3790409
2.7114376    -0.9961794  -0.0044982  -0.0012326   0.0147279  -0.0000063  -0.0000062  -0.8990225   0.3800620
2.7447699    -0.9961762  -0.0044908  -0.0012439   0.0148976   0.0000017  -0.0000063  -0.8984440   0.3810689
2.7785120    -0.9963199  -0.0044746  -0.0012090   0.0150730  -0.0000026  -0.0000068  -0.8978285   0.3821643
2.8126689    -0.9962595  -0.0046752  -0.0011937   0.0152402  -0.0000122   0.0000035  -0.8973122   0.3833147
2.8472457    -0.9963009  -0.0047190  -0.0011923   0.0154357  -0.0000035  -0.0000070  -0.8967607   0.3844286
2.8822476    -0.9962278  -0.0047635  -0.0011932   0.0155906   0.0000060   0.0000022  -0.8961782   0.3855124
2.9176798    -0.9961802  -0.0047697  -0.0011895   0.0157902  -0.0000007  -0.0000141  -0.8955195   0.3866086
2.9535475    -0.9962504  -0.0048223  -0.0011981   0.0160041  -0.0000058  -0.0000054  -0.8949483   0.3878070
2.9898562    -0.9963011  -0.0048460  -0.0011429   0.0161718  -0.0000028  -0.0000049  -0.8942470   0.3890268
3.0266112    -0.9962789  -0.0049496  -0.0011278   0.0163355  -0.0000014  -0.0000102  -0.8936296   0.3901293
3.0638180    -0.9962424  -0.0050558  -0.0011258   0.0165396  -0.0000027  -0.0000106  -0.8929854   0.3913348
3.1014823    -0.9962922  -0.0051129  -0.0011519   0.0167573   0.0000122   0.0000001  -0.8923790   0.3926033
3.1396096    -0.9962903  -0.0051721  -0.0011241   0.0169478   0.0000007  -0.0000151  -0.8916534   0.3937399
3.1782055    -0.9963460  -0.0053838  -0.0010797   0.0171600  -0.0000052  -0.0000060  -0.8910269   0.3950064
3.2172760    -0.9962074  -0.0052793  -0.0010796   0.0173596  -0.0000021  -0.0000025  -0.8903442   0.3962763
3.2568267    -0.9963773  -0.0054239  -0.0010700   0.0175781   0.0000000   0.0000010  -0.8897056   0.3975141
3.2968637    -0.9963194  -0.0053485  -0.0010527   0.0177376   0.0000079  -0.0000071  -0.8889123   0.3988380
3.3373928    -0.9963378  -0.0055375  -0.0010601   0.0179750  -0.0000055  -0.0000043  -0.8882090   0.4000991
3.3784202    -0.9962573  -0.0056243  -0.0010343   0.0181874   0.0000017  -0.0000115  -0.8874257   0.4014749
3.4199519    -0.9963275  -0.0056160  -0.0009981   0.0184019  -0.0000018  -0.0000072  -0.8867184   0.4027799
3.4619942    -0.9963318  -0.0057081  -0.0009936   0.0185729   0.0000094  -0.0000015  -0.8859021   0.4040620
3.5045533    -0.9962394  -0.0056783  -0.0009817   0.0188361  -0.0000130  -0.0000043  -0.8851955   0.4055343
3.5476356    -0.9962695  -0.0058216  -0.0009671   0.0190654  -0.0000032  -0.0000072  -0.8844131   0.4068135
3.5912475    -0.9963126  -0.0058209  -0.0009404   0.0192613   0.0000050  -0.0000068  -0.8835820   0.4081858
3.6353956    -0.9962768  -0.0060140  -0.0009234   0.0195148  -0.0000033   0.0000033  -0.8828196   0.4096963
3.6800864    -0.9963597  -0.0060152  -0.0009464   0.0197694  -0.0000019  -0.0000012  -0.8820544   0.4111741
3.7253266    -0.9963174  -0.0061366  -0.0008909   0.0199444  -0.0000012   0.0000029  -0.8812237   0.4125975
3.7711229    -0.9962811  -0.0061572  -0.0009177   0.0201953   0.0000036  -0.0000073  -0.8804596   0.4140384
3.8174822    -0.9962400  -0.0063233  -0.0008975   0.0204269   0.0000054  -0.0000037  -0.8795996   0.4154965
3.8644115    -0.9964474  -0.0063942  -0.0008581   0.0206754  -0.0000027  -0.0000005  -0.8788628   0.4170898
3.9119176    -0.9963046  -0.0063860  -0.0008306   0.0209286   0.0000050  -0.0000047  -0.8780034   0.4186069
3.9600077    -0.9962539  -0.0065133  -0.0008324   0.0211784  -0.0000003  -0.0000106  -0.8772529   0.4201030
4.0086890    -0.9962455  -0.0065541  -0.0008193   0.0214351  -0.0000001  -0.0000011  -0.8762245   0.4216955
4.0579688    -0.9962315  -0.0066748  -0.0008272   0.0216795   0.0000105  -0.0000087  -0.8753939   0.4232443
4.1078544    -0.9963122  -0.0067196  -0.0008106   0.0219235   0.0000009  -0.0000062  -0.8745147   0.4247613
4.1583532    -0.9963369  -0.0067953  -0.0007795   0.0221758  -0.0000076  -0.0000134  -0.8735491   0.4263804
4.2094729    -0.9962675  -0.0068900  -0.0007711   0.0224441  -0.0000130  -0.0000085  -0.8727399   0.4279787
4.2612209    -0.9962771  -0.0070845  -0.0007552   0.0227225   0.0000049  -0.0000003  -0.8717528   0.4295703
4.3136051    -0.9963122  -0.0071132  -0.0007497   0.0229727   0.0000094  -0.0000038  -0.8707551   0.4312195
4.3666333    -0.9963977  -0.0072760  -0.0007136   0.0232506  -0.0000042  -0.0000094  -0.8698497   0.4329018
4.4203134    -0.9964191  -0.0071588  -0.0006875   0.0234981  -0.0000094  -0.0000055  -0.8687537   0.4345216
4.4746534    -0.9962421  -0.0073486  -0.0006908   0.0238024  -0.0000100  -0.0000040  -0.8676684   0.4362446
4.5296613    -0.9963797  -0.0074306  -0.0006970   0.0240808  -0.0000140  -0.0000062  -0.8666960   0.4379928
4.5853455    -0.9963367  -0.0075650  -0.0006718   0.0243470   0.0000126  -0.0000056  -0.8655878   0.4397037
4.6417143    -0.9964316  -0.0075921  -0.0006319   0.0246499   0.0000038  -0.0000010  -0.8644354   0.4412928
4.6987760    -0.9963090  -0.0076618  -0.0006285   0.0249244  -0.0000146  -0.0000077  -0.8633619   0.4429503
4.7565392    -0.9962185  -0.0077669  -0.0006170   0.0252000  -0.0000048  -0.0000118  -0.8622112   0.4446939
4.8150125    -0.9962751  -0.0079747  -0.0006143   0.0255172   0.0000012  -0.0000054  -0.8610678   0.4463435
4.8742045    -0.9963432  -0.0080847  -0.0005807   0.0258091   0.0000013  -0.0000100  -0.8598778   0.4479819
4.9341243    -0.9962890  -0.0080694  -0.0005526   0.0261227  -0.0000079  -0.0000109  -0.8588102   0.4494953
4.9947807    -0.9963262  -0.0081935  -0.0005288   0.0264269  -0.0000006  -0.0000013  -0.8578174   0.4510817
5.0561827    -0.9963699  -0.0083399  -0.0005076   0.0267498  -0.0000007  -0.0000055  -0.8568059   0.4527803
5.1183396    -0.9963128  -0.0084730  -0.0005102   0.0270382   0.0000014  -0.0000067  -0.8558557   0.4544847
5.1812606    -0.9962574  -0.0086146  -0.0004835   0.0273406   0.0000041   0.0000007  -0.8549632   0.4562606
5.2449550    -0.9963734  -0.0087163  -0.0004822   0.0277124  -0.0000038  -0.0000165  -0.8540537   0.4582926
5.3094325    -0.9963680  -0.0088023  -0.0004474   0.0280148  -0.0000002  -0.0000129  -0.8530595   0.4601084
5.3747026    -0.9963766  -0.0088344  -0.0004093   0.0283222  -0.0000032  -0.0000010  -0.8520304   0.4623129
5.4407751    -0.9962203  -0.0089013  -0.0003906   0.0286848   0.0000050  -0.0000045  -0.8508710   0.4642557
5.5076599    -0.9964827  -0.0090456  -0.0003838   0.0290322  -0.0000117  -0.0000096  -0.8497691   0.4663224
5.5753669    -0.9963737  -0.0092269  -0.0003573   0.0293445   0.0000046  -0.0000046  -0.8485973   0.4684798
5.6439062    -0.9963806  -0.0093488  -0.0003200   0.0296996   0.0000020  -0.0000020  -0.8474325   0.4705647
5.7132881    -0.9962600  -0.0093806  -0.0003084   0.0300653  -0.0000053  -0.0000021  -0.8461542   0.4727491
5.7835229    -0.9963470  -0.0094999  -0.0002932   0.0304013   0.0000120  -0.0000015  -0.8448744   0.4749231
5.8546211    -0.9963615  -0.0096209  -0.0002956   0.0307466   0.0000019  -0.0000059  -0.8436650   0.4771559
5.9265934    -0.9963365  -0.0097837  -0.0002671   0.0311438   0.0000031  -0.0000032  -0.8422969   0.4793258
5.9994504    -0.9963093  -0.0098710  -0.0002527   0.0314921  -0.0000047  -0.0000054  -0.8409209   0.4814409
6.0732031    -0.9963334  -0.0099972  -0.0002469   0.0318423  -0.0000113  -0.0000100  -0.8395623   0.4836481
6.1478624    -0.9963552  -0.0100794  -0.0002105   0.0322339   0.0000063  -0.0000045  -0.8381859   0.4858738
6.2234396    -0.9963148  -0.0102836  -0.0001952   0.0326205  -0.0000013  -0.0000036  -0.8366054   0.4881844
6.2999458    -0.9964350  -0.0104349  -0.0001691   0.0330044  -0.0000015  -0.0000074  -0.8352632   0.4904485
6.3773925    -0.9963660  -0.0105329  -0.0001497   0.0333905  -0.0000065  -0.0000109  -0.8337530   0.4927246
6.4557914    -0.9964083  -0.0106201  -0.0001374   0.0337975   0.0000019  -0.0000044  -0.8322471   0.4949631
6.5351539    -0.9963483  -0.0107930  -0.0001008   0.0341841  -0.0000016   0.0000001  -0.8307492   0.4973691
6.6154922    -0.9964210  -0.0108702  -0.0000914   0.0345483   0.0000017  -0.0000067  -0.8291662   0.4997310
6.6968180    -0.9964527  -0.0110180  -0.0000755   0.0350235  -0.0000013  -0.0000054  -0.8275994   0.5021189
6.7791436    -0.9963408  -0.0111899  -0.0000605   0.0354168  -0.0000036  -0.0000061  -0.8260330   0.5044637
6.8624812    -0.9963200  -0.0114542  -0.0000525   0.0358176  -0.0000017  -0.0000108  -0.8244187   0.5069328
6.9468433    -0.9963517  -0.0115372  -0.0000171   0.0362639  -0.0000075   0.0000006  -0.8228260   0.5093485
7.0322425    -0.9964912  -0.0116415   0.0000383   0.0367202  -0.0000001  -0.0000017  -0.8211146   0.5118158
7.1186916    -0.9963507  -0.0117075   0.0000659   0.0371750   0.0000055  -0.0000068  -0.8194095   0.5143454
7.2062034    -0.9963640  -0.0118505   0.0000688   0.0375771  -0.0000054  -0.0000028  -0.8176992   0.5169044
7.2947909    -0.9963608  -0.0120739   0.0001364   0.0379999  -0.0000060  -0.0000003  -0.8159561   0.5194736
7.3844675    -0.9963442  -0.0121911   0.0001650   0.0384997  -0.0000109  -0.0000018  -0.8142863   0.5220747
7.4752466    -0.9964021  -0.0123292   0.0001394   0.0389329   0.0000062  -0.0000064  -0.8124937   0.5246904
7.5671416    -0.9963464  -0.0124142   0.0001667   0.0394195  -0.0000101   0.0000033  -0.8107805   0.5273408
7.6601662    -0.9963934  -0.0126094   0.0002142   0.0398870  -0.0000032  -0.0000058  -0.8089321   0.5300260
7.7543345    -0.9964650  -0.0127721   0.0002070   0.0403028  -0.0000011  -0.0000027  -0.8070409   0.5328550
7.8496604    -0.9963777  -0.0129092   0.0002724   0.0407969  -0.0000081  -0.0000079  -0.8052010   0.5356596
7.9461581    -0.9965057  -0.0130371   0.0003143   0.0412897  -0.0000041  -0.0000001  -0.8031845   0.5385086
8.0438422    -0.9963514  -0.0133679   0.0002942   0.0418077  -0.0000019   0.0000034  -0.8012046   0.5413537
8.1427270    -0.9964539  -0.0134505   0.0003062   0.0422643   0.0000042   0.0000010  -0.7990345   0.5443276
8.2428275    -0.9963967  -0.0134848   0.0003607   0.0427891   0.0000016   0.0000028  -0.7968067   0.5471867
8.3441586    -0.9964273  -0.0137107   0.0003881   0.0432950  -0.0000017   0.0000017  -0.7946318   0.5499687
8.4467353    -0.9964085  -0.0139325   0.0004038   0.0437768   0.0000085  -0.0000037  -0.7923743   0.5529673
8.5505731    -0.9963886  -0.0140794   0.0004352   0.0443109   0.0000036  -0.0000037  -0.7900742   0.5557386
8.6556873    -0.9962698  -0.0143190   0.0004587   0.0448336   0.0000022  -0.0000069  -0.7877981   0.5586649
8.7620937    -0.9963608  -0.0144337   0.0004707   0.0453699  -0.0000146  -0.0000022  -0.7855033   0.5615264
8.8698082    -0.9965007  -0.0147315   0.0004897   0.0459060   0.0000006  -0.0000076  -0.7831491   0.5644380
8.9788469    -0.9963529  -0.0147727   0.0005416   0.0464765   0.0000057  -0.0000060  -0.7808526   0.5673655
9.0892260    -0.9963614  -0.0149538   0.0005777   0.0470174  -0.0000017  -0.0000065  -0.7784899   0.5703176
9.2009621    -0.9964268  -0.0152340   0.0005889   0.0475667  -0.0000012  -0.0000011  -0.7759998   0.5733714
9.3140717    -0.9964101  -0.0153976   0.0006277   0.0481350   0.0000038   0.0000058  -0.7735743   0.5763568
9.4285718    -0.9963737  -0.0154080   0.0006530   0.0487210  -0.0000053  -0.0000121  -0.7711036   0.5794398
9.5444795    -0.9963638  -0.0157704   0.0006894   0.0492841  -0.0000082   0.0000062  -0.7685506   0.5825374
9.6618121    -0.9963966  -0.0158989   0.0007435   0.0498674   0.0000018  -0.0000043  -0.7660223   0.5856292
9.7805870    -0.9965164  -0.0160998   0.0007507   0.0504299   0.0000009   0.0000032  -0.7634060   0.5888029
9.9008221    -0.9964823  -0.0163304   0.0007531   0.0510561   0.0000039  -0.0000012  -0.7607542   0.5920226
10.0225353   -0.9963293  -0.0165318   0.0008189   0.0516619  -0.0000049  -0.0000083  -0.7581033   0.5951324
10.1457447   -0.9963558  -0.0166241   0.0008521   0.0522776  -0.0000039  -0.0000058  -0.7553612   0.5984296
10.2704688   -0.9964212  -0.0168958   0.0009002   0.0528841  -0.0000041  -0.0000085  -0.7526769   0.6017045
10.3967261   -0.9964138  -0.0172130   0.0009032   0.0535315  -0.0000061  -0.0000066  -0.7498397   0.6050384
10.5245356   -0.9963635  -0.0173763   0.0009689   0.0541913  -0.0000079  -0.0000076  -0.7469667   0.6082174
10.6539162   -0.9964641  -0.0175471   0.0010068   0.0548474   0.0000029   0.0000029  -0.7440703   0.6115378
10.7848873   -0.9964187  -0.0177580   0.0010431   0.0555094   0.0000005  -0.0000063  -0.7411368   0.6149778
10.9174685   -0.9963957  -0.0180035   0.0010856   0.0561889  -0.0000070  -0.0000035  -0.7381281   0.6183689
11.0516796   -0.9964066  -0.0182021   0.0011135   0.0568301  -0.0000045   0.0000037  -0.7349763   0.6217995
11.1875405   -0.9962859  -0.0183868   0.0011681   0.0574844   0.0000009  -0.0000076  -0.7319551   0.6253218
11.3250716   -0.9963526  -0.0186792   0.0011985   0.0581645  -0.0000013  -0.0000002  -0.7288001   0.6287838
11.4642934   -0.9964538  -0.0188111   0.0012428   0.0588531  -0.0000070  -0.0000020  -0.7255736   0.6322627
11.6052267   -0.9963898  -0.0191373   0.0012621   0.0595728  -0.0000104  -0.0000051  -0.7223402   0.6358978
11.7478926   -0.9963715  -0.0192878   0.0013114   0.0602930  -0.0000036   0.0000009  -0.7190147   0.6394037
11.8923122   -0.9964268  -0.0194657   0.0013713   0.0610010   0.0000007   0.0000002  -0.7156511   0.6429700
12.0385073   -0.9963367  -0.0198233   0.0014331   0.0617200  -0.0000075  -0.0000003  -0.7121713   0.6466395
12.1864995   -0.9963755  -0.0199984   0.0014328   0.0624475  -0.0000044  -0.0000095  -0.7086981   0.6502674
12.3363111   -0.9964927  -0.0203274   0.0015054   0.0632325  -0.0000098  -0.0000015  -0.7052440   0.6539590
12.4879643   -0.9964541  -0.0206756   0.0015388   0.0639542  -0.0000047  -0.0000026  -0.7015574   0.6576797
12.6414818   -0.9964197  -0.0207965   0.0015693   0.0647597   0.0000050  -0.0000068  -0.6978449   0.6613944
12.7968866   -0.9963488  -0.0210761   0.0016208   0.0654926   0.0000019  -0.0000131  -0.6941116   0.6651428
12.9542018   -0.9963427  -0.0213275   0.0016822   0.0662974   0.0000027   0.0000004  -0.6903715   0.6689079
13.1134509   -0.9963490  -0.0215397   0.0016964   0.0670425  -0.0000100  -0.0000035  -0.6864955   0.6727020
13.2746577   -0.9963366  -0.0218842   0.0017615   0.0678380  -0.0000033  -0.0000037  -0.6825288   0.6765492
13.4378462   -0.9964270  -0.0221112   0.0018017   0.0686715   0.0000116  -0.0000093  -0.6785797   0.6805044
13.6030409   -0.9963375  -0.0224247   0.0018459   0.0694969   0.0000024  -0.0000091  -0.6744924   0.6843455
13.7702663   -0.9963980  -0.0226093   0.0018996   0.0703079  -0.0000078   0.0000053  -0.6703140   0.6882447
13.9395475   -0.9963527  -0.0228631   0.0019503   0.0711895  -0.0000009  -0.0000010  -0.6661352   0.6921232
14.1109097   -0.9963772  -0.0232169   0.0020006   0.0720342  -0.0000038  -0.0000051  -0.6618006   0.6961022
14.2843785   -0.9963639  -0.0234791   0.0020593   0.0728870   0.0000052   0.0000030  -0.6574447   0.7000021
14.4599797   -0.9963273  -0.0237870   0.0021406   0.0737999   0.0000036  -0.0000067  -0.6530176   0.7040575
14.6377397   -0.9962819  -0.0240722   0.0022008   0.0746943  -0.0000093  -0.0000076  -0.6485291   0.7080584
14.8176850   -0.9963857  -0.0243403   0.0022336   0.0755618  -0.0000131   0.0000027  -0.6439510   0.7120446
14.9998423   -0.9964115  -0.0246190   0.0023090   0.0764561  -0.0000022  -0.0000131  -0.6392536   0.7161155
15.1842390   -0.9963345  -0.0249642   0.0023771   0.0773715  -0.0000130   0.0000049  -0.6344815   0.7202062
15.3709024   -0.9963505  -0.0252211   0.0024564   0.0782997  -0.0000048   0.0000017  -0.6297241   0.7242485
15.5598606   -0.9963255  -0.0255185   0.0025307   0.0792139  -0.0000054  -0.0000108  -0.6248621   0.7283607
15.7511417   -0.9962509  -0.0259735   0.0025802   0.0801606   0.0000019  -0.0000063  -0.6198680   0.7325479
15.9447743   -0.9962916  -0.0261931   0.0026477   0.0811119   0.0000020  -0.0000005  -0.6148227   0.7366409
16.1407872   -0.9963188  -0.0264324   0.0027433   0.0820500  -0.0000153  -0.0000110  -0.6095775   0.7408179
16.3392097   -0.9963247  -0.0267762   0.0027796   0.0830574  -0.0000056   0.0000011  -0.6043237   0.7450111
16.5400716   -0.9963473  -0.0271944   0.0028349   0.0840551  -0.0000077   0.0000002  -0.5990279   0.7492048
16.7434026   -0.9963169  -0.0274988   0.0029402   0.0850789  -0.0000112  -0.0000024  -0.5935454   0.7533613
16.9492333   -0.9963575  -0.0278533   0.0029846   0.0861003   0.0000049   0.0000022  -0.5880423   0.7577115
17.1575942   -0.9963213  -0.0281444   0.0030733   0.0871427  -0.0000039   0.0000064  -0.5824226   0.7618352
17.3685166   -0.9962876  -0.0284501   0.0031330   0.0881888  -0.0000002   0.0000013  -0.5767305   0.7661086
17.5820320   -0.9962552  -0.0290203   0.0032254   0.0892548  -0.0000036  -0.0000010  -0.5708657   0.7702965
17.7981721   -0.9962475  -0.0292397   0.0033336   0.0902930  -0.0000008  -0.0000063  -0.5649477   0.7746078
18.0169693   -0.9962377  -0.0294802   0.0034144   0.0914421  -0.0000148   0.0000015  -0.5589829   0.7788677
18.2384562   -0.9961635  -0.0298584   0.0035165   0.0925089  -0.0000088  -0.0000066  -0.5528978   0.7832294
18.4626659   -0.9963133  -0.0302909   0.0036069   0.0935844   0.0000017  -0.0000043  -0.5466180   0.7874117
18.6896319   -0.9962537  -0.0306183   0.0036833   0.0947109  -0.0000066   0.0000047  -0.5403799   0.7916946
18.9193880   -0.9962908  -0.0311176   0.0037768   0.0958339  -0.0000040  -0.0000020  -0.5338648   0.7960754
19.1519686   -0.9962213  -0.0313747   0.0038623   0.0969813   0.0000009  -0.0000067  -0.5272533   0.8003731
19.3874083   -0.9962653  -0.0317357   0.0039378   0.0981483  -0.0000090  -0.0000072  -0.5205907   0.8046701
19.6257423   -0.9962875  -0.0322143   0.0040346   0.0993191  -0.0000034  -0.0000054  -0.5139282   0.8090026
19.8670063   -0.9962753  -0.0325725   0.0041722   0.1004934  -0.0000003  -0.0000053  -0.5070653   0.8132444
20.1112361   -0.9962055  -0.0329274   0.0042493   0.1017188   0.0000014   0.0000039  -0.5000667   0.8175503
20.3584684   -0.9962283  -0.0333756   0.0043319   0.1029814  -0.0000109  -0.0000031  -0.4928451   0.8218131
20.6087399   -0.9961286  -0.0338270   0.0044568   0.1041788   0.0000064  -0.0000074  -0.4856078   0.8260492
20.8620881   -0.9961428  -0.0341158   0.0045602   0.1054127  -0.0000070   0.0000015  -0.4781752   0.8303917
21.1185507   -0.9961636  -0.0346402   0.0046446   0.1067212  -0.0000055   0.0000029  -0.4706816   0.8346281
21.3781661   -0.9961094  -0.0350401   0.0047631   0.1080027  -0.0000035  -0.0000010  -0.4630449   0.8387695
21.6409730   -0.9961543  -0.0354186   0.0049397   0.1092142  -0.0000039  -0.0000078  -0.4552968   0.8429882
21.9070107   -0.9962107  -0.0358736   0.0050526   0.1103415  -0.0000070   0.0000040  -0.4474480   0.8472129
22.1763188   -0.9960715  -0.0362880   0.0051611   0.1117769  -0.0000040   0.0000040  -0.4393970   0.8514093
22.4489376   -0.9961631  -0.0367745   0.0052716   0.1132100  -0.0000043  -0.0000038  -0.4312338   0.8556008
22.7249077   -0.9960703  -0.0371338   0.0053676   0.1145261  -0.0000006  -0.0000028  -0.4229033   0.8597198
23.0042705   -0.9960927  -0.0376524   0.0054994   0.1158997  -0.0000025   0.0000032  -0.4144679   0.8638397
23.2870675   -0.9961090  -0.0381515   0.0056110   0.1172381  -0.0000063   0.0000051  -0.4059703   0.8679089
23.5733409   -0.9960819  -0.0385771   0.0057848   0.1187168  -0.0000101  -0.0000119  -0.3971808   0.8719871
23.8631337   -0.9960307  -0.0390376   0.0058618   0.1200952  -0.0000095   0.0000009  -0.3882574   0.8759217
24.1564889   -0.9960913  -0.0395567   0.0059932   0.1215094  -0.0000145   0.0000020  -0.3793041   0.8799030
24.4534504   -0.9960272  -0.0400104   0.0061750   0.1229931  -0.0000039  -0.0000033  -0.3701540   0.8837846
24.7540625   -0.9959703  -0.0405020   0.0063046   0.1244407  -0.0000011  -0.0000056  -0.3608652   0.8877116
25.0583701   -0.9958513  -0.0409985   0.0064607   0.1259841   0.0000015  -0.0000007  -0.3513553   0.8915770
25.3664186   -0.9959777  -0.0415969   0.0066091   0.1275733  -0.0000058  -0.0000061  -0.3416299   0.8953736
25.6782541   -0.9959795  -0.0419461   0.0067739   0.1290728   0.0000039  -0.0000031  -0.3318719   0.8991532
25.9939230   -0.9958524  -0.0425774   0.0069167   0.1306325  -0.0000041  -0.0000050  -0.3219447   0.9027781
26.3134725   -0.9958839  -0.0431564   0.0070800   0.1321121   0.0000036  -0.0000035  -0.3118192   0.9063520
26.6369503   -0.9959339  -0.0436083   0.0072161   0.1337562  -0.0000030  -0.0000139  -0.3015927   0.9099376
26.9644047   -0.9959486  -0.0440505   0.0074140   0.1353479   0.0000019   0.0000037  -0.2911556   0.9134289
27.2958846   -0.9959033  -0.0445832   0.0075784   0.1369959  -0.0000076   0.0000021  -0.2805167   0.9167797
27.6314394   -0.9959637  -0.0451473   0.0077531   0.1386309  -0.0000017  -0.0000051  -0.2698048   0.9201340
27.9711193   -0.9959030  -0.0457594   0.0079363   0.1402878   0.0000071  -0.0000031  -0.2588429   0.9232956
28.3149750   -0.9958814  -0.0462837   0.0080854   0.1419560   0.0000039  -0.0000051  -0.2477763   0.9264440
28.6630578   -0.9958859  -0.0468766   0.0082459   0.1436023  -0.0000087  -0.0000003  -0.2365017   0.9294491
29.0154196   -0.9958283  -0.0474876   0.0084676   0.1454036  -0.0000064  -0.0000030  -0.2250419   0.9323611
29.3721131   -0.9958040  -0.0480012   0.0086700   0.1471108   0.0000014  -0.0000039  -0.2134533   0.9351741
29.7331915   -0.9957107  -0.0486355   0.0089033   0.1488243  -0.0000054  -0.0000036  -0.2016027   0.9379710
30.0987087   -0.9957143  -0.0491595   0.0091089   0.1506105  -0.0000033   0.0000123  -0.1897006   0.9405994
30.4687194   -0.9957183  -0.0499054   0.0092967   0.1524321  -0.0000021  -0.0000058  -0.1775500   0.9431766
30.8432786   -0.9955947  -0.0503504   0.0095218   0.1543019  -0.0000102   0.0000030  -0.1652043   0.9454509
31.2224424   -0.9956749  -0.0509622   0.0097218   0.1560426   0.0000061   0.0000027  -0.1527992   0.9476807
31.6062674   -0.9956538  -0.0517205   0.0099663   0.1579299  -0.0000091  -0.0000072  -0.1400337   0.9498177
31.9948108   -0.9956267  -0.0522008   0.0102132   0.1597986   0.0000000   0.0000043  -0.1271896   0.9518871
32.3881306   -0.9956129  -0.0529287   0.0104701   0.1617162  -0.0000007  -0.0000042  -0.1141830   0.9537462
32.7862857   -0.9955560  -0.0535441   0.0106888   0.1637381  -0.0000070  -0.0000062  -0.1009629   0.9553778
33.1893353   -0.9956160  -0.0541542   0.0109419   0.1656656  -0.0000018  -0.0000006  -0.0875903   0.9570247
33.5973398   -0.9954881  -0.0548458   0.0111918   0.1675867   0.0000037  -0.0000116  -0.0740442   0.9583378
34.0103599   -0.9955498  -0.0555166   0.0114141   0.1695305  -0.0000011   0.0000036  -0.0602129   0.9594876
34.4284574   -0.9954825  -0.0561897   0.0114838   0.1716386  -0.0000075  -0.0000028  -0.0465159   0.9606917
34.8516946   -0.9955052  -0.0568295   0.0117901   0.1736242  -0.0000053   0.0000028  -0.0322434   0.9616950
35.2801349   -0.9954725  -0.0575852   0.0120744   0.1757106  -0.0000032  -0.0000036  -0.0177784   0.9624635
35.7138420   -0.9953264  -0.0582627   0.0123419   0.1778880  -0.0000069  -0.0000060  -0.0032039   0.9628964
36.1528808   -0.9952667  -0.0588528   0.0126101   0.1800204  -0.0000086  -0.0000063   0.0115347   0.9632563
36.5973168   -0.9952623  -0.0596457   0.0129336   0.1822102   0.0000000  -0.0000055   0.0264333   0.9633738
37.0472164   -0.9953065  -0.0604761   0.0132912   0.1843848  -0.0000010  -0.0000025   0.0415912   0.9631242
37.5026467   -0.9952006  -0.0611586   0.0136676   0.1865431   0.0000005  -0.0000051   0.0569194   0.9628974
37.9636757   -0.9951591  -0.0619136   0.0140739   0.1887641  -0.0000025  -0.0000048   0.0726387   0.9619464
38.4303722   -0.9951315  -0.0626654   0.0143400   0.1910520   0.0000012  -0.0000023   0.0881824   0.9611452
38.9028060   -0.9951485  -0.0634663   0.0146441   0.1932440   0.0000032   0.0000041   0.1040381   0.9599848
39.3810475   -0.9950374  -0.0642071   0.0150139   0.1955632  -0.0000019   0.0000034   0.1201362   0.9586652
39.8651681   -0.9950396  -0.0650006   0.0152965   0.1978079  -0.0000008   0.0000047   0.1362896   0.9569852
40.3552402   -0.9950777  -0.0656575   0.0156722   0.2003091   0.0000052   0.0000025   0.1527017   0.9550329
40.8513368   -0.9950327  -0.0666793   0.0160040   0.2026344  -0.0000009  -0.0000083   0.1693457   0.9526915
41.3535320   -0.9949534  -0.0673776   0.0163595   0.2049446  -0.0000069  -0.0000035   0.1860114   0.9501695
41.8619009   -0.9948867  -0.0682234   0.0167514   0.2073711  -0.0000012   0.0000013   0.2030277   0.9472720
42.3765193   -0.9948444  -0.0690647   0.0171226   0.2099219   0.0000010  -0.0000008   0.2201222   0.9440599
42.8974639   -0.9947436  -0.0697828   0.0175020   0.2123068  -0.0000026   0.0000052   0.2373514   0.9404513
43.4248127   -0.9947055  -0.0707168   0.0178811   0.2148371   0.0000010  -0.0000060   0.2547651   0.9366341
43.9586443   -0.9946895  -0.0715661   0.0183631   0.2174690   0.0000045  -0.0000092   0.2723270   0.9323410
44.4990385   -0.9946546  -0.0724328   0.0187707   0.2200115  -0.0000060   0.0000010   0.2900678   0.9276746
45.0460758   -0.9946601  -0.0733488   0.0191579   0.2226121   0.0000030   0.0000042   0.3079234   0.9226692
45.5998380   -0.9944900  -0.0741752   0.0195980   0.2252564  -0.0000014  -0.0000026   0.3258964   0.9172927
46.1604077   -0.9944584  -0.0751903   0.0200623   0.2279591  -0.0000057  -0.0000096   0.3439905   0.9114112
46.7278686   -0.9943928  -0.0760329   0.0204878   0.2305093  -0.0000078  -0.0000061   0.3622095   0.9051561
47.3023055   -0.9943510  -0.0769072   0.0209678   0.2333166  -0.0000035   0.0000063   0.3805383   0.8984954
47.8838040   -0.9941643  -0.0779597   0.0213928   0.2361105   0.0000035  -0.0000116   0.3990787   0.8913030
48.4724511   -0.9942457  -0.0788288   0.0218845   0.2388981  -0.0000043   0.0000037   0.4175483   0.8837820
49.0683345   -0.9941626  -0.0798610   0.0222896   0.2417164  -0.0000065   0.0000016   0.4362200   0.8757527
49.6715433   -0.9940003  -0.0807773   0.0227871   0.2446119  -0.0000056  -0.0000091   0.4548566   0.8672616
50.2821675   -0.9938932  -0.0817814   0.0233124   0.2475109  -0.0000049  -0.0000026   0.4737366   0.8581977
50.9002982   -0.9939110  -0.0827971   0.0237690   0.2503955  -0.0000001  -0.0000023   0.4925113   0.8486204
51.5260277   -0.9938921  -0.0838862   0.0242555   0.2534437   0.0000016  -0.0000145   0.5114078   0.8386844
52.1594495   -0.9937668  -0.0848481   0.0247466   0.2565642   0.0000007  -0.0000111   0.5302185   0.8281260
52.8006581   -0.9936806  -0.0858548   0.0252055   0.2595794   0.0000019  -0.0000070   0.5491565   0.8169084
53.4497492   -0.9936042  -0.0869330   0.0260039   0.2627831   0.0000038  -0.0000035   0.5682259   0.8053365
54.1068198   -0.9935860  -0.0879793   0.0266851   0.2661041   0.0000014  -0.0000070   0.5870810   0.7931806
54.7719678   -0.9935179  -0.0889973   0.0273965   0.2694691  -0.0000080  -0.0000108   0.6059003   0.7804755
55.4452927   -0.9934089  -0.0902383   0.0279934   0.2722544  -0.0000031   0.0000036   0.6248029   0.7668483
56.1268950   -0.9932879  -0.0912631   0.0285939   0.2756218  -0.0000012  -0.0000006   0.6436129   0.7528409
56.8168763   -0.9932113  -0.0923558   0.0293200   0.2789513  -0.0000113  -0.0000002   0.6623330   0.7382715
57.5153398   -0.9930935  -0.0933854   0.0301123   0.2822404  -0.0000006  -0.0000099   0.6809259   0.7230836
58.2223896   -0.9930583  -0.0945656   0.0309243   0.2855874   0.0000062  -0.0000063   0.6993919   0.7071741
58.9381314   -0.9928503  -0.0957532   0.0317383   0.2888931   0.0000077  -0.0000018   0.7177304   0.6906869
59.6626719   -0.9928592  -0.0969230   0.0324448   0.2921022   0.0000018  -0.0000044   0.7358872   0.6734457
60.3961194   -0.9927501  -0.0980725   0.0332186   0.2956732  -0.0000076  -0.0000076   0.7539451   0.6555725
61.1385834   -0.9925701  -0.0993322   0.0339020   0.2992101   0.0000077  -0.0000151   0.7717916   0.6369847
61.8901746   -0.9925198  -0.1004757   0.0347480   0.3026198  -0.0000007  -0.0000055   0.7892939   0.6177425
62.6510053   -0.9924439  -0.1016997   0.0355872   0.3062555  -0.0000042  -0.0000129   0.8065969   0.5978861
63.4211891   -0.9922420  -0.1030221   0.0363787   0.3098878  -0.0000005   0.0000010   0.8236544   0.5771804
64.2008409   -0.9921019  -0.1042022   0.0372160   0.3137322  -0.0000013  -0.0000071   0.8403290   0.5559154
64.9900772   -0.9920456  -0.1055320   0.0381621   0.3173956   0.0000060  -0.0000039   0.8567017   0.5338548
65.7890158   -0.9918424  -0.1068144   0.0391995   0.3213210   0.0000066  -0.0000067   0.8726612   0.5111127
66.5977759   -0.9917351  -0.1080788   0.0402560   0.3250789  -0.0000110   0.0000004   0.8881822   0.4875516
67.4164783   -0.9916583  -0.1094426   0.0413246   0.3287496   0.0000024  -0.0000098   0.9034119   0.4632958
68.2452452   -0.9915544  -0.1107029   0.0423839   0.3325082  -0.0000016  -0.0000030   0.9180764   0.4384124
69.0842003   -0.9914113  -0.1120647   0.0433914   0.3363352  -0.0000021  -0.0000152   0.9322427   0.4127304
69.9334689   -0.9913365  -0.1133452   0.0447324   0.3403541  -0.0000106  -0.0000085   0.9455765   0.3863505
70.7931778   -0.9910011  -0.1147199   0.0462478   0.3442964   0.0000082  -0.0000021   0.9591080   0.3591561
71.6634552   -0.9908865  -0.1162139   0.0468361   0.3480612  -0.0000035  -0.0000070   0.9716677   0.3310241
72.5444312   -0.9906984  -0.1176670   0.0477345   0.3518485   0.0000123   0.0000005   0.9836817   0.3023485
73.4362373   -0.9904721  -0.1190988   0.0481956   0.3556623  -0.0000012  -0.0000107   0.9948434   0.2729349
74.3390065   -0.9905633  -0.1204281   0.0498216   0.3604013   0.0000080  -0.0000129   1.0046945   0.2431284
75.2528737   -0.9902775  -0.1220206   0.0512918   0.3647805  -0.0000040  -0.0000102   1.0143737   0.2123149
76.1779753   -0.9901612  -0.1234492   0.0525546   0.3687548  -0.0000051  -0.0000124   1.0232854   0.1808396
77.1144493   -0.9899887  -0.1248978   0.0540174   0.3732498  -0.0000026  -0.0000045   1.0313023   0.1486103
78.0624357   -0.9897866  -0.1265065   0.0554629   0.3775846  -0.0000029  -0.0000080   1.0384154   0.1157628
79.0220759   -0.9895303  -0.1280297   0.0567818   0.3816822   0.0000002  -0.0000036   1.0445212   0.0821697
79.9935132   -0.9894487  -0.1295191   0.0581739   0.3859820   0.0000041  -0.0000131   1.0496229   0.0480313
80.9768926   -0.9891190  -0.1310732   0.0595557   0.3904300  -0.0000064  -0.0000116   1.0537186   0.0132410
81.9723609   -0.9888218  -0.1328426   0.0609181   0.3948821   0.0000053  -0.0000071   1.0567157  -0.0222640
82.9800667   -0.9888209  -0.1342850   0.0623866   0.3992413  -0.0000016  -0.0000180   1.0586042  -0.0582525
84.0001605   -0.9886426  -0.1358746   0.0638749   0.4040459   0.0000053  -0.0000160   1.0593000  -0.0947391
85.0327946   -0.9882550  -0.1376659   0.0656688   0.4086956   0.0000022  -0.0000081   1.0586965  -0.1319093
86.0781231   -0.9881174  -0.1392875   0.0672778   0.4131545   0.0000029  -0.0000101   1.0568105  -0.1694968
87.1363020   -0.9878610  -0.1410265   0.0691471   0.4179559   0.0000048  -0.0000041   1.0536046  -0.2074041
88.2074894   -0.9876166  -0.1428149   0.0708905   0.4223799  -0.0000051  -0.0000155   1.0489040  -0.2458368
89.2918452   -0.9873550  -0.1445564   0.0726540   0.4274150  -0.0000005  -0.0000021   1.0430306  -0.2849234
90.3895312   -0.9871122  -0.1461575   0.0742575   0.4315270  -0.0000024  -0.0000180   1.0355088  -0.3237174
91.5007114   -0.9868238  -0.1479718   0.0763554   0.4364450  -0.0000084  -0.0000163   1.0264270  -0.3630294
92.6255515   -0.9865111  -0.1497412   0.0780649   0.4412642  -0.0000034  -0.0000041   1.0155656  -0.4024850
93.7642195   -0.9862740  -0.1514481   0.0798325   0.4457080  -0.0000052  -0.0000188   1.0031624  -0.4420937
94.9168855   -0.9859747  -0.1534957   0.0817247   0.4510497  -0.0000125  -0.0000104   0.9892346  -0.4818269
96.0837215   -0.9856699  -0.1553471   0.0837253   0.4558796  -0.0000039  -0.0000178   0.9734644  -0.5215695
97.2649017   -0.9854423  -0.1573359   0.0858422   0.4608937  -0.0000004  -0.0000104   0.9559370  -0.5609835
98.4606024   -0.9851070  -0.1590722   0.0879541   0.4657967  -0.0000038  -0.0000064   0.9365502  -0.6005025
99.6710021   -0.9847324  -0.1611226   0.0899348   0.4706173  -0.0000145  -0.0000062   0.9153443  -0.6396754
100.8962816  -0.9843947  -0.1630621   0.0920340   0.4756897  -0.0000102  -0.0000124   0.8922365  -0.6784421
102.1366237  -0.9840348  -0.1649644   0.0940638   0.4806868   0.0000052  -0.0000179   0.8671283  -0.7166929
103.3922136  -0.9836234  -0.1668799   0.0963646   0.4864499  -0.0000096  -0.0000112   0.8401955  -0.7544722
104.6632389  -0.9831362  -0.1689039   0.0988777   0.4912672  -0.0000105  -0.0000055   0.8113415  -0.7912682
105.9498891  -0.9827316  -0.1704354   0.1014364   0.4933549  -0.0000069  -0.0000089   0.7803574  -0.8250929
107.2523564  -0.9832530  -0.1736309   0.1042627   0.5038789  -0.0000016  -0.0000085   0.7458400  -0.8653272
108.5708353  -0.9827765  -0.1755404   0.1075571   0.5097626  -0.0000106  -0.0000041   0.7121824  -0.8993932
109.9055225  -0.9806010  -0.1769084   0.1099848   0.5082754   0.0000076  -0.0000064   0.6774515  -0.9319120
111.2566174  -0.9814077  -0.1793594   0.1119217   0.5172924  -0.0000017  -0.0000120   0.6366632  -0.9623526
112.6243216  -0.9810814  -0.1816524   0.1147114   0.5234677   0.0000017  -0.0000150   0.5956314  -0.9930429
114.0088393  -0.9807535  -0.1837509   0.1172669   0.5286384  -0.0000127  -0.0000032   0.5528684  -1.0220177
115.4103773  -0.9802700  -0.1861228   0.1200371   0.5344248  -0.0000076  -0.0000214   0.5080600  -1.0493846
116.8291446  -0.9798866  -0.1882545   0.1227197   0.5402019   0.0000125  -0.0000049   0.4616156  -1.0748125
118.2653533  -0.9794089  -0.1905652   0.1256405   0.5456453  -0.0000004  -0.0000118   0.4131618  -1.0983546
119.7192175  -0.9790692  -0.1928638   0.1282544   0.5510279  -0.0000147  -0.0000006   0.3630310  -1.1198741
121.1909545  -0.9784304  -0.1952521   0.1311406   0.5570242  -0.0000096  -0.0000137   0.3112472  -1.1389094
122.6807839  -0.9778391  -0.1976452   0.1340834   0.5633405  -0.0000186  -0.0000183   0.2578829  -1.1556283
124.1889281  -0.9773579  -0.1999802   0.1373038   0.5695897   0.0000025  -0.0000021   0.2030196  -1.1697805
125.7156123  -0.9769186  -0.2024918   0.1395486   0.5749597  -0.0000108  -0.0000053   0.1468018  -1.1813263
127.2610644  -0.9762172  -0.2047586   0.1444688   0.5819388  -0.0000061  -0.0000096   0.0899457  -1.1898236
128.8255151  -0.9756993  -0.2073082   0.1475837   0.5884934  -0.0000125  -0.0000101   0.0310541  -1.1954536
130.4091980  -0.9751293  -0.2099600   0.1516709   0.5945641  -0.0000132  -0.0000125  -0.0282397  -1.1979713
132.0123495  -0.9742997  -0.2125367   0.1558842   0.6011502  -0.0000062  -0.0000027  -0.0885005  -1.1971293
133.6352088  -0.9740126  -0.2148673   0.1601963   0.6074447  -0.0000239  -0.0000059  -0.1491135  -1.1931309
135.2780184  -0.9734497  -0.2176265   0.1642109   0.6128682  -0.0000031  -0.0000057  -0.2103454  -1.1854267
136.9410235  -0.9727100  -0.2204214   0.1684149   0.6188170  -0.0000093  -0.0000137  -0.2717939  -1.1740384
138.6244722  -0.9719903  -0.2229665   0.1731298   0.6257166  -0.0000096  -0.0000023  -0.3330388  -1.1591738
140.3286160  -0.9712945  -0.2256774   0.1774624   0.6317492  -0.0000127  -0.0000127  -0.3943408  -1.1406394
142.0537093  -0.9697896  -0.2287302   0.1820581   0.6384755  -0.0000183  -0.0000196  -0.4577303  -1.1193078
143.8000095  -0.9701837  -0.2305158   0.1871911   0.6437538  -0.0000058   0.0000000  -0.5114804  -1.0920313
145.5677774  -0.9706364  -0.2339932   0.1912936   0.6525731   0.0000058  -0.0000122  -0.5686752  -1.0596310
147.3572769  -0.9683737  -0.2368339   0.1959501   0.6569489  -0.0000021  -0.0000169  -0.6296031  -1.0274029
149.1687752  -0.9676924  -0.2395416   0.2010083   0.6636847   0.0000015  -0.0000091  -0.6842854  -0.9897038
151.0025426  -0.9670542  -0.2423448   0.2061460   0.6703045  -0.0000053  -0.0000193  -0.7376444  -0.9478988
152.8588530  -0.9661357  -0.2455555   0.2111022   0.6768522  -0.0000013  -0.0000092  -0.7884430  -0.9023780
154.7379834  -0.9652035  -0.2483617   0.2163826   0.6838156  -0.0000086  -0.0000110  -0.8368112  -0.8532143
156.6402144  -0.9644060  -0.2513543   0.2221051   0.6915667  -0.0000084  -0.0000061  -0.8822036  -0.8005717
158.5658301  -0.9636501  -0.2544794   0.2277470   0.6984012  -0.0000037   0.0000147  -0.9241073  -0.7445390
160.5151177  -0.9630281  -0.2572688   0.2339545   0.7052298   0.0000014  -0.0000065  -0.9630209  -0.6849737
162.4883685  -0.9615689  -0.2616599   0.2395864   0.7159234   0.0000013  -0.0000028  -0.9967976  -0.6237559
164.4858769  -0.9609300  -0.2639540   0.2459501   0.7204753   0.0000046  -0.0000033  -1.0278789  -0.5582318
166.5079411  -0.9599555  -0.2669590   0.2521168   0.7277913  -0.0000070  -0.0000102  -1.0539276  -0.4910024
168.5548630  -0.9591138  -0.2703976   0.2584419   0.7355985  -0.0000107   0.0000016  -1.0755896  -0.4214285
170.6269483  -0.9579569  -0.2736290   0.2651448   0.7433861  -0.0000006  -0.0000172  -1.0920161  -0.3500769
172.7245062  -0.9569983  -0.2771637   0.2720559   0.7509505   0.0000046  -0.0000030  -1.1035268  -0.2774294
174.8478498  -0.9557858  -0.2803998   0.2793052   0.7600476   0.0000061  -0.0000036  -1.1094082  -0.2032648
176.9972963  -0.9549600  -0.2840726   0.2869045   0.7689763   0.0000235  -0.0000062  -1.1102204  -0.1277967
179.1731664  -0.9537761  -0.2895725   0.2953619   0.7813743  -0.0000187  -0.0000088  -1.1019377  -0.0580540
181.3757850  -0.9540254  -0.2909344   0.3065335   0.7813591  -0.0000020  -0.0000058  -1.0923748   0.0172629
183.6054809  -0.9516818  -0.2948964   0.3110854   0.7925512  -0.0000115  -0.0000014  -1.0773858   0.0954521
185.8625870  -0.9508530  -0.2985201   0.3195969   0.7987635  -0.0000271  -0.0000083  -1.0548059   0.1676861
188.1474402  -0.9499352  -0.3022253   0.3277086   0.8055726  -0.0000045  -0.0000041  -1.0266452   0.2388777
190.4603817  -0.9483467  -0.3043129   0.3338737   0.8116487  -0.0000241  -0.0000166  -0.9928692   0.3077410
192.8017567  -0.9423392  -0.3111585   0.3366905   0.8238570   0.0000113  -0.0000080  -0.9528826   0.3737659
195.1719148  -0.9436179  -0.3224882   0.3459295   0.8374310  -0.0000411   0.0000164  -0.9079903   0.4365081
197.5712099  -0.9567827  -0.3319571   0.3574869   0.8535703   0.0000064  -0.0000064  -0.8584258   0.4960860
200.0000000  -0.9652290  -0.3140354   0.3795118   0.8602881  -0.0000129  -0.0000066  -0.8026131   0.5505821
