! ListType=Log
# MHZ S RI R 50
0.0010000    -0.9949011  -0.0004430   0.0000256  -0.0000139  -0.0000115  -0.0000299  -0.9088780   0.2599563
0.0010123    -0.9962977   0.0003325  -0.0000544  -0.0000047   0.0000121  -0.0000287  -0.9094622   0.2603417
0.0010247    -0.9942589  -0.0016941   0.0000199   0.0000144  -0.0000157   0.0000266  -0.9095897   0.2591301
0.0010373    -0.9952117   0.0000543  -0.0000043  -0.0000174  -0.0000085  -0.0000056  -0.9097936   0.2598523
0.0010501    -0.9939884   0.0009007   0.0000553   0.0000106  -0.0000136  -0.0000118  -0.9091506   0.2596915
0.0010630    -0.9958005   0.0001074   0.0000135   0.0000284   0.0000229   0.0000125  -0.9105505   0.2595735
0.0010761    -0.9947516  -0.0013177   0.0000845   0.0000053  -0.0000149   0.0000095  -0.9107037   0.2587981
0.0010893    -0.9957448   0.0006070   0.0000067  -0.0000278   0.0000198  -0.0000037  -0.9110865   0.2599258
0.0011027    -0.9952709  -0.0003026   0.0000118  -0.0000045   0.0000030  -0.0000187  -0.9110775   0.2587990
0.0011162    -0.9957467  -0.0017733   0.0000354  -0.0000467  -0.0000056   0.0000030  -0.9120701   0.2584382
0.0011300    -0.9944270  -0.0003675   0.0000251  -0.0000084  -0.0000259  -0.0000173  -0.9112969   0.2587179
0.0011439    -0.9961090   0.0003939   0.0000488   0.0000226   0.0000190  -0.0000020  -0.9120502   0.2590832
0.0011579    -0.9944253  -0.0010864   0.0000331  -0.0000272  -0.0000080   0.0000011  -0.9120575   0.2578675
0.0011721    -0.9952610  -0.0000279   0.0000458  -0.0000188   0.0000114  -0.0000118  -0.9124015   0.2585311
0.0011866    -0.9939746   0.0000721  -0.0000003  -0.0000344  -0.0000454  -0.0000152  -0.9122040   0.2582435
0.0012011    -0.9950733   0.0000932   0.0000208   0.0000132  -0.0000151   0.0000003  -0.9128818   0.2582597
0.0012159    -0.9963545  -0.0001394   0.0000020  -0.0000088   0.0000208   0.0000031  -0.9136437   0.2584854
0.0012309    -0.9951452  -0.0010863   0.0000463  -0.0000200   0.0000094   0.0000109  -0.9137401   0.2577885
0.0012460    -0.9945511   0.0005597   0.0000026  -0.0000083  -0.0000062  -0.0000060  -0.9134154   0.2581256
0.0012613    -0.9961401  -0.0010161   0.0000317  -0.0000101   0.0000269  -0.0000021  -0.9147353   0.2579363
0.0012768    -0.9947322  -0.0004552  -0.0000078  -0.0000153  -0.0000207   0.0000053  -0.9141770   0.2576231
0.0012925    -0.9959918   0.0001913  -0.0000082  -0.0000403   0.0000140   0.0000076  -0.9151106   0.2580592
0.0013084    -0.9947403  -0.0006449   0.0000168  -0.0000165  -0.0000049   0.0000097  -0.9149123   0.2575421
0.0013245    -0.9962080   0.0001788  -0.0000103   0.0000072   0.0000181  -0.0000016  -0.9155488   0.2580240
0.0013408    -0.9949395  -0.0004281   0.0000383  -0.0000312   0.0000024  -0.0000096  -0.9153819   0.2572752
0.0013572    -0.9962206  -0.0003513   0.0000024  -0.0000380   0.0000187   0.0000077  -0.9163567   0.2576933
0.0013739    -0.9950216  -0.0001117   0.0000192   0.0000126   0.0000133   0.0000164  -0.9162218   0.2575399
0.0013908    -0.9962000  -0.0005948   0.0000223  -0.0000529   0.0000136   0.0000045  -0.9169530   0.2576089
0.0014079    -0.9948188  -0.0001296   0.0000231  -0.0000019  -0.0000214  -0.0000005  -0.9167295   0.2573538
0.0014252    -0.9963682  -0.0008330   0.0000173  -0.0000134   0.0000186   0.0000247  -0.9176592   0.2572531
0.0014427    -0.9948222  -0.0002498   0.0000394   0.0000013  -0.0000097  -0.0000156  -0.9173659   0.2571991
0.0014605    -0.9963036  -0.0003225   0.0000266  -0.0000224   0.0000009  -0.0000180  -0.9180822   0.2573986
0.0014784    -0.9946943  -0.0005568   0.0000368   0.0000070  -0.0000049   0.0000082  -0.9178605   0.2569127
0.0014966    -0.9953454   0.0003065   0.0000165   0.0000020   0.0000002  -0.0000287  -0.9186111   0.2574162
0.0015150    -0.9955962  -0.0008634   0.0000057  -0.0000094   0.0000270   0.0000241  -0.9189818   0.2573396
0.0015336    -0.9951299  -0.0004790   0.0000016  -0.0000432  -0.0000074  -0.0000028  -0.9190102   0.2570696
0.0015525    -0.9948232   0.0004338   0.0000195   0.0000116  -0.0000076  -0.0000167  -0.9190290   0.2573496
0.0015716    -0.9953797  -0.0003233   0.0000447  -0.0000128   0.0000126  -0.0000211  -0.9196280   0.2571869
0.0015909    -0.9957149   0.0000464   0.0000190  -0.0000043   0.0000100  -0.0000345  -0.9199847   0.2575694
0.0016104    -0.9947786  -0.0009098   0.0000436   0.0000064  -0.0000243   0.0000094  -0.9203199   0.2569523
0.0016302    -0.9950966  -0.0000616   0.0000363  -0.0000030   0.0000135  -0.0000063  -0.9203642   0.2573044
0.0016503    -0.9962095  -0.0004651   0.0000310  -0.0000160   0.0000088  -0.0000100  -0.9213751   0.2574882
0.0016706    -0.9954740  -0.0006646   0.0000531  -0.0000070   0.0000033  -0.0000045  -0.9211996   0.2574022
0.0016911    -0.9952392  -0.0010575   0.0000442  -0.0000187  -0.0000210  -0.0000159  -0.9218180   0.2570958
0.0017119    -0.9950822  -0.0000346   0.0000094   0.0000144  -0.0000161  -0.0000298  -0.9218589   0.2574357
0.0017329    -0.9956086  -0.0006227   0.0000025   0.0000171  -0.0000031   0.0000134  -0.9220861   0.2573962
0.0017542    -0.9951444  -0.0010771   0.0000375  -0.0000141   0.0000071   0.0000175  -0.9225671   0.2571541
0.0017758    -0.9952778  -0.0004168   0.0000033  -0.0000145  -0.0000018  -0.0000029  -0.9227763   0.2574617
0.0017976    -0.9953557  -0.0008479   0.0000276  -0.0000279   0.0000059  -0.0000063  -0.9233452   0.2574793
0.0018197    -0.9946690  -0.0008387   0.0000040   0.0000224  -0.0000150  -0.0000040  -0.9231438   0.2573279
0.0018421    -0.9955072  -0.0003980   0.0000038  -0.0000199   0.0000151  -0.0000070  -0.9238326   0.2577191
0.0018648    -0.9949451  -0.0003000  -0.0000017  -0.0000053  -0.0000028   0.0000040  -0.9239003   0.2574820
0.0018877    -0.9949345  -0.0000113  -0.0000113  -0.0000055  -0.0000105  -0.0000158  -0.9239804   0.2577066
0.0019109    -0.9956321  -0.0005955   0.0000069  -0.0000068  -0.0000036   0.0000066  -0.9248491   0.2579357
0.0019344    -0.9951176  -0.0004671   0.0000116  -0.0000006  -0.0000050  -0.0000064  -0.9247153   0.2577397
0.0019582    -0.9949041  -0.0001720   0.0000317   0.0000316   0.0000018  -0.0000051  -0.9248236   0.2579512
0.0019822    -0.9957884  -0.0002550  -0.0000054  -0.0000274   0.0000061   0.0000007  -0.9256894   0.2580907
0.0020066    -0.9952864  -0.0003848   0.0000269  -0.0000073   0.0000030   0.0000010  -0.9257598   0.2582423
0.0020313    -0.9955550  -0.0007172   0.0000251  -0.0000084   0.0000072   0.0000076  -0.9261621   0.2581689
0.0020562    -0.9952544  -0.0010167   0.0000437  -0.0000191  -0.0000161  -0.0000018  -0.9265384   0.2580705
0.0020815    -0.9952578  -0.0000302   0.0000235   0.0000045   0.0000003  -0.0000015  -0.9265952   0.2584793
0.0021071    -0.9952139  -0.0003144   0.0000176  -0.0000186  -0.0000104  -0.0000033  -0.9270215   0.2585237
0.0021330    -0.9953802  -0.0000281   0.0000140  -0.0000070  -0.0000010  -0.0000229  -0.9272019   0.2587586
0.0021592    -0.9959592  -0.0001933   0.0000169   0.0000017  -0.0000025  -0.0000190  -0.9277383   0.2588852
0.0021858    -0.9954128  -0.0007249   0.0000129  -0.0000044  -0.0000026  -0.0000044  -0.9279115   0.2586740
0.0022126    -0.9953787  -0.0001985  -0.0000051  -0.0000080  -0.0000054  -0.0000144  -0.9280733   0.2590422
0.0022398    -0.9952019  -0.0004595   0.0000064  -0.0000010  -0.0000122   0.0000062  -0.9283379   0.2590142
0.0022674    -0.9957084  -0.0002612   0.0000189   0.0000069   0.0000047  -0.0000181  -0.9287816   0.2593020
0.0022953    -0.9958519  -0.0002555   0.0000123  -0.0000017   0.0000060  -0.0000025  -0.9290308   0.2594769
0.0023235    -0.9959782  -0.0008199   0.0000361  -0.0000236  -0.0000061  -0.0000002  -0.9294341   0.2594680
0.0023520    -0.9950450  -0.0002541   0.0000361  -0.0000276  -0.0000078  -0.0000054  -0.9292532   0.2594361
0.0023809    -0.9957390  -0.0006019   0.0000385  -0.0000012  -0.0000079   0.0000077  -0.9299422   0.2596373
0.0024102    -0.9953383  -0.0002682  -0.0000118   0.0000200   0.0000131   0.0000064  -0.9298942   0.2598229
0.0024398    -0.9953022  -0.0003737  -0.0000044  -0.0000048   0.0000033   0.0000032  -0.9303333   0.2599209
0.0024698    -0.9953921  -0.0001040   0.0000103  -0.0000180   0.0000079  -0.0000170  -0.9305707   0.2602177
0.0025002    -0.9955189  -0.0001367  -0.0000182  -0.0000185  -0.0000013  -0.0000042  -0.9307198   0.2603729
0.0025309    -0.9955808  -0.0001280   0.0000300  -0.0000012  -0.0000087  -0.0000112  -0.9309336   0.2606611
0.0025621    -0.9955891  -0.0002720   0.0000136   0.0000178   0.0000070  -0.0000087  -0.9313972   0.2606534
0.0025935    -0.9956833  -0.0008036  -0.0000041  -0.0000249  -0.0000057  -0.0000035  -0.9316742   0.2605261
0.0026254    -0.9955294  -0.0009247   0.0000137  -0.0000200  -0.0000042  -0.0000026  -0.9317934   0.2605545
0.0026577    -0.9950950  -0.0002191   0.0000207  -0.0000036  -0.0000107  -0.0000105  -0.9319015   0.2609742
0.0026904    -0.9954761   0.0000724   0.0000158  -0.0000314  -0.0000128  -0.0000062  -0.9320964   0.2613407
0.0027235    -0.9957611  -0.0007962  -0.0000086  -0.0000177  -0.0000013  -0.0000137  -0.9327563   0.2611832
0.0027569    -0.9953019  -0.0006853   0.0000314  -0.0000001  -0.0000088  -0.0000033  -0.9327095   0.2612955
0.0027908    -0.9955033  -0.0000293   0.0000089   0.0000172   0.0000059  -0.0000083  -0.9327881   0.2617246
0.0028251    -0.9957459  -0.0004132   0.0000096  -0.0000040   0.0000069   0.0000018  -0.9332618   0.2618815
0.0028599    -0.9954933  -0.0008725  -0.0000017   0.0000048  -0.0000022   0.0000010  -0.9334185   0.2618729
0.0028950    -0.9952521  -0.0007783   0.0000099  -0.0000079   0.0000031   0.0000025  -0.9336124   0.2618484
0.0029306    -0.9953638  -0.0004815   0.0000426  -0.0000094  -0.0000042  -0.0000190  -0.9337557   0.2620064
0.0029666    -0.9953109  -0.0005002   0.0000335   0.0000051   0.0000131  -0.0000065  -0.9339990   0.2622600
0.0030031    -0.9953689  -0.0005853   0.0000166   0.0000153  -0.0000049   0.0000133  -0.9341076   0.2625548
0.0030400    -0.9955983  -0.0005077   0.0000041  -0.0000058  -0.0000027  -0.0000165  -0.9343379   0.2628196
0.0030774    -0.9954310  -0.0001854   0.0000145  -0.0000059  -0.0000097  -0.0000045  -0.9345217   0.2629743
0.0031152    -0.9956394  -0.0007400   0.0000278  -0.0000442   0.0000102   0.0000018  -0.9348862   0.2629809
0.0031535    -0.9954087  -0.0001206   0.0000048  -0.0000170  -0.0000035  -0.0000120  -0.9349260   0.2633534
0.0031923    -0.9959376  -0.0004557   0.0000077   0.0000015   0.0000126  -0.0000124  -0.9353236   0.2634966
0.0032315    -0.9957173  -0.0007594   0.0000228  -0.0000180  -0.0000004  -0.0000064  -0.9355121   0.2636469
0.0032713    -0.9956549  -0.0005079   0.0000169   0.0000079   0.0000023  -0.0000089  -0.9356770   0.2636865
0.0033115    -0.9955687  -0.0004569   0.0000077  -0.0000132   0.0000084  -0.0000006  -0.9357024   0.2639999
0.0033522    -0.9957456  -0.0004570   0.0000346   0.0000136  -0.0000109  -0.0000057  -0.9360229   0.2644064
0.0033934    -0.9955082  -0.0007507   0.0000388   0.0000177   0.0000014   0.0000021  -0.9362628   0.2642656
0.0034351    -0.9955482  -0.0005770   0.0000121   0.0000167  -0.0000013   0.0000084  -0.9364516   0.2645556
0.0034773    -0.9955637  -0.0004373   0.0000180  -0.0000230   0.0000084  -0.0000086  -0.9364323   0.2647053
0.0035201    -0.9956349  -0.0008347   0.0000242  -0.0000146   0.0000056  -0.0000029  -0.9367876   0.2648143
0.0035634    -0.9953656  -0.0005817   0.0000128  -0.0000057   0.0000070  -0.0000048  -0.9368663   0.2649771
0.0036072    -0.9954106  -0.0004216   0.0000022   0.0000108  -0.0000008  -0.0000046  -0.9369396   0.2652301
0.0036515    -0.9954566  -0.0003735   0.0000065   0.0000036  -0.0000051   0.0000044  -0.9372120   0.2655556
0.0036964    -0.9955664  -0.0000319   0.0000223  -0.0000057  -0.0000114   0.0000007  -0.9371598   0.2658447
0.0037418    -0.9956190  -0.0004951   0.0000150  -0.0000096   0.0000014  -0.0000077  -0.9373776   0.2659021
0.0037878    -0.9955270  -0.0000678  -0.0000016   0.0000086   0.0000009  -0.0000191  -0.9374859   0.2660117
0.0038344    -0.9956765  -0.0002715  -0.0000069  -0.0000123   0.0000059  -0.0000063  -0.9376847   0.2663411
0.0038815    -0.9956352  -0.0005157  -0.0000025  -0.0000419  -0.0000009   0.0000041  -0.9378065   0.2664228
0.0039293    -0.9955288  -0.0004948   0.0000004  -0.0000237   0.0000049  -0.0000071  -0.9379777   0.2663981
0.0039776    -0.9953950  -0.0003858   0.0000124  -0.0000094  -0.0000018  -0.0000120  -0.9381920   0.2668196
0.0040265    -0.9954607  -0.0006031   0.0000150  -0.0000015   0.0000000   0.0000014  -0.9383100   0.2667670
0.0040759    -0.9956077  -0.0004456   0.0000082   0.0000182  -0.0000007   0.0000008  -0.9384242   0.2671272
0.0041261    -0.9955804  -0.0006795   0.0000132  -0.0000197   0.0000015  -0.0000048  -0.9385339   0.2672093
0.0041768    -0.9956476  -0.0002851   0.0000091   0.0000029  -0.0000009   0.0000009  -0.9387328   0.2675105
0.0042281    -0.9957111  -0.0006065  -0.0000010  -0.0000034   0.0000064  -0.0000054  -0.9388509   0.2677209
0.0042801    -0.9955764  -0.0003513   0.0000045  -0.0000009   0.0000041  -0.0000002  -0.9389324   0.2679158
0.0043327    -0.9958958  -0.0002486  -0.0000019  -0.0000011  -0.0000035  -0.0000042  -0.9390299   0.2683019
0.0043860    -0.9957121  -0.0003186   0.0000003  -0.0000338  -0.0000025   0.0000091  -0.9392749   0.2683077
0.0044399    -0.9956025  -0.0003350   0.0000005   0.0000010   0.0000007  -0.0000043  -0.9393379   0.2684832
0.0044945    -0.9956928  -0.0005013  -0.0000002   0.0000142  -0.0000065  -0.0000034  -0.9394909   0.2686169
0.0045497    -0.9955624  -0.0003388   0.0000229  -0.0000159  -0.0000109  -0.0000034  -0.9394766   0.2688047
0.0046057    -0.9955523  -0.0003971   0.0000044   0.0000092  -0.0000053   0.0000049  -0.9395575   0.2689400
0.0046623    -0.9955765  -0.0003216   0.0000087  -0.0000092   0.0000035  -0.0000071  -0.9395089   0.2692334
0.0047196    -0.9957162  -0.0002018   0.0000019   0.0000143  -0.0000083  -0.0000009  -0.9398293   0.2694102
0.0047776    -0.9956997  -0.0002657   0.0000108  -0.0000032   0.0000065  -0.0000104  -0.9398891   0.2695281
0.0048363    -0.9959566  -0.0002256   0.0000010  -0.0000089   0.0000003  -0.0000094  -0.9399332   0.2697804
0.0048958    -0.9958418  -0.0003290   0.0000121   0.0000065  -0.0000047  -0.0000137  -0.9400721   0.2700554
0.0049560    -0.9959169  -0.0004732  -0.0000009  -0.0000024  -0.0000099  -0.0000067  -0.9402632   0.2701632
0.0050169    -0.9954238  -0.0001707   0.0000106   0.0000061  -0.0000178   0.0000051  -0.9403351   0.2701639
0.0050786    -0.9957204  -0.0003789  -0.0000037  -0.0000080   0.0000062   0.0000011  -0.9403187   0.2703988
0.0051410    -0.9956976  -0.0001947  -0.0000239   0.0000356  -0.0000039  -0.0000105  -0.9404152   0.2706001
0.0052042    -0.9957226  -0.0001373   0.0000007  -0.0000114   0.0000035  -0.0000032  -0.9405021   0.2708001
0.0052682    -0.9958738  -0.0003668  -0.0000018  -0.0000189   0.0000060  -0.0000054  -0.9406327   0.2710467
0.0053330    -0.9958842  -0.0003427  -0.0000129  -0.0000009  -0.0000089  -0.0000088  -0.9406896   0.2711812
0.0053985    -0.9960428  -0.0003602  -0.0000045  -0.0000070  -0.0000131  -0.0000073  -0.9407775   0.2713440
0.0054649    -0.9959842  -0.0003319   0.0000162  -0.0000112   0.0000164  -0.0000018  -0.9409076   0.2714998
0.0055321    -0.9958953  -0.0003002  -0.0000054  -0.0000095  -0.0000015  -0.0000112  -0.9409565   0.2716945
0.0056001    -0.9959510  -0.0004189   0.0000201   0.0000090   0.0000146   0.0000031  -0.9411138   0.2719386
0.0056689    -0.9958528  -0.0002641  -0.0000071   0.0000056  -0.0000082  -0.0000200  -0.9411273   0.2720064
0.0057386    -0.9958580  -0.0002694  -0.0000076   0.0000033   0.0000036  -0.0000155  -0.9411893   0.2721200
0.0058091    -0.9956782  -0.0002657   0.0000041  -0.0000095   0.0000022   0.0000047  -0.9411386   0.2723728
0.0058806    -0.9956512  -0.0002346  -0.0000071  -0.0000029  -0.0000013  -0.0000061  -0.9411190   0.2724188
0.0059529    -0.9957950  -0.0003881   0.0000093  -0.0000047  -0.0000054  -0.0000104  -0.9412062   0.2727041
0.0060260    -0.9956819  -0.0002495   0.0000043   0.0000099  -0.0000053  -0.0000183  -0.9412507   0.2727098
0.0061001    -0.9958932  -0.0002666  -0.0000024  -0.0000056  -0.0000142  -0.0000055  -0.9413455   0.2729546
0.0061751    -0.9956108  -0.0000833  -0.0000064  -0.0000055   0.0000003   0.0000049  -0.9413314   0.2731470
0.0062510    -0.9957918  -0.0002837  -0.0000042   0.0000000  -0.0000030  -0.0000002  -0.9415101   0.2732916
0.0063279    -0.9958438  -0.0003041  -0.0000204  -0.0000069  -0.0000043  -0.0000012  -0.9416430   0.2734560
0.0064056    -0.9959730  -0.0003642   0.0000031  -0.0000046   0.0000044  -0.0000061  -0.9416371   0.2736081
0.0064844    -0.9957481  -0.0003683  -0.0000084  -0.0000019   0.0000000  -0.0000076  -0.9416977   0.2736701
0.0065641    -0.9956032  -0.0002135   0.0000152   0.0000100  -0.0000063  -0.0000193  -0.9415242   0.2737903
0.0066448    -0.9958199  -0.0003187   0.0000009  -0.0000201   0.0000005  -0.0000093  -0.9416728   0.2739591
0.0067265    -0.9956382  -0.0002799   0.0000003   0.0000012  -0.0000082   0.0000041  -0.9417777   0.2741424
0.0068092    -0.9956469  -0.0002520   0.0000053   0.0000037   0.0000036   0.0000010  -0.9418365   0.2743665
0.0068929    -0.9956663  -0.0003067  -0.0000082   0.0000127   0.0000128  -0.0000086  -0.9418909   0.2744498
0.0069776    -0.9955499  -0.0003721  -0.0000055   0.0000111   0.0000024  -0.0000116  -0.9420478   0.2746782
0.0070634    -0.9959346  -0.0003011   0.0000138   0.0000020   0.0000023  -0.0000052  -0.9419420   0.2748400
0.0071502    -0.9957352  -0.0002854   0.0000066   0.0000282   0.0000031  -0.0000154  -0.9419125   0.2748555
0.0072381    -0.9955784   0.0000144  -0.0000007   0.0000182  -0.0000033  -0.0000122  -0.9418756   0.2750367
0.0073271    -0.9955851  -0.0000517   0.0000079  -0.0000044  -0.0000089  -0.0000030  -0.9420109   0.2752536
0.0074172    -0.9955002  -0.0001824   0.0000087   0.0000035   0.0000121  -0.0000083  -0.9421284   0.2753567
0.0075084    -0.9958918  -0.0003142   0.0000049  -0.0000038   0.0000064  -0.0000108  -0.9421577   0.2755385
0.0076007    -0.9956677  -0.0001876   0.0000042   0.0000118   0.0000004  -0.0000116  -0.9421461   0.2756577
0.0076941    -0.9957335  -0.0002283   0.0000025   0.0000018  -0.0000021   0.0000084  -0.9421786   0.2759126
0.0077887    -0.9958108  -0.0001777  -0.0000003  -0.0000098   0.0000107  -0.0000020  -0.9421820   0.2759312
0.0078844    -0.9957431  -0.0002571   0.0000273   0.0000055  -0.0000035  -0.0000018  -0.9422685   0.2760016
0.0079814    -0.9957735  -0.0001300  -0.0000008   0.0000088   0.0000006  -0.0000059  -0.9422404   0.2762762
0.0080795    -0.9956965  -0.0003244  -0.0000005  -0.0000011   0.0000058  -0.0000034  -0.9423989   0.2763341
0.0081788    -0.9958934  -0.0001940   0.0000003  -0.0000057  -0.0000045   0.0000043  -0.9422137   0.2765218
0.0082793    -0.9959023  -0.0000121   0.0000046   0.0000032  -0.0000005  -0.0000093  -0.9423942   0.2765888
0.0083811    -0.9956188  -0.0002631  -0.0000144   0.0000122  -0.0000037   0.0000070  -0.9423573   0.2767983
0.0084842    -0.9957825  -0.0000011  -0.0000123   0.0000095  -0.0000016   0.0000005  -0.9423313   0.2768930
0.0085885    -0.9958948  -0.0003863   0.0000237  -0.0000168   0.0000015  -0.0000070  -0.9424398   0.2769427
0.0086940    -0.9957151  -0.0003043   0.0000172  -0.0000041   0.0000127  -0.0000141  -0.9423699   0.2771411
0.0088009    -0.9958659  -0.0001777  -0.0000062   0.0000188   0.0000002   0.0000062  -0.9423860   0.2772914
0.0089091    -0.9957586  -0.0002257   0.0000130   0.0000056   0.0000024  -0.0000112  -0.9423989   0.2774866
0.0090186    -0.9957516  -0.0001683   0.0000144   0.0000019  -0.0000090  -0.0000046  -0.9424998   0.2774735
0.0091295    -0.9955498  -0.0002477   0.0000016   0.0000117   0.0000055  -0.0000005  -0.9425199   0.2777457
0.0092417    -0.9957892  -0.0003886   0.0000016   0.0000039   0.0000093  -0.0000054  -0.9424069   0.2777833
0.0093553    -0.9957780  -0.0002184  -0.0000016  -0.0000102   0.0000041  -0.0000095  -0.9424297   0.2779104
0.0094703    -0.9957990  -0.0004075   0.0000069  -0.0000022   0.0000006   0.0000108  -0.9425230   0.2779699
0.0095868    -0.9958498  -0.0001144  -0.0000016   0.0000020  -0.0000033  -0.0000074  -0.9424579   0.2781670
0.0097046    -0.9957868  -0.0001583   0.0000077   0.0000109  -0.0000017   0.0000127  -0.9425030   0.2781965
0.0098239    -0.9957634  -0.0002496   0.0000139   0.0000017  -0.0000008   0.0000001  -0.9425577   0.2783250
0.0099447    -0.9959722  -0.0001769   0.0000000  -0.0000032  -0.0000004  -0.0000051  -0.9425478   0.2783615
0.0100669    -0.9958305  -0.0001862  -0.0000043   0.0000099  -0.0000093  -0.0000186  -0.9425242   0.2785836
0.0101907    -0.9958090  -0.0002631   0.0000190  -0.0000067  -0.0000033  -0.0000092  -0.9425358   0.2786114
0.0103160    -0.9958043  -0.0001334   0.0000053   0.0000188   0.0000116  -0.0000083  -0.9425019   0.2787091
0.0104428    -0.9956226  -0.0002155   0.0000118  -0.0000102  -0.0000035   0.0000003  -0.9425838   0.2789201
0.0105712    -0.9957751  -0.0000209  -0.0000032  -0.0000100   0.0000088   0.0000015  -0.9425830   0.2789347
0.0107011    -0.9957460  -0.0000390   0.0000022   0.0000278   0.0000044  -0.0000051  -0.9426090   0.2791118
0.0108327    -0.9958558  -0.0001870   0.0000082   0.0000053   0.0000012  -0.0000062  -0.9425325   0.2791449
0.0109658    -0.9958074  -0.0000360   0.0000022  -0.0000067  -0.0000070  -0.0000045  -0.9426464   0.2792784
0.0111006    -0.9957039  -0.0001528   0.0000214   0.0000119  -0.0000041  -0.0000068  -0.9426136   0.2795289
0.0112371    -0.9957405  -0.0001088  -0.0000115   0.0000233  -0.0000054   0.0000003  -0.9426557   0.2794251
0.0113752    -0.9957124  -0.0001513  -0.0000074  -0.0000095  -0.0000107   0.0000007  -0.9425597   0.2795968
0.0115151    -0.9956911  -0.0001984   0.0000085  -0.0000012   0.0000003  -0.0000004  -0.9427017   0.2798539
0.0116566    -0.9958288  -0.0000447   0.0000019  -0.0000079  -0.0000025  -0.0000093  -0.9425976   0.2797545
0.0117999    -0.9958012  -0.0000038   0.0000033   0.0000094  -0.0000078  -0.0000039  -0.9426702   0.2800117
0.0119450    -0.9958525  -0.0013515   0.0000052   0.0000192  -0.0000012   0.0000006  -0.9434624   0.2782170
0.0120918    -0.9957868  -0.0001059   0.0000070  -0.0000158   0.0000006  -0.0000104  -0.9426943   0.2801527
0.0122405    -0.9958377  -0.0002862  -0.0000108   0.0000011  -0.0000107   0.0000039  -0.9427471   0.2801706
0.0123910    -0.9958154  -0.0001722   0.0000086  -0.0000144  -0.0000042  -0.0000100  -0.9426088   0.2804391
0.0125433    -0.9956622  -0.0002045   0.0000074   0.0000128  -0.0000016   0.0000043  -0.9427097   0.2803775
0.0126975    -0.9957094  -0.0001114  -0.0000087   0.0000091  -0.0000036  -0.0000023  -0.9425424   0.2804387
0.0128536    -0.9958505   0.0000987  -0.0000005  -0.0000133   0.0000036  -0.0000033  -0.9426407   0.2806492
0.0130116    -0.9957794  -0.0001962  -0.0000053   0.0000224   0.0000031   0.0000037  -0.9426215   0.2806846
0.0131716    -0.9958122  -0.0000480   0.0000098  -0.0000059  -0.0000045   0.0000010  -0.9426642   0.2806807
0.0133335    -0.9957351  -0.0000905   0.0000124   0.0000014  -0.0000017  -0.0000095  -0.9425145   0.2809397
0.0134974    -0.9957832  -0.0000756   0.0000113   0.0000089   0.0000014  -0.0000020  -0.9425677   0.2809175
0.0136633    -0.9958460   0.0000694  -0.0000074   0.0000027   0.0000013  -0.0000062  -0.9426221   0.2811150
0.0138313    -0.9957162  -0.0000074   0.0000078   0.0000021  -0.0000014  -0.0000050  -0.9425397   0.2811490
0.0140013    -0.9958688  -0.0001525   0.0000068  -0.0000042  -0.0000043  -0.0000027  -0.9426175   0.2812854
0.0141734    -0.9958339  -0.0001120   0.0000090   0.0000035  -0.0000133  -0.0000052  -0.9426482   0.2814176
0.0143477    -0.9958414  -0.0000657   0.0000003  -0.0000131   0.0000019  -0.0000050  -0.9426134   0.2813920
0.0145240    -0.9958943  -0.0000560   0.0000196   0.0000028   0.0000018   0.0000028  -0.9426510   0.2814696
0.0147026    -0.9957220   0.0000509  -0.0000148   0.0000083   0.0000098  -0.0000082  -0.9425887   0.2815431
0.0148833    -0.9958123  -0.0000413  -0.0000114   0.0000144  -0.0000038  -0.0000085  -0.9425701   0.2817147
0.0150663    -0.9958059  -0.0000635   0.0000001  -0.0000034   0.0000025  -0.0000094  -0.9425500   0.2817628
0.0152515    -0.9957680  -0.0001830   0.0000114   0.0000216  -0.0000064  -0.0000097  -0.9425577   0.2819218
0.0154390    -0.9957561  -0.0000873   0.0000142   0.0000166  -0.0000151   0.0000062  -0.9425825   0.2819117
0.0156288    -0.9956185  -0.0000335   0.0000075   0.0000127  -0.0000092  -0.0000074  -0.9426634   0.2819290
0.0158209    -0.9957365  -0.0000778   0.0000081   0.0000120  -0.0000031  -0.0000088  -0.9425187   0.2819562
0.0160154    -0.9957685  -0.0000462   0.0000123   0.0000064   0.0000012  -0.0000067  -0.9425096   0.2821765
0.0162123    -0.9957264  -0.0000272  -0.0000004   0.0000015  -0.0000041  -0.0000005  -0.9424733   0.2823458
0.0164116    -0.9956916  -0.0000395   0.0000111   0.0000025   0.0000020  -0.0000133  -0.9425390   0.2823374
0.0166134    -0.9957952  -0.0001269   0.0000045   0.0000119   0.0000025   0.0000024  -0.9424725   0.2825105
0.0168176    -0.9957692  -0.0001159   0.0000083   0.0000026   0.0000023  -0.0000011  -0.9425681   0.2824212
0.0170243    -0.9958302  -0.0000218  -0.0000013   0.0000070  -0.0000044  -0.0000021  -0.9425075   0.2825839
0.0172336    -0.9957612  -0.0000592  -0.0000066   0.0000192   0.0000039  -0.0000065  -0.9424701   0.2825693
0.0174455    -0.9957128  -0.0001579   0.0000140  -0.0000040  -0.0000069   0.0000054  -0.9424511   0.2826684
0.0176599    -0.9957052  -0.0000221   0.0000064   0.0000056  -0.0000030  -0.0000096  -0.9424459   0.2827776
0.0178770    -0.9957432   0.0000190   0.0000088  -0.0000011  -0.0000056   0.0000042  -0.9424224   0.2829245
0.0180968    -0.9957429  -0.0001199  -0.0000081  -0.0000111  -0.0000086  -0.0000035  -0.9424302   0.2828374
0.0183193    -0.9957429   0.0000024   0.0000001   0.0000046   0.0000087  -0.0000044  -0.9424509   0.2830002
0.0185445    -0.9957178  -0.0000656  -0.0000036   0.0000043   0.0000103  -0.0000060  -0.9424455   0.2830423
0.0187724    -0.9956857  -0.0000784   0.0000160   0.0000108   0.0000036   0.0000011  -0.9423371   0.2830841
0.0190032    -0.9957222   0.0000102   0.0000069   0.0000079  -0.0000030  -0.0000051  -0.9424280   0.2831313
0.0192368    -0.9957885   0.0000238   0.0000209   0.0000002   0.0000020   0.0000008  -0.9425254   0.2832695
0.0194733    -0.9958204  -0.0000113   0.0000078   0.0000086   0.0000098  -0.0000044  -0.9424154   0.2833488
0.0197127    -0.9957796  -0.0001165   0.0000073  -0.0000128  -0.0000072  -0.0000149  -0.9423865   0.2834325
0.0199550    -0.9958197   0.0000074   0.0000078   0.0000056  -0.0000085  -0.0000115  -0.9424142   0.2834576
0.0202003    -0.9958648  -0.0001781  -0.0000200   0.0000266  -0.0000027  -0.0000121  -0.9424186   0.2834956
0.0204487    -0.9955904  -0.0000162  -0.0000010   0.0000072  -0.0000126  -0.0000027  -0.9423482   0.2836018
0.0207001    -0.9957863  -0.0000555   0.0000010   0.0000146  -0.0000050  -0.0000153  -0.9422820   0.2836091
0.0209545    -0.9957593  -0.0000616   0.0000090   0.0000142  -0.0000042  -0.0000062  -0.9422991   0.2836966
0.0212121    -0.9958667   0.0000173  -0.0000002   0.0000170   0.0000013   0.0000014  -0.9422630   0.2838958
0.0214729    -0.9957583  -0.0001372   0.0000218  -0.0000021  -0.0000082  -0.0000137  -0.9423046   0.2839225
0.0217369    -0.9958025  -0.0000948   0.0000099   0.0000134   0.0000177  -0.0000012  -0.9422967   0.2839207
0.0220041    -0.9957341  -0.0001084   0.0000045   0.0000102  -0.0000034  -0.0000052  -0.9423316   0.2839710
0.0222746    -0.9957237  -0.0000798   0.0000050   0.0000195   0.0000044  -0.0000094  -0.9421834   0.2840686
0.0225484    -0.9959116  -0.0001111   0.0000177   0.0000056  -0.0000069   0.0000029  -0.9421589   0.2840821
0.0228256    -0.9958546   0.0000152  -0.0000185   0.0000130  -0.0000015   0.0000000  -0.9422130   0.2841121
0.0231062    -0.9957667  -0.0000807   0.0000089   0.0000033  -0.0000071  -0.0000067  -0.9422103   0.2841453
0.0233902    -0.9957042  -0.0001931   0.0000074   0.0000003  -0.0000062   0.0000041  -0.9421501   0.2842650
0.0236778    -0.9958017   0.0000151   0.0000042   0.0000218   0.0000026  -0.0000065  -0.9421274   0.2843437
0.0239689    -0.9935907  -0.0005841  -0.0000031   0.0000025  -0.0000034  -0.0000028  -0.9431943   0.2849166
0.0242635    -0.9957355  -0.0000713   0.0000105   0.0000125   0.0000020  -0.0000015  -0.9421554   0.2844378
0.0245618    -0.9957574  -0.0000065   0.0000134   0.0000113  -0.0000175  -0.0000006  -0.9420997   0.2845678
0.0248637    -0.9957407   0.0000270  -0.0000034   0.0000056  -0.0000010  -0.0000011  -0.9421057   0.2846436
0.0251694    -0.9956087   0.0000252   0.0000020  -0.0000060  -0.0000045  -0.0000092  -0.9421237   0.2846718
0.0254788    -0.9956679   0.0000042  -0.0000013   0.0000096  -0.0000051  -0.0000060  -0.9420106   0.2847303
0.0257920    -0.9958411  -0.0000195  -0.0000057   0.0000161   0.0000011  -0.0000116  -0.9420984   0.2848583
0.0261091    -0.9958305  -0.0000152  -0.0000009   0.0000120   0.0000032  -0.0000093  -0.9419308   0.2848252
0.0264301    -0.9957589  -0.0000026   0.0000071   0.0000137   0.0000051  -0.0000114  -0.9420806   0.2849199
0.0267550    -0.9959293  -0.0000638   0.0000104   0.0000169  -0.0000017   0.0000036  -0.9419236   0.2849455
0.0270839    -0.9958904  -0.0001254   0.0000028   0.0000207  -0.0000150  -0.0000070  -0.9420152   0.2849370
0.0274168    -0.9958473   0.0000112   0.0000032   0.0000080  -0.0000071  -0.0000091  -0.9419723   0.2849874
0.0277539    -0.9957671   0.0000386   0.0000042   0.0000088  -0.0000055  -0.0000124  -0.9418585   0.2850718
0.0280951    -0.9958183  -0.0000518   0.0000004   0.0000081  -0.0000084  -0.0000131  -0.9418695   0.2851680
0.0284404    -0.9956317  -0.0000589  -0.0000024  -0.0000009  -0.0000050  -0.0000027  -0.9418926   0.2852433
0.0287901    -0.9957108  -0.0000200   0.0000058   0.0000210  -0.0000104  -0.0000071  -0.9419360   0.2851845
0.0291440    -0.9957521  -0.0001368   0.0000024   0.0000130   0.0000046  -0.0000088  -0.9418947   0.2853351
0.0295023    -0.9956330   0.0000982  -0.0000082   0.0000169   0.0000158   0.0000033  -0.9418181   0.2853636
0.0298649    -0.9958103  -0.0000899   0.0000111   0.0000197   0.0000090  -0.0000008  -0.9418149   0.2853996
0.0302321    -0.9956956  -0.0000131   0.0000140  -0.0000110   0.0000043  -0.0000058  -0.9417208   0.2854923
0.0306037    -0.9957755   0.0000125  -0.0000069  -0.0000033  -0.0000045  -0.0000008  -0.9417143   0.2855678
0.0309799    -0.9956663  -0.0000822   0.0000196   0.0000121  -0.0000045   0.0000013  -0.9418265   0.2855831
0.0313608    -0.9958812  -0.0000254   0.0000128   0.0000090   0.0000041  -0.0000197  -0.9417779   0.2856653
0.0317463    -0.9957792  -0.0000083   0.0000140   0.0000118  -0.0000047   0.0000050  -0.9416988   0.2857371
0.0321366    -0.9958388  -0.0000901   0.0000144   0.0000136   0.0000041  -0.0000031  -0.9417880   0.2857474
0.0325316    -0.9958316   0.0000027  -0.0000020   0.0000138   0.0000030  -0.0000159  -0.9416747   0.2858300
0.0329316    -0.9957743  -0.0000571   0.0000014   0.0000124   0.0000071  -0.0000175  -0.9416642   0.2859160
0.0333364    -0.9958978  -0.0000568   0.0000112   0.0000295   0.0000033  -0.0000037  -0.9416956   0.2859965
0.0337462    -0.9956692  -0.0000897   0.0000140   0.0000001   0.0000003   0.0000066  -0.9415459   0.2858363
0.0341610    -0.9956641  -0.0001830   0.0000020   0.0000057   0.0000031  -0.0000018  -0.9415890   0.2860550
0.0345810    -0.9957936   0.0000436   0.0000136   0.0000181   0.0000025  -0.0000054  -0.9415994   0.2860402
0.0350061    -0.9957718  -0.0001420   0.0000059   0.0000136   0.0000041   0.0000028  -0.9416480   0.2861025
0.0354365    -0.9957967  -0.0000453   0.0000057   0.0000135   0.0000008  -0.0000113  -0.9415532   0.2862356
0.0358721    -0.9957693  -0.0000987   0.0000102  -0.0000036   0.0000027   0.0000040  -0.9415274   0.2861881
0.0363131    -0.9957622  -0.0000375  -0.0000053   0.0000185  -0.0000035  -0.0000022  -0.9415787   0.2862180
0.0367595    -0.9957774  -0.0001206   0.0000142  -0.0000021  -0.0000029  -0.0000134  -0.9414277   0.2863980
0.0372114    -0.9957767   0.0000131   0.0000034   0.0000083   0.0000021  -0.0000147  -0.9414660   0.2864445
0.0376688    -0.9957584  -0.0001322   0.0000006   0.0000056  -0.0000015  -0.0000004  -0.9414265   0.2864517
0.0381319    -0.9955732   0.0000166   0.0000225   0.0000167  -0.0000009  -0.0000148  -0.9414994   0.2864761
0.0386006    -0.9958976  -0.0000986   0.0000081   0.0000119  -0.0000001  -0.0000062  -0.9414738   0.2866139
0.0390752    -0.9956470  -0.0000717  -0.0000063   0.0000185   0.0000058  -0.0000044  -0.9413666   0.2865701
0.0395555    -0.9957334  -0.0000817  -0.0000023   0.0000312  -0.0000018  -0.0000008  -0.9413887   0.2866159
0.0400418    -0.9957532   0.0000945   0.0000064   0.0000136  -0.0000059  -0.0000090  -0.9414225   0.2867169
0.0405340    -0.9958454  -0.0000259  -0.0000091   0.0000250   0.0000032  -0.0000083  -0.9413678   0.2866962
0.0410323    -0.9958050  -0.0000570   0.0000130   0.0000020   0.0000113  -0.0000063  -0.9412536   0.2867964
0.0415368    -0.9957574   0.0000183   0.0000082   0.0000201  -0.0000101   0.0000046  -0.9413906   0.2868516
0.0420474    -0.9956576   0.0001032   0.0000175   0.0000175  -0.0000032  -0.0000059  -0.9413047   0.2867908
0.0425643    -0.9958046  -0.0000522   0.0000067   0.0000190   0.0000041  -0.0000041  -0.9412317   0.2868349
0.0430875    -0.9958296  -0.0001387   0.0000031   0.0000185   0.0000041  -0.0000004  -0.9413051   0.2869693
0.0436172    -0.9956766  -0.0000775   0.0000074   0.0000168  -0.0000077  -0.0000074  -0.9412355   0.2870156
0.0441534    -0.9957146  -0.0000805  -0.0000013   0.0000120   0.0000004  -0.0000073  -0.9411886   0.2871031
0.0446962    -0.9957853  -0.0000876   0.0000075   0.0000081  -0.0000045  -0.0000057  -0.9411981   0.2871376
0.0452457    -0.9957852  -0.0000304   0.0000049   0.0000108   0.0000028  -0.0000074  -0.9411458   0.2871384
0.0458019    -0.9957308  -0.0000132   0.0000110   0.0000073   0.0000017  -0.0000085  -0.9411226   0.2871739
0.0463649    -0.9956871   0.0000246   0.0000046   0.0000182   0.0000098   0.0000013  -0.9410879   0.2872438
0.0469349    -0.9956776  -0.0001049   0.0000002  -0.0000051  -0.0000076  -0.0000056  -0.9410962   0.2873527
0.0475119    -0.9957572  -0.0000736   0.0000036   0.0000110   0.0000017  -0.0000071  -0.9410704   0.2873649
0.0480960    -0.9957345  -0.0000160   0.0000096   0.0000036  -0.0000044  -0.0000019  -0.9409973   0.2874680
0.0486872    -0.9957465  -0.0000889  -0.0000075   0.0000115  -0.0000129  -0.0000110  -0.9409651   0.2874875
0.0492857    -0.9958166  -0.0000435   0.0000076   0.0000079  -0.0000002  -0.0000042  -0.9409461   0.2875644
0.0498916    -0.9957620  -0.0000550   0.0000041   0.0000230  -0.0000045  -0.0000018  -0.9408737   0.2876173
0.0505050    -0.9956993   0.0000427   0.0000157   0.0000207  -0.0000103  -0.0000166  -0.9409469   0.2876108
0.0511258    -0.9957021  -0.0000571  -0.0000022   0.0000271  -0.0000017  -0.0000074  -0.9409396   0.2877756
0.0517543    -0.9956640  -0.0000170   0.0000123   0.0000121  -0.0000078  -0.0000062  -0.9409543   0.2877150
0.0523906    -0.9957424  -0.0000415  -0.0000004   0.0000180   0.0000057  -0.0000072  -0.9408638   0.2877875
0.0530346    -0.9957046   0.0000470   0.0000110   0.0000302   0.0000032  -0.0000115  -0.9408033   0.2878187
0.0536866    -0.9956354   0.0000976   0.0000144   0.0000204  -0.0000095  -0.0000167  -0.9408350   0.2878571
0.0543466    -0.9958348  -0.0000672   0.0000062   0.0000160  -0.0000052  -0.0000006  -0.9407425   0.2878680
0.0550146    -0.9957621  -0.0000488   0.0000021   0.0000142  -0.0000055  -0.0000045  -0.9407686   0.2879192
0.0556910    -0.9958135  -0.0001057   0.0000009   0.0000078  -0.0000121  -0.0000102  -0.9406990   0.2879734
0.0563756    -0.9958122  -0.0001043   0.0000051   0.0000019   0.0000018  -0.0000108  -0.9407175   0.2881117
0.0570686    -0.9957493  -0.0000789   0.0000115   0.0000252   0.0000006  -0.0000166  -0.9406780   0.2881488
0.0577702    -0.9958337  -0.0000483  -0.0000062   0.0000206  -0.0000013  -0.0000054  -0.9406106   0.2882546
0.0584804    -0.9956957  -0.0001146  -0.0000143   0.0000203   0.0000011  -0.0000075  -0.9405687   0.2881916
0.0591993    -0.9956988  -0.0001469  -0.0000010   0.0000294   0.0000087   0.0000003  -0.9405477   0.2882490
0.0599270    -0.9957678  -0.0000534   0.0000043   0.0000208   0.0000084  -0.0000020  -0.9406534   0.2883762
0.0606637    -0.9957250  -0.0000578   0.0000116   0.0000166  -0.0000008  -0.0000084  -0.9404613   0.2883609
0.0614095    -0.9957795  -0.0001206   0.0000121   0.0000086  -0.0000130   0.0000009  -0.9405219   0.2883972
0.0621644    -0.9958058  -0.0001677   0.0000024   0.0000245  -0.0000010  -0.0000074  -0.9405535   0.2885076
0.0629286    -0.9957906  -0.0000276   0.0000032   0.0000256  -0.0000052  -0.0000012  -0.9404398   0.2884878
0.0637022    -0.9957142  -0.0000353   0.0000191   0.0000219   0.0000020  -0.0000046  -0.9403573   0.2886245
0.0644853    -0.9957746  -0.0001578   0.0000032   0.0000173  -0.0000014  -0.0000039  -0.9404157   0.2886764
0.0652780    -0.9957231   0.0000012   0.0000231   0.0000191   0.0000039  -0.0000084  -0.9403190   0.2886986
0.0660805    -0.9957578  -0.0001656   0.0000071   0.0000161  -0.0000050  -0.0000067  -0.9402917   0.2888275
0.0668928    -0.9956846  -0.0001712   0.0000162   0.0000100  -0.0000128  -0.0000122  -0.9402203   0.2888212
0.0677152    -0.9957282  -0.0000006   0.0000218   0.0000173   0.0000000  -0.0000112  -0.9402024   0.2888230
0.0685476    -0.9957219  -0.0000797   0.0000137   0.0000225  -0.0000072  -0.0000117  -0.9401862   0.2888922
0.0693903    -0.9956402  -0.0000034   0.0000193   0.0000078  -0.0000004  -0.0000041  -0.9401122   0.2890172
0.0702433    -0.9956567  -0.0001386   0.0000222   0.0000336  -0.0000029   0.0000041  -0.9401311   0.2890242
0.0711068    -0.9957561  -0.0001326   0.0000026   0.0000172   0.0000037  -0.0000059  -0.9400895   0.2890692
0.0719810    -0.9957562  -0.0001298   0.0000095   0.0000146  -0.0000091   0.0000050  -0.9400307   0.2890734
0.0728659    -0.9957769  -0.0000678   0.0000088   0.0000267   0.0000052  -0.0000014  -0.9399982   0.2891921
0.0737616    -0.9957543   0.0000017   0.0000114   0.0000226  -0.0000012   0.0000004  -0.9399166   0.2892475
0.0746684    -0.9956678  -0.0001570  -0.0000016   0.0000227   0.0000073  -0.0000086  -0.9399425   0.2892933
0.0755863    -0.9957128  -0.0000093   0.0000226   0.0000416  -0.0000051  -0.0000018  -0.9398644   0.2893296
0.0765155    -0.9956863  -0.0000439   0.0000011   0.0000092  -0.0000040  -0.0000102  -0.9398543   0.2893451
0.0774561    -0.9955834  -0.0000553   0.0000012   0.0000127   0.0000021  -0.0000132  -0.9397228   0.2894283
0.0784083    -0.9957123  -0.0000239   0.0000127   0.0000235   0.0000033   0.0000006  -0.9396576   0.2894038
0.0793722    -0.9956695  -0.0001279   0.0000072   0.0000279  -0.0000042  -0.0000104  -0.9396161   0.2895158
0.0803479    -0.9956775   0.0000146   0.0000170   0.0000316   0.0000014  -0.0000099  -0.9396115   0.2895176
0.0813357    -0.9956111  -0.0001536   0.0000148   0.0000216  -0.0000006  -0.0000007  -0.9394970   0.2895606
0.0823356    -0.9957632  -0.0000376   0.0000131   0.0000171  -0.0000053  -0.0000076  -0.9394075   0.2896695
0.0833477    -0.9957104  -0.0000900  -0.0000155   0.0000382   0.0000061  -0.0000029  -0.9393761   0.2896456
0.0843723    -0.9957608  -0.0000955   0.0000099   0.0000214   0.0000086  -0.0000037  -0.9393115   0.2897923
0.0854095    -0.9956703  -0.0001168  -0.0000035   0.0000346  -0.0000026  -0.0000074  -0.9392051   0.2896720
0.0864595    -0.9957056  -0.0000759  -0.0000002   0.0000343  -0.0000029   0.0000073  -0.9391912   0.2898053
0.0875224    -0.9955941  -0.0001507  -0.0000007   0.0000296   0.0000034  -0.0000104  -0.9391330   0.2897833
0.0885983    -0.9957729  -0.0000525   0.0000156   0.0000342  -0.0000022  -0.0000038  -0.9390844   0.2898074
0.0896875    -0.9956357  -0.0000753   0.0000002   0.0000320   0.0000089  -0.0000091  -0.9389901   0.2898603
0.0907900    -0.9956151  -0.0001955   0.0000069   0.0000321  -0.0000058  -0.0000009  -0.9389029   0.2897670
0.0919061    -0.9956404  -0.0001798   0.0000142   0.0000244   0.0000026   0.0000009  -0.9387465   0.2898359
0.0930359    -0.9956651  -0.0001742   0.0000036   0.0000154   0.0000012   0.0000016  -0.9387368   0.2897206
0.0941797    -0.9956988  -0.0000891   0.0000109   0.0000307   0.0000025   0.0000095  -0.9386642   0.2897788
0.0953374    -0.9957131  -0.0002074   0.0000168   0.0000256  -0.0000047   0.0000036  -0.9386589   0.2896874
0.0965094    -0.9956440  -0.0001886   0.0000145   0.0000209   0.0000008  -0.0000022  -0.9385277   0.2897067
0.0976959    -0.9957275  -0.0001949   0.0000080   0.0000273   0.0000064  -0.0000051  -0.9385353   0.2896980
0.0988969    -0.9956291  -0.0003026   0.0000083   0.0000293  -0.0000068  -0.0000015  -0.9384663   0.2896201
0.1001126    -0.9956941  -0.0002431   0.0000031   0.0000307  -0.0000042  -0.0000113  -0.9384273   0.2896009
0.1013433    -0.9957207  -0.0004455   0.0000002   0.0000267  -0.0000066  -0.0000005  -0.9384162   0.2895283
0.1025892    -0.9957122  -0.0002886   0.0000055   0.0000379  -0.0000089  -0.0000156  -0.9383242   0.2894642
0.1038503    -0.9957742  -0.0003776   0.0000085   0.0000340  -0.0000061   0.0000026  -0.9383898   0.2893628
0.1051270    -0.9958165  -0.0003890   0.0000087   0.0000372  -0.0000042   0.0000032  -0.9384645   0.2893710
0.1064193    -0.9958270  -0.0002602   0.0000042   0.0000222  -0.0000009  -0.0000043  -0.9385210   0.2892712
0.1077276    -0.9957706  -0.0002157   0.0000140   0.0000309  -0.0000010   0.0000042  -0.9385561   0.2893075
0.1090519    -0.9957281  -0.0002320   0.0000170   0.0000284   0.0000081   0.0000023  -0.9386699   0.2891948
0.1103925    -0.9958110  -0.0002826   0.0000030   0.0000328  -0.0000053  -0.0000082  -0.9386504   0.2892372
0.1117496    -0.9959620  -0.0002770   0.0000093   0.0000260   0.0000070  -0.0000009  -0.9387449   0.2892651
0.1131233    -0.9958742  -0.0002453  -0.0000080   0.0000217  -0.0000109  -0.0000063  -0.9388706   0.2892237
0.1145140    -0.9958746  -0.0002848   0.0000112   0.0000229  -0.0000020  -0.0000139  -0.9389367   0.2893050
0.1159217    -0.9958719  -0.0002544   0.0000201   0.0000393  -0.0000058  -0.0000006  -0.9389502   0.2893045
0.1173468    -0.9958715  -0.0002290  -0.0000009   0.0000368   0.0000043  -0.0000100  -0.9390159   0.2893834
0.1187893    -0.9959164  -0.0002452   0.0000023   0.0000327  -0.0000015  -0.0000112  -0.9391408   0.2894386
0.1202497    -0.9958879  -0.0002173   0.0000094   0.0000343  -0.0000076  -0.0000202  -0.9391425   0.2894774
0.1217279    -0.9957682  -0.0002249   0.0000265   0.0000352   0.0000047   0.0000067  -0.9391774   0.2895602
0.1232243    -0.9958314  -0.0001967   0.0000063   0.0000372  -0.0000059  -0.0000097  -0.9393238   0.2897100
0.1247392    -0.9958695  -0.0002043  -0.0000085   0.0000350  -0.0000005  -0.0000021  -0.9393441   0.2897610
0.1262726    -0.9958673  -0.0001343   0.0000145   0.0000417  -0.0000082  -0.0000107  -0.9393835   0.2898578
0.1278249    -0.9958257  -0.0001160  -0.0000005   0.0000352  -0.0000011  -0.0000062  -0.9393711   0.2899272
0.1293963    -0.9957888  -0.0002002   0.0000204   0.0000307  -0.0000038  -0.0000042  -0.9394349   0.2900448
0.1309870    -0.9958300  -0.0002385  -0.0000040   0.0000343   0.0000004  -0.0000140  -0.9394403   0.2901690
0.1325973    -0.9959814  -0.0002456   0.0000044   0.0000378  -0.0000006   0.0000020  -0.9394429   0.2901727
0.1342273    -0.9958382  -0.0002062   0.0000294   0.0000152  -0.0000030  -0.0000066  -0.9395119   0.2902830
0.1358774    -0.9957438  -0.0002560  -0.0000028   0.0000431  -0.0000045   0.0000028  -0.9394840   0.2904587
0.1375478    -0.9959441  -0.0001821   0.0000037   0.0000251   0.0000041  -0.0000011  -0.9395102   0.2904983
0.1392387    -0.9959151  -0.0001963   0.0000104   0.0000238  -0.0000016  -0.0000030  -0.9394896   0.2906542
0.1409504    -0.9958563  -0.0001709   0.0000012   0.0000482  -0.0000098  -0.0000030  -0.9395416   0.2907525
0.1426831    -0.9958650  -0.0002209   0.0000036   0.0000445  -0.0000051  -0.0000032  -0.9395182   0.2907696
0.1444371    -0.9958237  -0.0001906   0.0000036   0.0000317   0.0000040  -0.0000025  -0.9394529   0.2909111
0.1462127    -0.9958563  -0.0001513  -0.0000008   0.0000308   0.0000011  -0.0000080  -0.9395321   0.2910522
0.1480102    -0.9957991  -0.0001163   0.0000077   0.0000256  -0.0000016  -0.0000117  -0.9394888   0.2911476
0.1498297    -0.9957967  -0.0001732   0.0000068   0.0000412  -0.0000046   0.0000006  -0.9394295   0.2911965
0.1516716    -0.9958489  -0.0002783  -0.0000032   0.0000289  -0.0000031   0.0000037  -0.9394114   0.2913293
0.1535361    -0.9958391  -0.0002861  -0.0000116   0.0000415  -0.0000056  -0.0000089  -0.9394468   0.2914228
0.1554236    -0.9957431  -0.0002548   0.0000179   0.0000431   0.0000006   0.0000022  -0.9394299   0.2915906
0.1573342    -0.9957705  -0.0003514   0.0000074   0.0000555  -0.0000109  -0.0000090  -0.9393141   0.2916879
0.1592684    -0.9959166  -0.0002244   0.0000060   0.0000283   0.0000048   0.0000032  -0.9394186   0.2917255
0.1612263    -0.9957527  -0.0003019   0.0000160   0.0000463   0.0000049  -0.0000010  -0.9393069   0.2918717
0.1632083    -0.9958563  -0.0002161   0.0000130   0.0000543   0.0000052  -0.0000046  -0.9393931   0.2919294
0.1652147    -0.9958387  -0.0001858   0.0000109   0.0000411  -0.0000054   0.0000015  -0.9392935   0.2920767
0.1672457    -0.9958851  -0.0001524   0.0000157   0.0000391   0.0000058  -0.0000092  -0.9392819   0.2921465
0.1693017    -0.9956900  -0.0001888   0.0000005   0.0000468  -0.0000093  -0.0000026  -0.9392562   0.2921591
0.1713829    -0.9957130  -0.0001192   0.0000119   0.0000453  -0.0000062  -0.0000029  -0.9392212   0.2923577
0.1734898    -0.9958614  -0.0002186   0.0000004   0.0000406  -0.0000008   0.0000005  -0.9391912   0.2923584
0.1756225    -0.9957517  -0.0002608   0.0000073   0.0000388   0.0000067  -0.0000024  -0.9391699   0.2925539
0.1777815    -0.9958354  -0.0002563  -0.0000012   0.0000589  -0.0000031  -0.0000086  -0.9390592   0.2925714
0.1799670    -0.9957864  -0.0002834   0.0000131   0.0000400  -0.0000053  -0.0000102  -0.9390654   0.2927581
0.1821794    -0.9958025  -0.0003295   0.0000065   0.0000487   0.0000027  -0.0000042  -0.9390483   0.2928551
0.1844190    -0.9958837  -0.0002579   0.0000279   0.0000515  -0.0000014  -0.0000113  -0.9391059   0.2929285
0.1866861    -0.9958531  -0.0003648   0.0000059   0.0000339  -0.0000025  -0.0000085  -0.9389236   0.2930493
0.1889811    -0.9957477  -0.0003577  -0.0000077   0.0000330  -0.0000052  -0.0000045  -0.9389341   0.2931909
0.1913043    -0.9958557  -0.0002719   0.0000023   0.0000474  -0.0000022  -0.0000077  -0.9389398   0.2931881
0.1936560    -0.9956947  -0.0003393   0.0000097   0.0000453  -0.0000029   0.0000011  -0.9388743   0.2934055
0.1960367    -0.9957637  -0.0002399   0.0000061   0.0000500  -0.0000034  -0.0000113  -0.9388666   0.2935421
0.1984466    -0.9958444  -0.0002847  -0.0000087   0.0000442  -0.0000069  -0.0000007  -0.9388003   0.2935264
0.2008861    -0.9956698  -0.0003343   0.0000006   0.0000369  -0.0000035  -0.0000135  -0.9388468   0.2937072
0.2033557    -0.9957973  -0.0002800   0.0000050   0.0000449  -0.0000017  -0.0000072  -0.9388149   0.2937507
0.2058556    -0.9957202  -0.0003479   0.0000161   0.0000548   0.0000063  -0.0000012  -0.9386165   0.2938308
0.2083862    -0.9957195  -0.0003368   0.0000173   0.0000568  -0.0000007  -0.0000098  -0.9386430   0.2939738
0.2109480    -0.9957055  -0.0003534   0.0000035   0.0000457  -0.0000041   0.0000037  -0.9386125   0.2940661
0.2135412    -0.9958374  -0.0002500   0.0000091   0.0000587   0.0000026  -0.0000099  -0.9385548   0.2941996
0.2161663    -0.9958709  -0.0003791   0.0000126   0.0000522   0.0000069  -0.0000061  -0.9385860   0.2942747
0.2188237    -0.9957539  -0.0002966   0.0000081   0.0000358  -0.0000015  -0.0000051  -0.9385893   0.2944157
0.2215137    -0.9957514  -0.0003361   0.0000227   0.0000560  -0.0000176  -0.0000081  -0.9384733   0.2944849
0.2242369    -0.9957744  -0.0003551   0.0000181   0.0000541  -0.0000093  -0.0000156  -0.9383799   0.2946712
0.2269935    -0.9956877  -0.0003769   0.0000123   0.0000475  -0.0000070  -0.0000102  -0.9383557   0.2947396
0.2297839    -0.9957758  -0.0002675   0.0000116   0.0000528   0.0000008  -0.0000095  -0.9383288   0.2948782
0.2326087    -0.9957724  -0.0003840   0.0000150   0.0000464  -0.0000072  -0.0000042  -0.9383012   0.2949777
0.2354682    -0.9958154  -0.0003270   0.0000099   0.0000579   0.0000062  -0.0000025  -0.9382314   0.2950852
0.2383629    -0.9957420  -0.0002554   0.0000137   0.0000526   0.0000095  -0.0000077  -0.9382402   0.2951383
0.2412932    -0.9958189  -0.0002941   0.0000078   0.0000675  -0.0000204  -0.0000146  -0.9381400   0.2952565
0.2442594    -0.9956155  -0.0003713   0.0000138   0.0000664  -0.0000093   0.0000065  -0.9381314   0.2954319
0.2472622    -0.9957822  -0.0004052   0.0000071   0.0000580  -0.0000034  -0.0000044  -0.9381191   0.2955686
0.2503018    -0.9957224  -0.0003446   0.0000105   0.0000536  -0.0000125  -0.0000093  -0.9379876   0.2957517
0.2533788    -0.9958190  -0.0004036   0.0000092   0.0000585  -0.0000040   0.0000031  -0.9379655   0.2957465
0.2564937    -0.9957849  -0.0003725   0.0000074   0.0000596  -0.0000017  -0.0000116  -0.9379517   0.2958429
0.2596468    -0.9958342  -0.0004115   0.0000049   0.0000563  -0.0000103  -0.0000019  -0.9378675   0.2960615
0.2628387    -0.9957287  -0.0003468   0.0000107   0.0000535   0.0000019   0.0000031  -0.9378421   0.2962113
0.2660699    -0.9957954  -0.0004120  -0.0000036   0.0000607   0.0000030  -0.0000001  -0.9377637   0.2962477
0.2693407    -0.9958379  -0.0003697   0.0000254   0.0000629   0.0000029   0.0000017  -0.9376920   0.2964796
0.2726518    -0.9958086  -0.0003886  -0.0000001   0.0000584   0.0000098  -0.0000065  -0.9376563   0.2965318
0.2760036    -0.9957457  -0.0003810   0.0000147   0.0000722  -0.0000009  -0.0000004  -0.9376370   0.2967253
0.2793966    -0.9957934  -0.0004904  -0.0000045   0.0000721   0.0000015  -0.0000069  -0.9375655   0.2967840
0.2828312    -0.9958448  -0.0004240   0.0000124   0.0000639  -0.0000054  -0.0000065  -0.9375553   0.2969881
0.2863082    -0.9958444  -0.0003642   0.0000143   0.0000590  -0.0000069  -0.0000156  -0.9374514   0.2970842
0.2898278    -0.9957953  -0.0004004   0.0000232   0.0000661   0.0000011  -0.0000148  -0.9373987   0.2972562
0.2933907    -0.9957412  -0.0004299   0.0000013   0.0000771  -0.0000071  -0.0000110  -0.9374491   0.2973166
0.2969975    -0.9957461  -0.0003896   0.0000017   0.0000715   0.0000025  -0.0000002  -0.9373918   0.2974570
0.3006485    -0.9957656  -0.0004961   0.0000010   0.0000721  -0.0000037  -0.0000003  -0.9372446   0.2976492
0.3043445    -0.9956330  -0.0005430   0.0000244   0.0000712   0.0000030  -0.0000090  -0.9372233   0.2977212
0.3080858    -0.9957258  -0.0004503  -0.0000007   0.0000612   0.0000008  -0.0000047  -0.9371217   0.2978439
0.3118732    -0.9957355  -0.0004119   0.0000188   0.0000714  -0.0000029  -0.0000037  -0.9370846   0.2981255
0.3157071    -0.9958589  -0.0004754   0.0000177   0.0000715   0.0000001  -0.0000051  -0.9369519   0.2981806
0.3195882    -0.9956902  -0.0005541   0.0000081   0.0000572  -0.0000056  -0.0000075  -0.9369621   0.2983713
0.3235170    -0.9958408  -0.0005773   0.0000178   0.0000701   0.0000005  -0.0000101  -0.9368877   0.2985743
0.3274941    -0.9957313  -0.0004629   0.0000084   0.0000711  -0.0000171  -0.0000030  -0.9368245   0.2986018
0.3315200    -0.9956922  -0.0005095   0.0000145   0.0000756  -0.0000011  -0.0000002  -0.9366881   0.2987612
0.3355955    -0.9957594  -0.0004525   0.0000119   0.0000809   0.0000024  -0.0000098  -0.9367534   0.2988743
0.3397210    -0.9956044  -0.0005737   0.0000221   0.0000638  -0.0000033  -0.0000140  -0.9366286   0.2991156
0.3438973    -0.9957790  -0.0005384   0.0000066   0.0000759   0.0000025  -0.0000018  -0.9365542   0.2991742
0.3481249    -0.9957000  -0.0005708   0.0000076   0.0000700  -0.0000090  -0.0000003  -0.9365513   0.2993079
0.3524045    -0.9957884  -0.0004957   0.0000065   0.0000795   0.0000071  -0.0000049  -0.9364981   0.2994654
0.3567367    -0.9957915  -0.0005685   0.0000198   0.0000659   0.0000048  -0.0000006  -0.9364733   0.2996630
0.3611221    -0.9957793  -0.0005301   0.0000123   0.0000744  -0.0000009  -0.0000053  -0.9363157   0.2998125
0.3655615    -0.9957200  -0.0005801   0.0000176   0.0000799   0.0000008   0.0000035  -0.9362350   0.2999891
0.3700554    -0.9957873  -0.0006258   0.0000205   0.0000789  -0.0000078   0.0000013  -0.9361766   0.3001423
0.3746046    -0.9958307  -0.0006168   0.0000065   0.0000927  -0.0000074   0.0000052  -0.9360952   0.3002810
0.3792097    -0.9958250  -0.0006090   0.0000100   0.0000843   0.0000027  -0.0000014  -0.9360310   0.3005167
0.3838714    -0.9958781  -0.0006113   0.0000089   0.0000883  -0.0000147   0.0000006  -0.9360487   0.3006684
0.3885905    -0.9957546  -0.0006762   0.0000248   0.0000843   0.0000014  -0.0000025  -0.9359445   0.3008066
0.3933675    -0.9956562  -0.0005587   0.0000198   0.0000729  -0.0000064  -0.0000079  -0.9358374   0.3010662
0.3982033    -0.9958057  -0.0006610   0.0000020   0.0000788   0.0000045  -0.0000028  -0.9357388   0.3011775
0.4030985    -0.9957435  -0.0006987  -0.0000005   0.0000825  -0.0000013  -0.0000019  -0.9356822   0.3013380
0.4080538    -0.9957958  -0.0006654   0.0000100   0.0000916   0.0000088  -0.0000011  -0.9356213   0.3015114
0.4130701    -0.9957028  -0.0006648   0.0000017   0.0000883  -0.0000030  -0.0000011  -0.9354990   0.3017008
0.4181481    -0.9957807  -0.0006571   0.0000148   0.0000862  -0.0000217  -0.0000123  -0.9354835   0.3019167
0.4232885    -0.9958454  -0.0007021   0.0000283   0.0000834   0.0000013  -0.0000042  -0.9353929   0.3020374
0.4284921    -0.9957648  -0.0006929   0.0000296   0.0000867   0.0000050  -0.0000019  -0.9353126   0.3021829
0.4337597    -0.9958327  -0.0007291   0.0000264   0.0000897  -0.0000025  -0.0000129  -0.9351899   0.3024178
0.4390920    -0.9957225  -0.0007112   0.0000163   0.0001050   0.0000014  -0.0000040  -0.9351455   0.3026475
0.4444898    -0.9957673  -0.0006045   0.0000278   0.0000957   0.0000003  -0.0000071  -0.9350953   0.3028394
0.4499541    -0.9958261  -0.0008467   0.0000130   0.0001091   0.0000018   0.0000071  -0.9349420   0.3029515
0.4554854    -0.9956968  -0.0007834  -0.0000011   0.0000968  -0.0000024   0.0000004  -0.9349191   0.3031716
0.4610848    -0.9958917  -0.0007289   0.0000051   0.0000853   0.0000036  -0.0000010  -0.9347462   0.3034583
0.4667531    -0.9958196  -0.0007854  -0.0000028   0.0000939  -0.0000048  -0.0000122  -0.9347264   0.3035858
0.4724910    -0.9958612  -0.0007480   0.0000116   0.0001047   0.0000114  -0.0000039  -0.9345766   0.3037551
0.4782994    -0.9958144  -0.0008199   0.0000196   0.0000915  -0.0000062  -0.0000052  -0.9345650   0.3040264
0.4841793    -0.9958195  -0.0008336   0.0000174   0.0001016   0.0000106   0.0000023  -0.9344129   0.3041643
0.4901314    -0.9957546  -0.0008195   0.0000148   0.0001057   0.0000062  -0.0000086  -0.9344641   0.3044346
0.4961567    -0.9958286  -0.0007830   0.0000315   0.0001038  -0.0000058  -0.0000014  -0.9343045   0.3046205
0.5022561    -0.9956700  -0.0007502   0.0000157   0.0001020  -0.0000017  -0.0000053  -0.9341865   0.3048411
0.5084304    -0.9957594  -0.0008206   0.0000267   0.0000823  -0.0000013  -0.0000019  -0.9340425   0.3051119
0.5146807    -0.9956773  -0.0008496   0.0000082   0.0000952  -0.0000092  -0.0000063  -0.9339961   0.3052493
0.5210078    -0.9957695  -0.0007850   0.0000179   0.0001068   0.0000043  -0.0000041  -0.9338725   0.3054744
0.5274126    -0.9957167  -0.0007574   0.0000265   0.0001063  -0.0000064  -0.0000075  -0.9338402   0.3057256
0.5338963    -0.9957119  -0.0007697   0.0000272   0.0001164   0.0000003   0.0000057  -0.9337405   0.3059158
0.5404596    -0.9958500  -0.0008726   0.0000255   0.0001281  -0.0000084   0.0000050  -0.9336710   0.3062319
0.5471036    -0.9957504  -0.0008680   0.0000252   0.0001181  -0.0000094  -0.0000065  -0.9335276   0.3063257
0.5538292    -0.9958054  -0.0008994   0.0000053   0.0001175   0.0000020  -0.0000054  -0.9334165   0.3066357
0.5606376    -0.9957828  -0.0009333   0.0000115   0.0001182  -0.0000026  -0.0000073  -0.9332411   0.3068205
0.5675297    -0.9957677  -0.0009034   0.0000135   0.0001088  -0.0000022  -0.0000028  -0.9331879   0.3071370
0.5745064    -0.9958156  -0.0009494   0.0000168   0.0001181   0.0000018   0.0000011  -0.9330557   0.3073340
0.5815690    -0.9958436  -0.0009326   0.0000117   0.0001177   0.0000020   0.0000047  -0.9330523   0.3075216
0.5887183    -0.9957204  -0.0010253   0.0000260   0.0001303  -0.0000109  -0.0000114  -0.9328489   0.3077647
0.5959556    -0.9957704  -0.0008594   0.0000189   0.0001280  -0.0000057  -0.0000093  -0.9327533   0.3080503
0.6032818    -0.9958321  -0.0009077   0.0000081   0.0001199  -0.0000051  -0.0000031  -0.9326622   0.3083318
0.6106981    -0.9958146  -0.0009879   0.0000153   0.0001336   0.0000033  -0.0000101  -0.9325332   0.3086434
0.6182056    -0.9958255  -0.0010168   0.0000258   0.0001255   0.0000045  -0.0000047  -0.9324797   0.3087512
0.6258053    -0.9957895  -0.0009517   0.0000219   0.0001231  -0.0000036   0.0000009  -0.9323100   0.3090988
0.6334985    -0.9958622  -0.0010345   0.0000087   0.0001370   0.0000043  -0.0000057  -0.9322906   0.3093580
0.6412862    -0.9958276  -0.0010776   0.0000223   0.0001199  -0.0000087  -0.0000039  -0.9320162   0.3096498
0.6491697    -0.9958122  -0.0010828   0.0000226   0.0001345  -0.0000025   0.0000017  -0.9320639   0.3099768
0.6571501    -0.9957877  -0.0011224   0.0000179   0.0001262  -0.0000156  -0.0000076  -0.9318527   0.3101546
0.6652286    -0.9958136  -0.0011082   0.0000237   0.0001346   0.0000013  -0.0000025  -0.9317385   0.3105023
0.6734064    -0.9958376  -0.0010693   0.0000268   0.0001583  -0.0000007  -0.0000128  -0.9316249   0.3107810
0.6816848    -0.9958334  -0.0010503   0.0000137   0.0001536  -0.0000108  -0.0000052  -0.9314518   0.3109770
0.6900649    -0.9958598  -0.0011358   0.0000280   0.0001469  -0.0000001  -0.0000024  -0.9313558   0.3112493
0.6985480    -0.9958106  -0.0010633   0.0000212   0.0001395  -0.0000011  -0.0000022  -0.9312130   0.3116300
0.7071355    -0.9957774  -0.0011428   0.0000186   0.0001448   0.0000024  -0.0000047  -0.9311384   0.3119213
0.7158284    -0.9959376  -0.0010835   0.0000050   0.0001382   0.0000018  -0.0000044  -0.9310515   0.3121998
0.7246283    -0.9957982  -0.0011585   0.0000131   0.0001546  -0.0000065  -0.0000022  -0.9308397   0.3124587
0.7335363    -0.9956740  -0.0011475   0.0000244   0.0001442   0.0000072  -0.0000030  -0.9308036   0.3127722
0.7425539    -0.9957768  -0.0011455   0.0000202   0.0001403  -0.0000014  -0.0000051  -0.9306783   0.3131388
0.7516822    -0.9957707  -0.0011005   0.0000162   0.0001552  -0.0000061   0.0000039  -0.9304417   0.3133883
0.7609229    -0.9958083  -0.0012195   0.0000227   0.0001442  -0.0000108  -0.0000073  -0.9302693   0.3136903
0.7702771    -0.9957039  -0.0013138   0.0000104   0.0001629   0.0000060  -0.0000118  -0.9301103   0.3139566
0.7797463    -0.9958015  -0.0011874   0.0000312   0.0001492  -0.0000053  -0.0000039  -0.9299867   0.3143409
0.7893319    -0.9957199  -0.0012014  -0.0000010   0.0001599  -0.0000011  -0.0000039  -0.9298566   0.3146606
0.7990353    -0.9957306  -0.0013870   0.0000060   0.0001449   0.0000108   0.0000006  -0.9297423   0.3149845
0.8088580    -0.9958782  -0.0012810   0.0000170   0.0001591  -0.0000011  -0.0000043  -0.9295781   0.3153214
0.8188015    -0.9957822  -0.0013446   0.0000310   0.0001748  -0.0000041  -0.0000032  -0.9294537   0.3156519
0.8288673    -0.9957524  -0.0013516   0.0000265   0.0001501  -0.0000032  -0.0000065  -0.9292674   0.3159989
0.8390567    -0.9958242  -0.0013273   0.0000221   0.0001687   0.0000029  -0.0000167  -0.9291964   0.3163791
0.8493714    -0.9957670  -0.0013619   0.0000432   0.0001666   0.0000081  -0.0000012  -0.9290133   0.3166715
0.8598130    -0.9957336  -0.0013015   0.0000213   0.0001617   0.0000073  -0.0000083  -0.9288463   0.3170546
0.8703829    -0.9957494  -0.0014054   0.0000222   0.0001789   0.0000037  -0.0000044  -0.9286617   0.3173866
0.8810827    -0.9957972  -0.0013926   0.0000207   0.0001635  -0.0000029  -0.0000054  -0.9285109   0.3178376
0.8919140    -0.9958215  -0.0014723   0.0000224   0.0001800   0.0000023  -0.0000108  -0.9283561   0.3181357
0.9028786    -0.9958107  -0.0014117   0.0000231   0.0001701  -0.0000092   0.0000004  -0.9281942   0.3185210
0.9139779    -0.9958523  -0.0014308   0.0000168   0.0001666  -0.0000026  -0.0000067  -0.9280326   0.3189216
0.9252136    -0.9958172  -0.0014912   0.0000177   0.0001782  -0.0000001  -0.0000139  -0.9278553   0.3192816
0.9365875    -0.9957935  -0.0015586   0.0000216   0.0001866  -0.0000034   0.0000006  -0.9276938   0.3196557
0.9481012    -0.9957228  -0.0014304   0.0000222   0.0001958  -0.0000017  -0.0000055  -0.9275186   0.3200543
0.9597564    -0.9958714  -0.0015120   0.0000194   0.0001738  -0.0000017  -0.0000023  -0.9273121   0.3204456
0.9715549    -0.9957613  -0.0015845   0.0000288   0.0002030  -0.0000036  -0.0000012  -0.9271461   0.3208858
0.9834985    -0.9957624  -0.0016128   0.0000198   0.0001872  -0.0000065  -0.0000013  -0.9270109   0.3212321
0.9955889    -0.9957487  -0.0016550   0.0000283   0.0001940  -0.0000032  -0.0000050  -0.9268638   0.3216050
1.0078279    -0.9958869  -0.0015957   0.0000033   0.0002099   0.0000107  -0.0000079  -0.9265545   0.3220619
1.0202173    -0.9957711  -0.0016721   0.0000194   0.0002026   0.0000011  -0.0000053  -0.9264578   0.3224213
1.0327591    -0.9958867  -0.0016674   0.0000198   0.0002104  -0.0000039  -0.0000004  -0.9262505   0.3229331
1.0454551    -0.9957365  -0.0016585   0.0000282   0.0002194   0.0000008  -0.0000101  -0.9260666   0.3233381
1.0583071    -0.9957751  -0.0016928   0.0000253   0.0002044  -0.0000013   0.0000049  -0.9258682   0.3237213
1.0713171    -0.9958206  -0.0017758   0.0000068   0.0002238  -0.0000064   0.0000018  -0.9255917   0.3241481
1.0844871    -0.9958314  -0.0017454   0.0000148   0.0002206  -0.0000048   0.0000027  -0.9254617   0.3245377
1.0978189    -0.9957397  -0.0018446   0.0000134   0.0002191   0.0000007   0.0000068  -0.9252756   0.3250599
1.1113147    -0.9958254  -0.0016673   0.0000282   0.0002119  -0.0000006  -0.0000055  -0.9250334   0.3254274
1.1249763    -0.9957601  -0.0017410   0.0000244   0.0002159  -0.0000013  -0.0000018  -0.9248774   0.3259905
1.1388059    -0.9957295  -0.0018511   0.0000148   0.0002256  -0.0000019  -0.0000060  -0.9247198   0.3264517
1.1528056    -0.9958721  -0.0018254   0.0000193   0.0002272  -0.0000044  -0.0000036  -0.9244583   0.3268988
1.1669773    -0.9958709  -0.0018916   0.0000168   0.0002404  -0.0000009  -0.0000082  -0.9242727   0.3273953
1.1813232    -0.9958276  -0.0018882   0.0000410   0.0002302  -0.0000031  -0.0000048  -0.9240773   0.3278585
1.1958455    -0.9958088  -0.0019055   0.0000232   0.0002392   0.0000009   0.0000004  -0.9238039   0.3283554
1.2105463    -0.9957815  -0.0019422   0.0000228   0.0002312  -0.0000031  -0.0000085  -0.9236208   0.3288517
1.2254278    -0.9958152  -0.0019330   0.0000283   0.0002221  -0.0000064   0.0000002  -0.9233540   0.3293477
1.2404923    -0.9957836  -0.0020247   0.0000306   0.0002445   0.0000005  -0.0000006  -0.9232183   0.3298264
1.2557420    -0.9958151  -0.0019481   0.0000307   0.0002471   0.0000060  -0.0000034  -0.9229541   0.3303611
1.2711791    -0.9958774  -0.0020984   0.0000125   0.0002342   0.0000058   0.0000032  -0.9226769   0.3308420
1.2868060    -0.9958393  -0.0020640   0.0000177   0.0002363  -0.0000086   0.0000018  -0.9224299   0.3313969
1.3026251    -0.9957917  -0.0020774   0.0000227   0.0002425   0.0000010  -0.0000178  -0.9221532   0.3319239
1.3186385    -0.9959084  -0.0020979   0.0000323   0.0002623  -0.0000032  -0.0000001  -0.9219294   0.3324706
1.3348489    -0.9958861  -0.0021274   0.0000215   0.0002641  -0.0000022  -0.0000067  -0.9217568   0.3330027
1.3512585    -0.9958282  -0.0022213   0.0000316   0.0002693  -0.0000067  -0.0000152  -0.9214508   0.3335168
1.3678698    -0.9958307  -0.0021744   0.0000263   0.0002629  -0.0000091  -0.0000157  -0.9212825   0.3340755
1.3846854    -0.9957343  -0.0022861   0.0000187   0.0002488   0.0000027  -0.0000135  -0.9210106   0.3347380
1.4017077    -0.9957925  -0.0022913   0.0000323   0.0002669   0.0000041   0.0000045  -0.9207423   0.3352204
1.4189392    -0.9958027  -0.0023686   0.0000381   0.0002628   0.0000006   0.0000001  -0.9205003   0.3357456
1.4363825    -0.9958083  -0.0022436   0.0000168   0.0002653  -0.0000072  -0.0000012  -0.9202484   0.3363581
1.4540403    -0.9958422  -0.0023269   0.0000371   0.0002795  -0.0000064  -0.0000011  -0.9199559   0.3369570
1.4719152    -0.9958787  -0.0023515   0.0000177   0.0002875   0.0000078   0.0000075  -0.9197156   0.3376479
1.4900098    -0.9957860  -0.0023782   0.0000290   0.0002919   0.0000059  -0.0000025  -0.9193985   0.3381595
1.5083269    -0.9958055  -0.0023940   0.0000318   0.0002782  -0.0000053   0.0000013  -0.9191216   0.3387463
1.5268691    -0.9957981  -0.0023711   0.0000280   0.0002848   0.0000075  -0.0000016  -0.9188447   0.3393919
1.5456392    -0.9958149  -0.0023825   0.0000429   0.0002982  -0.0000034  -0.0000016  -0.9186352   0.3399954
1.5646402    -0.9957690  -0.0025796   0.0000306   0.0002938   0.0000027  -0.0000022  -0.9183255   0.3407034
1.5838747    -0.9957898  -0.0024857   0.0000136   0.0003040  -0.0000058   0.0000018  -0.9180071   0.3413056
1.6033456    -0.9958264  -0.0025409   0.0000290   0.0002992  -0.0000038   0.0000005  -0.9178175   0.3419714
1.6230559    -0.9957889  -0.0026128   0.0000281   0.0002989   0.0000040  -0.0000088  -0.9174998   0.3426997
1.6430085    -0.9958247  -0.0025767   0.0000353   0.0002979  -0.0000092  -0.0000087  -0.9171685   0.3433497
1.6632064    -0.9958071  -0.0026942   0.0000340   0.0003072  -0.0000108  -0.0000073  -0.9168588   0.3440620
1.6836526    -0.9958832  -0.0025863   0.0000288   0.0003246   0.0000037  -0.0000099  -0.9166106   0.3447857
1.7043502    -0.9957735  -0.0027564   0.0000266   0.0003111   0.0000002  -0.0000113  -0.9161800   0.3455200
1.7253021    -0.9958537  -0.0027223   0.0000269   0.0003283  -0.0000079  -0.0000040  -0.9159925   0.3461715
1.7465117    -0.9957677  -0.0028407   0.0000362   0.0003226   0.0000025  -0.0000055  -0.9157903   0.3469968
1.7679820    -0.9958294  -0.0028468   0.0000253   0.0003146  -0.0000045   0.0000031  -0.9154066   0.3477171
1.7897162    -0.9958861  -0.0028481   0.0000321   0.0003399  -0.0000016  -0.0000074  -0.9151174   0.3484560
1.8117176    -0.9957974  -0.0029564   0.0000300   0.0003565  -0.0000088  -0.0000035  -0.9147761   0.3493066
1.8339895    -0.9958138  -0.0029094   0.0000353   0.0003506  -0.0000118  -0.0000034  -0.9144893   0.3500739
1.8565352    -0.9957176  -0.0029286   0.0000266   0.0003545  -0.0000061  -0.0000007  -0.9141587   0.3508992
1.8793580    -0.9958463  -0.0030219   0.0000294   0.0003416   0.0000050  -0.0000067  -0.9138773   0.3516445
1.9024614    -0.9958821  -0.0031268   0.0000345   0.0003553   0.0000034   0.0000019  -0.9136433   0.3524820
1.9258488    -0.9958091  -0.0032012   0.0000355   0.0003613  -0.0000040  -0.0000066  -0.9132013   0.3533232
1.9495237    -0.9959110  -0.0031345   0.0000262   0.0003584  -0.0000036  -0.0000086  -0.9128573   0.3542622
1.9734897    -0.9957342  -0.0031395   0.0000270   0.0003719  -0.0000027  -0.0000027  -0.9124967   0.3551210
1.9977503    -0.9958101  -0.0031774   0.0000377   0.0003698  -0.0000022  -0.0000100  -0.9121862   0.3560367
2.0223091    -0.9958374  -0.0032033   0.0000381   0.0003842   0.0000036  -0.0000066  -0.9117146   0.3569520
2.0471698    -0.9958650  -0.0032201   0.0000213   0.0003692   0.0000021  -0.0000058  -0.9112576   0.3578717
2.0723362    -0.9958011  -0.0033194   0.0000321   0.0003893  -0.0000052  -0.0000109  -0.9108508   0.3587810
2.0978119    -0.9959405  -0.0033462   0.0000188   0.0003943  -0.0000046  -0.0000081  -0.9103719   0.3597379
2.1236008    -0.9958238  -0.0034358   0.0000312   0.0004014  -0.0000093  -0.0000004  -0.9098752   0.3606545
2.1497067    -0.9958512  -0.0034984   0.0000296   0.0003958  -0.0000046  -0.0000022  -0.9093895   0.3616367
2.1761336    -0.9959288  -0.0035055   0.0000460   0.0004052  -0.0000068  -0.0000094  -0.9089004   0.3624516
2.2028853    -0.9957871  -0.0034573   0.0000255   0.0004205  -0.0000069  -0.0000036  -0.9082573   0.3634525
2.2299659    -0.9959292  -0.0036295   0.0000355   0.0004116  -0.0000041  -0.0000103  -0.9079217   0.3643863
2.2573794    -0.9958555  -0.0036078   0.0000333   0.0004248  -0.0000005   0.0000045  -0.9073349   0.3653268
2.2851299    -0.9958795  -0.0036516   0.0000284   0.0004196  -0.0000203  -0.0000078  -0.9067572   0.3662666
2.3132216    -0.9958399  -0.0037675   0.0000215   0.0004202  -0.0000061  -0.0000051  -0.9062437   0.3671181
2.3416586    -0.9957916  -0.0038491   0.0000377   0.0004444   0.0000013  -0.0000147  -0.9056892   0.3680784
2.3704451    -0.9960115  -0.0038139   0.0000174   0.0004306  -0.0000051  -0.0000091  -0.9051684   0.3691096
2.3995856    -0.9958603  -0.0039127   0.0000406   0.0004473  -0.0000066  -0.0000082  -0.9045189   0.3700807
2.4290843    -0.9958629  -0.0037889   0.0000408   0.0004462  -0.0000003  -0.0000136  -0.9041214   0.3709168
2.4589456    -0.9958221  -0.0038999   0.0000356   0.0004666  -0.0000015  -0.0000055  -0.9035454   0.3719175
2.4891740    -0.9959044  -0.0040617   0.0000352   0.0004498   0.0000065   0.0000046  -0.9030067   0.3729132
2.5197740    -0.9958446  -0.0041124   0.0000361   0.0004538  -0.0000101  -0.0000049  -0.9025121   0.3739415
2.5507502    -0.9958244  -0.0040339   0.0000344   0.0004552  -0.0000041   0.0000006  -0.9019500   0.3748543
2.5821072    -0.9959400  -0.0041201   0.0000306   0.0004676   0.0000005  -0.0000009  -0.9013914   0.3758758
2.6138496    -0.9958743  -0.0040984   0.0000292   0.0004780  -0.0000073  -0.0000027  -0.9007222   0.3768633
2.6459823    -0.9959162  -0.0043238   0.0000292   0.0004763  -0.0000029   0.0000048  -0.9001987   0.3779199
2.6785100    -0.9958943  -0.0043442   0.0000365   0.0004961  -0.0000082  -0.0000121  -0.8996597   0.3790409
2.7114376    -0.9958311  -0.0044171   0.0000376   0.0005104  -0.0000063  -0.0000062  -0.8990225   0.3800620
2.7447699    -0.9958691  -0.0044735   0.0000366   0.0005128   0.0000017  -0.0000063  -0.8984440   0.3810689
2.7785120    -0.9959818  -0.0043843   0.0000289   0.0005042  -0.0000026  -0.0000068  -0.8978285   0.3821643
2.8126689    -0.9958471  -0.0044967   0.0000524   0.0005118  -0.0000122   0.0000035  -0.8973122   0.3833147
2.8472457    -0.9959015  -0.0046378   0.0000372   0.0005283  -0.0000035  -0.0000070  -0.8967607   0.3844286
2.8822476    -0.9958544  -0.0047154   0.0000303   0.0005309   0.0000060   0.0000022  -0.8961782   0.3855124
2.9176798    -0.9958087  -0.0047453   0.0000335   0.0005471  -0.0000007  -0.0000141  -0.8955195   0.3866086
2.9535475    -0.9959355  -0.0048492   0.0000220   0.0005508  -0.0000058  -0.0000054  -0.8949483   0.3878070
2.9898562    -0.9959369  -0.0048377   0.0000466   0.0005481  -0.0000028  -0.0000049  -0.8942470   0.3890268
3.0266112    -0.9958141  -0.0049416   0.0000407   0.0005557  -0.0000014  -0.0000102  -0.8936296   0.3901293
3.0638180    -0.9958136  -0.0049442   0.0000316   0.0005626  -0.0000027  -0.0000106  -0.8929854   0.3913348
3.1014823    -0.9959244  -0.0049368   0.0000313   0.0005617   0.0000122   0.0000001  -0.8923790   0.3926033
3.1396096    -0.9959273  -0.0051091   0.0000445   0.0005668   0.0000007  -0.0000151  -0.8916534   0.3937399
3.1782055    -0.9960009  -0.0052127   0.0000484   0.0005836  -0.0000052  -0.0000060  -0.8910269   0.3950064
3.2172760    -0.9958533  -0.0052191   0.0000339   0.0005870  -0.0000021  -0.0000025  -0.8903442   0.3962763
3.2568267    -0.9959334  -0.0053032   0.0000274   0.0005857   0.0000000   0.0000010  -0.8897056   0.3975141
3.2968637    -0.9959271  -0.0052666   0.0000339   0.0006101   0.0000079  -0.0000071  -0.8889123   0.3988380
3.3373928    -0.9958349  -0.0054700   0.0000431   0.0006078  -0.0000055  -0.0000043  -0.8882090   0.4000991
3.3784202    -0.9959107  -0.0054813   0.0000391   0.0006102   0.0000017  -0.0000115  -0.8874257   0.4014749
3.4199519    -0.9960284  -0.0055505   0.0000466   0.0006193  -0.0000018  -0.0000072  -0.8867184   0.4027799
3.4619942    -0.9958742  -0.0056030   0.0000322   0.0006298   0.0000094  -0.0000015  -0.8859021   0.4040620
3.5045533    -0.9959528  -0.0055942   0.0000307   0.0006519  -0.0000130  -0.0000043  -0.8851955   0.4055343
3.5476356    -0.9959406  -0.0056777   0.0000446   0.0006495  -0.0000032  -0.0000072  -0.8844131   0.4068135
3.5912475    -0.9959593  -0.0057710   0.0000295   0.0006566   0.0000050  -0.0000068  -0.8835820   0.4081858
3.6353956    -0.9959002  -0.0058595   0.0000405   0.0006709  -0.0000033   0.0000033  -0.8828196   0.4096963
3.6800864    -0.9959819  -0.0060273   0.0000299   0.0006736  -0.0000019  -0.0000012  -0.8820544   0.4111741
3.7253266    -0.9960015  -0.0060486   0.0000455   0.0006874  -0.0000012   0.0000029  -0.8812237   0.4125975
3.7711229    -0.9959387  -0.0060922   0.0000276   0.0006831   0.0000036  -0.0000073  -0.8804596   0.4140384
3.8174822    -0.9959687  -0.0061502   0.0000447   0.0006945   0.0000054  -0.0000037  -0.8795996   0.4154965
3.8644115    -0.9959682  -0.0062802   0.0000311   0.0007056  -0.0000027  -0.0000005  -0.8788628   0.4170898
3.9119176    -0.9959728  -0.0064160   0.0000432   0.0007205   0.0000050  -0.0000047  -0.8780034   0.4186069
3.9600077    -0.9960031  -0.0064372   0.0000557   0.0007296  -0.0000003  -0.0000106  -0.8772529   0.4201030
4.0086890    -0.9959112  -0.0064603   0.0000261   0.0007199  -0.0000001  -0.0000011  -0.8762245   0.4216955
4.0579688    -0.9959170  -0.0065885   0.0000446   0.0007283   0.0000105  -0.0000087  -0.8753939   0.4232443
4.1078544    -0.9959789  -0.0066311   0.0000395   0.0007565   0.0000009  -0.0000062  -0.8745147   0.4247613
4.1583532    -0.9959459  -0.0066040   0.0000463   0.0007466  -0.0000076  -0.0000134  -0.8735491   0.4263804
4.2094729    -0.9960185  -0.0067692   0.0000341   0.0007704  -0.0000130  -0.0000085  -0.8727399   0.4279787
4.2612209    -0.9958973  -0.0069039   0.0000436   0.0007729   0.0000049  -0.0000003  -0.8717528   0.4295703
4.3136051    -0.9959347  -0.0069923   0.0000353   0.0007871   0.0000094  -0.0000038  -0.8707551   0.4312195
4.3666333    -0.9959976  -0.0072074   0.0000351   0.0007959  -0.0000042  -0.0000094  -0.8698497   0.4329018
4.4203134    -0.9960365  -0.0071513   0.0000393   0.0007995  -0.0000094  -0.0000055  -0.8687537   0.4345216
4.4746534    -0.9959219  -0.0071976   0.0000436   0.0008103  -0.0000100  -0.0000040  -0.8676684   0.4362446
4.5296613    -0.9959397  -0.0073509   0.0000377   0.0008209  -0.0000140  -0.0000062  -0.8666960   0.4379928
4.5853455    -0.9960052  -0.0073963   0.0000389   0.0008181   0.0000126  -0.0000056  -0.8655878   0.4397037
4.6417143    -0.9959547  -0.0074514   0.0000422   0.0008471   0.0000038  -0.0000010  -0.8644354   0.4412928
4.6987760    -0.9959622  -0.0076041   0.0000471   0.0008574  -0.0000146  -0.0000077  -0.8633619   0.4429503
4.7565392    -0.9959444  -0.0076508   0.0000678   0.0008673  -0.0000048  -0.0000118  -0.8622112   0.4446939
4.8150125    -0.9959462  -0.0077593   0.0000361   0.0008804   0.0000012  -0.0000054  -0.8610678   0.4463435
4.8742045    -0.9959718  -0.0078943   0.0000494   0.0008912   0.0000013  -0.0000100  -0.8598778   0.4479819
4.9341243    -0.9959986  -0.0079387   0.0000583   0.0008887  -0.0000079  -0.0000109  -0.8588102   0.4494953
4.9947807    -0.9960616  -0.0081052   0.0000559   0.0008959  -0.0000006  -0.0000013  -0.8578174   0.4510817
5.0561827    -0.9960437  -0.0082277   0.0000531   0.0009196  -0.0000007  -0.0000055  -0.8568059   0.4527803
5.1183396    -0.9960089  -0.0082928   0.0000451   0.0009219   0.0000014  -0.0000067  -0.8558557   0.4544847
5.1812606    -0.9959497  -0.0083752   0.0000401   0.0009279   0.0000041   0.0000007  -0.8549632   0.4562606
5.2449550    -0.9960542  -0.0086000   0.0000314   0.0009439  -0.0000038  -0.0000165  -0.8540537   0.4582926
5.3094325    -0.9960745  -0.0086594   0.0000445   0.0009600  -0.0000002  -0.0000129  -0.8530595   0.4601084
5.3747026    -0.9959470  -0.0087038   0.0000446   0.0009735  -0.0000032  -0.0000010  -0.8520304   0.4623129
5.4407751    -0.9959007  -0.0087685   0.0000395   0.0009816   0.0000050  -0.0000045  -0.8508710   0.4642557
5.5076599    -0.9960496  -0.0088947   0.0000369   0.0009797  -0.0000117  -0.0000096  -0.8497691   0.4663224
5.5753669    -0.9959841  -0.0089488   0.0000368   0.0009999   0.0000046  -0.0000046  -0.8485973   0.4684798
5.6439062    -0.9960173  -0.0091988   0.0000566   0.0010088   0.0000020  -0.0000020  -0.8474325   0.4705647
5.7132881    -0.9959237  -0.0092148   0.0000576   0.0010232  -0.0000053  -0.0000021  -0.8461542   0.4727491
5.7835229    -0.9960185  -0.0093041   0.0000393   0.0010290   0.0000120  -0.0000015  -0.8448744   0.4749231
5.8546211    -0.9959949  -0.0095225   0.0000555   0.0010557   0.0000019  -0.0000059  -0.8436650   0.4771559
5.9265934    -0.9960264  -0.0095721   0.0000432   0.0010558   0.0000031  -0.0000032  -0.8422969   0.4793258
5.9994504    -0.9959957  -0.0097273   0.0000442   0.0010758  -0.0000047  -0.0000054  -0.8409209   0.4814409
6.0732031    -0.9960192  -0.0099590   0.0000357   0.0010847  -0.0000113  -0.0000100  -0.8395623   0.4836481
6.1478624    -0.9959398  -0.0099777   0.0000429   0.0010839   0.0000063  -0.0000045  -0.8381859   0.4858738
6.2234396    -0.9959963  -0.0100576   0.0000376   0.0011229  -0.0000013  -0.0000036  -0.8366054   0.4881844
6.2999458    -0.9960519  -0.0102208   0.0000492   0.0011213  -0.0000015  -0.0000074  -0.8352632   0.4904485
6.3773925    -0.9960217  -0.0103873   0.0000486   0.0011372  -0.0000065  -0.0000109  -0.8337530   0.4927246
6.4557914    -0.9959331  -0.0105536   0.0000399   0.0011631   0.0000019  -0.0000044  -0.8322471   0.4949631
6.5351539    -0.9960371  -0.0106369   0.0000435   0.0011673  -0.0000016   0.0000001  -0.8307492   0.4973691
6.6154922    -0.9960116  -0.0107144   0.0000516   0.0011739   0.0000017  -0.0000067  -0.8291662   0.4997310
6.6968180    -0.9960615  -0.0108471   0.0000413   0.0012068  -0.0000013  -0.0000054  -0.8275994   0.5021189
6.7791436    -0.9959802  -0.0110424   0.0000455   0.0012104  -0.0000036  -0.0000061  -0.8260330   0.5044637
6.8624812    -0.9959749  -0.0111649   0.0000456   0.0012314  -0.0000017  -0.0000108  -0.8244187   0.5069328
6.9468433    -0.9959871  -0.0113251   0.0000355   0.0012411  -0.0000075   0.0000006  -0.8228260   0.5093485
7.0322425    -0.9960225  -0.0114643   0.0000399   0.0012618  -0.0000001  -0.0000017  -0.8211146   0.5118158
7.1186916    -0.9958477  -0.0115097   0.0000589   0.0012843   0.0000055  -0.0000068  -0.8194095   0.5143454
7.2062034    -0.9960456  -0.0117175   0.0000462   0.0012952  -0.0000054  -0.0000028  -0.8176992   0.5169044
7.2947909    -0.9959821  -0.0118775   0.0000497   0.0012837  -0.0000060  -0.0000003  -0.8159561   0.5194736
7.3844675    -0.9959695  -0.0120177   0.0000482   0.0013349  -0.0000109  -0.0000018  -0.8142863   0.5220747
7.4752466    -0.9959894  -0.0121787   0.0000447   0.0013421   0.0000062  -0.0000064  -0.8124937   0.5246904
7.5671416    -0.9960563  -0.0123281   0.0000378   0.0013568  -0.0000101   0.0000033  -0.8107805   0.5273408
7.6601662    -0.9960319  -0.0124202   0.0000512   0.0013739  -0.0000032  -0.0000058  -0.8089321   0.5300260
7.7543345    -0.9960040  -0.0126030   0.0000520   0.0013882  -0.0000011  -0.0000027  -0.8070409   0.5328550
7.8496604    -0.9959866  -0.0127990   0.0000627   0.0013945  -0.0000081  -0.0000079  -0.8052010   0.5356596
7.9461581    -0.9960508  -0.0128464   0.0000513   0.0014108  -0.0000041  -0.0000001  -0.8031845   0.5385086
8.0438422    -0.9959525  -0.0131315   0.0000526   0.0014464  -0.0000019   0.0000034  -0.8012046   0.5413537
8.1427270    -0.9960221  -0.0133464   0.0000558   0.0014472   0.0000042   0.0000010  -0.7990345   0.5443276
8.2428275    -0.9959319  -0.0132525   0.0000421   0.0014741   0.0000016   0.0000028  -0.7968067   0.5471867
8.3441586    -0.9960175  -0.0135111   0.0000587   0.0014796  -0.0000017   0.0000017  -0.7946318   0.5499687
8.4467353    -0.9959902  -0.0137170   0.0000511   0.0015120   0.0000085  -0.0000037  -0.7923743   0.5529673
8.5505731    -0.9960218  -0.0137524   0.0000536   0.0015139   0.0000036  -0.0000037  -0.7900742   0.5557386
8.6556873    -0.9958998  -0.0140775   0.0000426   0.0015559   0.0000022  -0.0000069  -0.7877981   0.5586649
8.7620937    -0.9959809  -0.0142062   0.0000395   0.0015466  -0.0000146  -0.0000022  -0.7855033   0.5615264
8.8698082    -0.9960434  -0.0144043   0.0000330   0.0015837   0.0000006  -0.0000076  -0.7831491   0.5644380
8.9788469    -0.9959376  -0.0145659   0.0000595   0.0015870   0.0000057  -0.0000060  -0.7808526   0.5673655
9.0892260    -0.9960149  -0.0147114   0.0000431   0.0016247  -0.0000017  -0.0000065  -0.7784899   0.5703176
9.2009621    -0.9960227  -0.0149480   0.0000525   0.0016328  -0.0000012  -0.0000011  -0.7759998   0.5733714
9.3140717    -0.9960162  -0.0151453   0.0000390   0.0016660   0.0000038   0.0000058  -0.7735743   0.5763568
9.4285718    -0.9959800  -0.0152141   0.0000414   0.0016835  -0.0000053  -0.0000121  -0.7711036   0.5794398
9.5444795    -0.9960237  -0.0155643   0.0000457   0.0016934  -0.0000082   0.0000062  -0.7685506   0.5825374
9.6618121    -0.9959966  -0.0157260   0.0000525   0.0017168   0.0000018  -0.0000043  -0.7660223   0.5856292
9.7805870    -0.9959577  -0.0159059   0.0000413   0.0017376   0.0000009   0.0000032  -0.7634060   0.5888029
9.9008221    -0.9960770  -0.0161239   0.0000379   0.0017478   0.0000039  -0.0000012  -0.7607542   0.5920226
10.0225353   -0.9960100  -0.0162982   0.0000394   0.0017774  -0.0000049  -0.0000083  -0.7581033   0.5951324
10.1457447   -0.9960047  -0.0164064   0.0000535   0.0017855  -0.0000039  -0.0000058  -0.7553612   0.5984296
10.2704688   -0.9959780  -0.0166617   0.0000424   0.0018276  -0.0000041  -0.0000085  -0.7526769   0.6017045
10.3967261   -0.9960377  -0.0168766   0.0000385   0.0018268  -0.0000061  -0.0000066  -0.7498397   0.6050384
10.5245356   -0.9959877  -0.0171153   0.0000506   0.0018717  -0.0000079  -0.0000076  -0.7469667   0.6082174
10.6539162   -0.9961061  -0.0173018   0.0000566   0.0018988   0.0000029   0.0000029  -0.7440703   0.6115378
10.7848873   -0.9959784  -0.0175672   0.0000501   0.0019095   0.0000005  -0.0000063  -0.7411368   0.6149778
10.9174685   -0.9959582  -0.0176648   0.0000395   0.0019403  -0.0000070  -0.0000035  -0.7381281   0.6183689
11.0516796   -0.9960076  -0.0179904   0.0000470   0.0019455  -0.0000045   0.0000037  -0.7349763   0.6217995
11.1875405   -0.9959690  -0.0181653   0.0000544   0.0019747   0.0000009  -0.0000076  -0.7319551   0.6253218
11.3250716   -0.9959897  -0.0183472   0.0000350   0.0019951  -0.0000013  -0.0000002  -0.7288001   0.6287838
11.4642934   -0.9959767  -0.0186207   0.0000506   0.0020197  -0.0000070  -0.0000020  -0.7255736   0.6322627
11.6052267   -0.9960064  -0.0188253   0.0000458   0.0020618  -0.0000104  -0.0000051  -0.7223402   0.6358978
11.7478926   -0.9958822  -0.0189697   0.0000496   0.0020719  -0.0000036   0.0000009  -0.7190147   0.6394037
11.8923122   -0.9960085  -0.0192738   0.0000405   0.0020985   0.0000007   0.0000002  -0.7156511   0.6429700
12.0385073   -0.9958874  -0.0195533   0.0000639   0.0021356  -0.0000075  -0.0000003  -0.7121713   0.6466395
12.1864995   -0.9960072  -0.0197523   0.0000354   0.0021483  -0.0000044  -0.0000095  -0.7086981   0.6502674
12.3363111   -0.9959936  -0.0200064   0.0000455   0.0021789  -0.0000098  -0.0000015  -0.7052440   0.6539590
12.4879643   -0.9959271  -0.0203541   0.0000443   0.0022006  -0.0000047  -0.0000026  -0.7015574   0.6576797
12.6414818   -0.9959422  -0.0205252   0.0000329   0.0022344   0.0000050  -0.0000068  -0.6978449   0.6613944
12.7968866   -0.9960307  -0.0207323   0.0000364   0.0022461   0.0000019  -0.0000131  -0.6941116   0.6651428
12.9542018   -0.9958490  -0.0210415   0.0000465   0.0022956   0.0000027   0.0000004  -0.6903715   0.6689079
13.1134509   -0.9958686  -0.0212655   0.0000397   0.0023050  -0.0000100  -0.0000035  -0.6864955   0.6727020
13.2746577   -0.9959657  -0.0215655   0.0000310   0.0023329  -0.0000033  -0.0000037  -0.6825288   0.6765492
13.4378462   -0.9959291  -0.0217539   0.0000258   0.0023668   0.0000116  -0.0000093  -0.6785797   0.6805044
13.6030409   -0.9958961  -0.0221310   0.0000402   0.0023965   0.0000024  -0.0000091  -0.6744924   0.6843455
13.7702663   -0.9959262  -0.0223778   0.0000373   0.0024240  -0.0000078   0.0000053  -0.6703140   0.6882447
13.9395475   -0.9959599  -0.0225790   0.0000484   0.0024563  -0.0000009  -0.0000010  -0.6661352   0.6921232
14.1109097   -0.9959275  -0.0229505   0.0000459   0.0024763  -0.0000038  -0.0000051  -0.6618006   0.6961022
14.2843785   -0.9959190  -0.0231117   0.0000280   0.0025185   0.0000052   0.0000030  -0.6574447   0.7000021
14.4599797   -0.9959049  -0.0234577   0.0000241   0.0025359   0.0000036  -0.0000067  -0.6530176   0.7040575
14.6377397   -0.9958891  -0.0236477   0.0000377   0.0025783  -0.0000093  -0.0000076  -0.6485291   0.7080584
14.8176850   -0.9960027  -0.0240379   0.0000234   0.0025920  -0.0000131   0.0000027  -0.6439510   0.7120446
14.9998423   -0.9959329  -0.0242262   0.0000253   0.0026296  -0.0000022  -0.0000131  -0.6392536   0.7161155
15.1842390   -0.9958166  -0.0246292   0.0000302   0.0026721  -0.0000130   0.0000049  -0.6344815   0.7202062
15.3709024   -0.9959409  -0.0249135   0.0000330   0.0026959  -0.0000048   0.0000017  -0.6297241   0.7242485
15.5598606   -0.9958572  -0.0251205   0.0000380   0.0027365  -0.0000054  -0.0000108  -0.6248621   0.7283607
15.7511417   -0.9958845  -0.0256108   0.0000444   0.0027643   0.0000019  -0.0000063  -0.6198680   0.7325479
15.9447743   -0.9958370  -0.0258542   0.0000371   0.0028103   0.0000020  -0.0000005  -0.6148227   0.7366409
16.1407872   -0.9958876  -0.0261507   0.0000313   0.0028231  -0.0000153  -0.0000110  -0.6095775   0.7408179
16.3392097   -0.9958492  -0.0264130   0.0000370   0.0028760  -0.0000056   0.0000011  -0.6043237   0.7450111
16.5400716   -0.9959041  -0.0267917   0.0000328   0.0029132  -0.0000077   0.0000002  -0.5990279   0.7492048
16.7434026   -0.9958336  -0.0271051   0.0000318   0.0029455  -0.0000112  -0.0000024  -0.5935454   0.7533613
16.9492333   -0.9958646  -0.0274417   0.0000357   0.0029846   0.0000049   0.0000022  -0.5880423   0.7577115
17.1575942   -0.9958706  -0.0277833   0.0000328   0.0030084  -0.0000039   0.0000064  -0.5824226   0.7618352
17.3685166   -0.9958027  -0.0281234   0.0000323   0.0030415  -0.0000002   0.0000013  -0.5767305   0.7661086
17.5820320   -0.9958530  -0.0285172   0.0000320   0.0030867  -0.0000036  -0.0000010  -0.5708657   0.7702965
17.7981721   -0.9957934  -0.0287742   0.0000184   0.0031210  -0.0000008  -0.0000063  -0.5649477   0.7746078
18.0169693   -0.9958119  -0.0291137   0.0000261   0.0031647  -0.0000148   0.0000015  -0.5589829   0.7788677
18.2384562   -0.9957113  -0.0294976   0.0000349   0.0031946  -0.0000088  -0.0000066  -0.5528978   0.7832294
18.4626659   -0.9958822  -0.0298949   0.0000190   0.0032486   0.0000017  -0.0000043  -0.5466180   0.7874117
18.6896319   -0.9958145  -0.0302786   0.0000145   0.0032754  -0.0000066   0.0000047  -0.5403799   0.7916946
18.9193880   -0.9957965  -0.0307029   0.0000173   0.0033091  -0.0000040  -0.0000020  -0.5338648   0.7960754
19.1519686   -0.9957260  -0.0309751   0.0000172   0.0033614   0.0000009  -0.0000067  -0.5272533   0.8003731
19.3874083   -0.9958613  -0.0313619   0.0000225   0.0034053  -0.0000090  -0.0000072  -0.5205907   0.8046701
19.6257423   -0.9958150  -0.0316840   0.0000278   0.0034437  -0.0000034  -0.0000054  -0.5139282   0.8090026
19.8670063   -0.9957214  -0.0322348   0.0000337   0.0034789  -0.0000003  -0.0000053  -0.5070653   0.8132444
20.1112361   -0.9957338  -0.0325105   0.0000157   0.0035273   0.0000014   0.0000039  -0.5000667   0.8175503
20.3584684   -0.9957320  -0.0330610   0.0000129   0.0035650  -0.0000109  -0.0000031  -0.4928451   0.8218131
20.6087399   -0.9956843  -0.0334337   0.0000170   0.0036179   0.0000064  -0.0000074  -0.4856078   0.8260492
20.8620881   -0.9956992  -0.0336489   0.0000190   0.0036515  -0.0000070   0.0000015  -0.4781752   0.8303917
21.1185507   -0.9956763  -0.0342311   0.0000172   0.0037066  -0.0000055   0.0000029  -0.4706816   0.8346281
21.3781661   -0.9957597  -0.0345612  -0.0000014   0.0037450  -0.0000035  -0.0000010  -0.4630449   0.8387695
21.6409730   -0.9957338  -0.0350178   0.0000032   0.0037764  -0.0000039  -0.0000078  -0.4552968   0.8429882
21.9070107   -0.9956497  -0.0355043   0.0000030   0.0038238  -0.0000070   0.0000040  -0.4474480   0.8472129
22.1763188   -0.9956080  -0.0359931   0.0000026   0.0038795  -0.0000040   0.0000040  -0.4393970   0.8514093
22.4489376   -0.9956619  -0.0362981   0.0000063   0.0039288  -0.0000043  -0.0000038  -0.4312338   0.8556008
22.7249077   -0.9956416  -0.0366947  -0.0000056   0.0039847  -0.0000006  -0.0000028  -0.4229033   0.8597198
23.0042705   -0.9956303  -0.0372592  -0.0000046   0.0040315  -0.0000025   0.0000032  -0.4144679   0.8638397
23.2870675   -0.9955654  -0.0376938  -0.0000108   0.0040862  -0.0000063   0.0000051  -0.4059703   0.8679089
23.5733409   -0.9956669  -0.0381352   0.0000004   0.0041374  -0.0000101  -0.0000119  -0.3971808   0.8719871
23.8631337   -0.9954990  -0.0386350  -0.0000222   0.0041694  -0.0000095   0.0000009  -0.3882574   0.8759217
24.1564889   -0.9955324  -0.0391712  -0.0000083   0.0042356  -0.0000145   0.0000020  -0.3793041   0.8799030
24.4534504   -0.9955643  -0.0395111  -0.0000085   0.0042821  -0.0000039  -0.0000033  -0.3701540   0.8837846
24.7540625   -0.9954608  -0.0400956  -0.0000153   0.0043226  -0.0000011  -0.0000056  -0.3608652   0.8877116
25.0583701   -0.9953816  -0.0406110  -0.0000211   0.0043884   0.0000015  -0.0000007  -0.3513553   0.8915770
25.3664186   -0.9954751  -0.0409720  -0.0000171   0.0044457  -0.0000058  -0.0000061  -0.3416299   0.8953736
25.6782541   -0.9954795  -0.0414701  -0.0000218   0.0044890   0.0000039  -0.0000031  -0.3318719   0.8991532
25.9939230   -0.9954292  -0.0420673  -0.0000216   0.0045515  -0.0000041  -0.0000050  -0.3219447   0.9027781
26.3134725   -0.9953239  -0.0425633  -0.0000164   0.0046074   0.0000036  -0.0000035  -0.3118192   0.9063520
26.6369503   -0.9954583  -0.0430976  -0.0000496   0.0046659  -0.0000030  -0.0000139  -0.3015927   0.9099376
26.9644047   -0.9953558  -0.0435908  -0.0000494   0.0047106   0.0000019   0.0000037  -0.2911556   0.9134289
27.2958846   -0.9954178  -0.0440903  -0.0000316   0.0047656  -0.0000076   0.0000021  -0.2805167   0.9167797
27.6314394   -0.9954192  -0.0446628  -0.0000389   0.0048472  -0.0000017  -0.0000051  -0.2698048   0.9201340
27.9711193   -0.9954365  -0.0452592  -0.0000345   0.0048906   0.0000071  -0.0000031  -0.2588429   0.9232956
28.3149750   -0.9953648  -0.0457935  -0.0000456   0.0049355   0.0000039  -0.0000051  -0.2477763   0.9264440
28.6630578   -0.9952001  -0.0463713  -0.0000587   0.0050075  -0.0000087  -0.0000003  -0.2365017   0.9294491
29.0154196   -0.9952549  -0.0468823  -0.0000523   0.0050743  -0.0000064  -0.0000030  -0.2250419   0.9323611
29.3721131   -0.9952568  -0.0475002  -0.0000613   0.0051233   0.0000014  -0.0000039  -0.2134533   0.9351741
29.7331915   -0.9951924  -0.0480731  -0.0000537   0.0052080  -0.0000054  -0.0000036  -0.2016027   0.9379710
30.0987087   -0.9952503  -0.0485953  -0.0000559   0.0052796  -0.0000033   0.0000123  -0.1897006   0.9405994
30.4687194   -0.9952063  -0.0492847  -0.0000517   0.0053319  -0.0000021  -0.0000058  -0.1775500   0.9431766
30.8432786   -0.9951005  -0.0497859  -0.0000699   0.0053945  -0.0000102   0.0000030  -0.1652043   0.9454509
31.2224424   -0.9951832  -0.0504179  -0.0000830   0.0054494   0.0000061   0.0000027  -0.1527992   0.9476807
31.6062674   -0.9952018  -0.0511336  -0.0000720   0.0055320  -0.0000091  -0.0000072  -0.1400337   0.9498177
31.9948108   -0.9950672  -0.0515828  -0.0000662   0.0056020   0.0000000   0.0000043  -0.1271896   0.9518871
32.3881306   -0.9950501  -0.0522992  -0.0000882   0.0056650  -0.0000007  -0.0000042  -0.1141830   0.9537462
32.7862857   -0.9949797  -0.0530044  -0.0000833   0.0057473  -0.0000070  -0.0000062  -0.1009629   0.9553778
33.1893353   -0.9951170  -0.0535649  -0.0000845   0.0057953  -0.0000018  -0.0000006  -0.0875903   0.9570247
33.5973398   -0.9949904  -0.0541653  -0.0000849   0.0058957   0.0000037  -0.0000116  -0.0740442   0.9583378
34.0103599   -0.9949641  -0.0549332  -0.0000844   0.0059536  -0.0000011   0.0000036  -0.0602129   0.9594876
34.4284574   -0.9949456  -0.0556294  -0.0000981   0.0060307  -0.0000075  -0.0000028  -0.0465159   0.9606917
34.8516946   -0.9949157  -0.0561699  -0.0001066   0.0060990  -0.0000053   0.0000028  -0.0322434   0.9616950
35.2801349   -0.9949193  -0.0569123  -0.0001053   0.0061732  -0.0000032  -0.0000036  -0.0177784   0.9624635
35.7138420   -0.9947127  -0.0575325  -0.0001101   0.0062590  -0.0000069  -0.0000060  -0.0032039   0.9628964
36.1528808   -0.9947145  -0.0582533  -0.0001199   0.0063268  -0.0000086  -0.0000063   0.0115347   0.9632563
36.5973168   -0.9947021  -0.0589613  -0.0001218   0.0063975   0.0000000  -0.0000055   0.0264333   0.9633738
37.0472164   -0.9947227  -0.0597928  -0.0001386   0.0064969  -0.0000010  -0.0000025   0.0415912   0.9631242
37.5026467   -0.9945600  -0.0604474  -0.0001389   0.0065733   0.0000005  -0.0000051   0.0569194   0.9628974
37.9636757   -0.9945462  -0.0612092  -0.0001461   0.0066574  -0.0000025  -0.0000048   0.0726387   0.9619464
38.4303722   -0.9945026  -0.0619983  -0.0001548   0.0067345   0.0000012  -0.0000023   0.0881824   0.9611452
38.9028060   -0.9945193  -0.0627671  -0.0001315   0.0068292   0.0000032   0.0000041   0.1040381   0.9599848
39.3810475   -0.9944380  -0.0634379  -0.0001480   0.0069049  -0.0000019   0.0000034   0.1201362   0.9586652
39.8651681   -0.9944596  -0.0643100  -0.0001548   0.0069886  -0.0000008   0.0000047   0.1362896   0.9569852
40.3552402   -0.9944364  -0.0649725  -0.0001719   0.0070800   0.0000052   0.0000025   0.1527017   0.9550329
40.8513368   -0.9943636  -0.0659966  -0.0001643   0.0071650  -0.0000009  -0.0000083   0.1693457   0.9526915
41.3535320   -0.9943211  -0.0667168  -0.0001795   0.0072621  -0.0000069  -0.0000035   0.1860114   0.9501695
41.8619009   -0.9942398  -0.0675217  -0.0001923   0.0073557  -0.0000012   0.0000013   0.2030277   0.9472720
42.3765193   -0.9942470  -0.0683896  -0.0002048   0.0074501   0.0000010  -0.0000008   0.2201222   0.9440599
42.8974639   -0.9941247  -0.0690231  -0.0001970   0.0075221  -0.0000026   0.0000052   0.2373514   0.9404513
43.4248127   -0.9940895  -0.0700341  -0.0002186   0.0076261   0.0000010  -0.0000060   0.2547651   0.9366341
43.9586443   -0.9940421  -0.0708402  -0.0002063   0.0077113   0.0000045  -0.0000092   0.2723270   0.9323410
44.4990385   -0.9939017  -0.0716782  -0.0002151   0.0078043  -0.0000060   0.0000010   0.2900678   0.9276746
45.0460758   -0.9939827  -0.0725455  -0.0002271   0.0079060   0.0000030   0.0000042   0.3079234   0.9226692
45.5998380   -0.9938990  -0.0734510  -0.0002381   0.0079970  -0.0000014  -0.0000026   0.3258964   0.9172927
46.1604077   -0.9938586  -0.0743690  -0.0002473   0.0081141  -0.0000057  -0.0000096   0.3439905   0.9114112
46.7278686   -0.9937378  -0.0752796  -0.0002458   0.0082231  -0.0000078  -0.0000061   0.3622095   0.9051561
47.3023055   -0.9936304  -0.0761195  -0.0002629   0.0083124  -0.0000035   0.0000063   0.3805383   0.8984954
47.8838040   -0.9936117  -0.0771733  -0.0002656   0.0084050   0.0000035  -0.0000116   0.3990787   0.8913030
48.4724511   -0.9936406  -0.0779624  -0.0002825   0.0085371  -0.0000043   0.0000037   0.4175483   0.8837820
49.0683345   -0.9935090  -0.0789506  -0.0002947   0.0086357  -0.0000065   0.0000016   0.4362200   0.8757527
49.6715433   -0.9933825  -0.0799843  -0.0002825   0.0087402  -0.0000056  -0.0000091   0.4548566   0.8672616
50.2821675   -0.9932668  -0.0809288  -0.0003012   0.0088551  -0.0000049  -0.0000026   0.4737366   0.8581977
50.9002982   -0.9932126  -0.0819359  -0.0003186   0.0089529  -0.0000001  -0.0000023   0.4925113   0.8486204
51.5260277   -0.9932007  -0.0829906  -0.0003280   0.0090700   0.0000016  -0.0000145   0.5114078   0.8386844
52.1594495   -0.9930280  -0.0838844  -0.0003503   0.0091871   0.0000007  -0.0000111   0.5302185   0.8281260
52.8006581   -0.9929773  -0.0849460  -0.0003467   0.0093132   0.0000019  -0.0000070   0.5491565   0.8169084
53.4497492   -0.9929303  -0.0859704  -0.0003633   0.0094262   0.0000038  -0.0000035   0.5682259   0.8053365
54.1068198   -0.9929125  -0.0870641  -0.0003753   0.0095380   0.0000014  -0.0000070   0.5870810   0.7931806
54.7719678   -0.9928086  -0.0880747  -0.0003733   0.0096720  -0.0000080  -0.0000108   0.6059003   0.7804755
55.4452927   -0.9927508  -0.0892507  -0.0003904   0.0097960  -0.0000031   0.0000036   0.6248029   0.7668483
56.1268950   -0.9925197  -0.0902803  -0.0004113   0.0099029  -0.0000012  -0.0000006   0.6436129   0.7528409
56.8168763   -0.9924934  -0.0914059  -0.0004047   0.0100340  -0.0000113  -0.0000002   0.6623330   0.7382715
57.5153398   -0.9923352  -0.0924831  -0.0004295   0.0101626  -0.0000006  -0.0000099   0.6809259   0.7230836
58.2223896   -0.9922891  -0.0937249  -0.0004325   0.0102822   0.0000062  -0.0000063   0.6993919   0.7071741
58.9381314   -0.9921994  -0.0947098  -0.0004510   0.0104261   0.0000077  -0.0000018   0.7177304   0.6906869
59.6626719   -0.9921755  -0.0959353  -0.0004563   0.0105547   0.0000018  -0.0000044   0.7358872   0.6734457
60.3961194   -0.9919736  -0.0971052  -0.0004924   0.0106951  -0.0000076  -0.0000076   0.7539451   0.6555725
61.1385834   -0.9918375  -0.0982816  -0.0004871   0.0108333   0.0000077  -0.0000151   0.7717916   0.6369847
61.8901746   -0.9918572  -0.0994254  -0.0004819   0.0109609  -0.0000007  -0.0000055   0.7892939   0.6177425
62.6510053   -0.9917281  -0.1006613  -0.0005067   0.0111074  -0.0000042  -0.0000129   0.8065969   0.5978861
63.4211891   -0.9914751  -0.1019259  -0.0005332   0.0112507  -0.0000005   0.0000010   0.8236544   0.5771804
64.2008409   -0.9913526  -0.1031865  -0.0005459   0.0114100  -0.0000013  -0.0000071   0.8403290   0.5559154
64.9900772   -0.9913202  -0.1043430  -0.0005683   0.0115381   0.0000060  -0.0000039   0.8567017   0.5338548
65.7890158   -0.9910968  -0.1057096  -0.0005605   0.0116747   0.0000066  -0.0000067   0.8726612   0.5111127
66.5977759   -0.9909682  -0.1068884  -0.0005881   0.0118331  -0.0000110   0.0000004   0.8881822   0.4875516
67.4164783   -0.9908492  -0.1083827  -0.0006027   0.0120010   0.0000024  -0.0000098   0.9034119   0.4632958
68.2452452   -0.9907152  -0.1095561  -0.0006256   0.0121311  -0.0000016  -0.0000030   0.9180764   0.4384124
69.0842003   -0.9905732  -0.1108896  -0.0006253   0.0122989  -0.0000021  -0.0000152   0.9322427   0.4127304
69.9334689   -0.9905497  -0.1122035  -0.0006666   0.0124553  -0.0000106  -0.0000085   0.9455765   0.3863505
70.7931778   -0.9901596  -0.1136596  -0.0006512   0.0126291   0.0000082  -0.0000021   0.9591080   0.3591561
71.6634552   -0.9900638  -0.1150488  -0.0006535   0.0127870  -0.0000035  -0.0000070   0.9716677   0.3310241
72.5444312   -0.9898529  -0.1164645  -0.0006750   0.0129470   0.0000123   0.0000005   0.9836817   0.3023485
73.4362373   -0.9896461  -0.1178409  -0.0006846   0.0131438  -0.0000012  -0.0000107   0.9948434   0.2729349
74.3390065   -0.9896803  -0.1192831  -0.0007294   0.0132870   0.0000080  -0.0000129   1.0046945   0.2431284
75.2528737   -0.9895514  -0.1207157  -0.0007446   0.0134560  -0.0000040  -0.0000102   1.0143737   0.2123149
76.1779753   -0.9893352  -0.1221642  -0.0007702   0.0136400  -0.0000051  -0.0000124   1.0232854   0.1808396
77.1144493   -0.9891356  -0.1236379  -0.0007763   0.0138105  -0.0000026  -0.0000045   1.0313023   0.1486103
78.0624357   -0.9888404  -0.1252491  -0.0007875   0.0140064  -0.0000029  -0.0000080   1.0384154   0.1157628
79.0220759   -0.9886543  -0.1267708  -0.0008149   0.0141814   0.0000002  -0.0000036   1.0445212   0.0821697
79.9935132   -0.9885380  -0.1282231  -0.0008312   0.0143748   0.0000041  -0.0000131   1.0496229   0.0480313
80.9768926   -0.9883472  -0.1298038  -0.0008331   0.0145639  -0.0000064  -0.0000116   1.0537186   0.0132410
81.9723609   -0.9880296  -0.1313311  -0.0008574   0.0147422   0.0000053  -0.0000071   1.0567157  -0.0222640
82.9800667   -0.9879630  -0.1329230  -0.0008834   0.0149385  -0.0000016  -0.0000180   1.0586042  -0.0582525
84.0001605   -0.9877915  -0.1345311  -0.0009006   0.0151318   0.0000053  -0.0000160   1.0593000  -0.0947391
85.0327946   -0.9873824  -0.1362624  -0.0008985   0.0153361   0.0000022  -0.0000081   1.0586965  -0.1319093
86.0781231   -0.9872177  -0.1378440  -0.0009423   0.0155384   0.0000029  -0.0000101   1.0568105  -0.1694968
87.1363020   -0.9869883  -0.1395860  -0.0009515   0.0157380   0.0000048  -0.0000041   1.0536046  -0.2074041
88.2074894   -0.9867203  -0.1412475  -0.0009751   0.0159539  -0.0000051  -0.0000155   1.0489040  -0.2458368
89.2918452   -0.9864771  -0.1429872  -0.0009869   0.0161427  -0.0000005  -0.0000021   1.0430306  -0.2849234
90.3895312   -0.9861464  -0.1446101  -0.0010075   0.0163701  -0.0000024  -0.0000180   1.0355088  -0.3237174
91.5007114   -0.9858967  -0.1464989  -0.0010271   0.0165944  -0.0000084  -0.0000163   1.0264270  -0.3630294
92.6255515   -0.9856654  -0.1481255  -0.0010501   0.0168101  -0.0000034  -0.0000041   1.0155656  -0.4024850
93.7642195   -0.9853133  -0.1499107  -0.0010613   0.0170244  -0.0000052  -0.0000188   1.0031624  -0.4420937
94.9168855   -0.9849721  -0.1518275  -0.0010902   0.0172683  -0.0000125  -0.0000104   0.9892346  -0.4818269
96.0837215   -0.9847574  -0.1536101  -0.0010971   0.0174981  -0.0000039  -0.0000178   0.9734644  -0.5215695
97.2649017   -0.9845151  -0.1556202  -0.0011347   0.0177143  -0.0000004  -0.0000104   0.9559370  -0.5609835
98.4606024   -0.9840930  -0.1573081  -0.0011481   0.0179486  -0.0000038  -0.0000064   0.9365502  -0.6005025
99.6710021   -0.9837775  -0.1593506  -0.0011608   0.0182093  -0.0000145  -0.0000062   0.9153443  -0.6396754
100.8962816  -0.9834648  -0.1611616  -0.0011782   0.0184414  -0.0000102  -0.0000124   0.8922365  -0.6784421
102.1366237  -0.9830840  -0.1632007  -0.0011961   0.0186864   0.0000052  -0.0000179   0.8671283  -0.7166929
103.3922136  -0.9826856  -0.1650761  -0.0012180   0.0189298  -0.0000096  -0.0000112   0.8401955  -0.7544722
104.6632389  -0.9822486  -0.1670473  -0.0012357   0.0192023  -0.0000105  -0.0000055   0.8113415  -0.7912682
105.9498891  -0.9817944  -0.1685392  -0.0012734   0.0195337  -0.0000069  -0.0000089   0.7803574  -0.8250929
107.2523564  -0.9822284  -0.1715767  -0.0012846   0.0196959  -0.0000016  -0.0000085   0.7458400  -0.8653272
108.5708353  -0.9816637  -0.1734324  -0.0012851   0.0199295  -0.0000106  -0.0000041   0.7121824  -0.8993932
109.9055225  -0.9795544  -0.1749555  -0.0013094   0.0202767   0.0000076  -0.0000064   0.6774515  -0.9319120
111.2566174  -0.9803290  -0.1772954  -0.0013270   0.0205161  -0.0000017  -0.0000120   0.6366632  -0.9623526
112.6243216  -0.9800940  -0.1795255  -0.0013279   0.0207886   0.0000017  -0.0000150   0.5956314  -0.9930429
114.0088393  -0.9795683  -0.1816199  -0.0013614   0.0210416  -0.0000127  -0.0000032   0.5528684  -1.0220177
115.4103773  -0.9791844  -0.1840287  -0.0013639   0.0213445  -0.0000076  -0.0000214   0.5080600  -1.0493846
116.8291446  -0.9787361  -0.1860890  -0.0013548   0.0216465   0.0000125  -0.0000049   0.4616156  -1.0748125
118.2653533  -0.9783247  -0.1884822  -0.0013729   0.0219099  -0.0000004  -0.0000118   0.4131618  -1.0983546
119.7192175  -0.9779648  -0.1906729  -0.0013990   0.0221914  -0.0000147  -0.0000006   0.3630310  -1.1198741
121.1909545  -0.9773746  -0.1929484  -0.0014201   0.0225050  -0.0000096  -0.0000137   0.3112472  -1.1389094
122.6807839  -0.9768397  -0.1953745  -0.0014256   0.0228017  -0.0000186  -0.0000183   0.2578829  -1.1556283
124.1889281  -0.9762915  -0.1976538  -0.0014561   0.0231077   0.0000025  -0.0000021   0.2030196  -1.1697805
125.7156123  -0.9758060  -0.2001228  -0.0014519   0.0234030  -0.0000108  -0.0000053   0.1468018  -1.1813263
127.2610644  -0.9751334  -0.2023891  -0.0014512   0.0237353  -0.0000061  -0.0000096   0.0899457  -1.1898236
128.8255151  -0.9747932  -0.2047684  -0.0014657   0.0240501  -0.0000125  -0.0000101   0.0310541  -1.1954536
130.4091980  -0.9740690  -0.2072793  -0.0014700   0.0243817  -0.0000132  -0.0000125  -0.0282397  -1.1979713
132.0123495  -0.9733479  -0.2098547  -0.0014861   0.0246919  -0.0000062  -0.0000027  -0.0885005  -1.1971293
133.6352088  -0.9729777  -0.2123761  -0.0014728   0.0250478  -0.0000239  -0.0000059  -0.1491135  -1.1931309
135.2780184  -0.9723523  -0.2149056  -0.0014747   0.0253803  -0.0000031  -0.0000057  -0.2103454  -1.1854267
136.9410235  -0.9717317  -0.2174082  -0.0014819   0.0256873  -0.0000093  -0.0000137  -0.2717939  -1.1740384
138.6244722  -0.9710042  -0.2201099  -0.0014811   0.0260635  -0.0000096  -0.0000023  -0.3330388  -1.1591738
140.3286160  -0.9702611  -0.2229219  -0.0014703   0.0263912  -0.0000127  -0.0000127  -0.3943408  -1.1406394
142.0537093  -0.9689868  -0.2258050  -0.0014849   0.0266566  -0.0000183  -0.0000196  -0.4577303  -1.1193078
143.8000095  -0.9690025  -0.2275538  -0.0014720   0.0271061  -0.0000058   0.0000000  -0.5114804  -1.0920313
145.5677774  -0.9695730  -0.2309072  -0.0014998   0.0276028   0.0000058  -0.0000122  -0.5686752  -1.0596310
147.3572769  -0.9674073  -0.2338587  -0.0014909   0.0278056  -0.0000021  -0.0000169  -0.6296031  -1.0274029
149.1687752  -0.9667569  -0.2363009  -0.0014572   0.0281846   0.0000015  -0.0000091  -0.6842854  -0.9897038
151.0025426  -0.9659416  -0.2390024  -0.0014424   0.0285684  -0.0000053  -0.0000193  -0.7376444  -0.9478988
152.8588530  -0.9650996  -0.2423508  -0.0014121   0.0289397  -0.0000013  -0.0000092  -0.7884430  -0.9023780
154.7379834  -0.9642021  -0.2451087  -0.0014071   0.0293321  -0.0000086  -0.0000110  -0.8368112  -0.8532143
156.6402144  -0.9633108  -0.2478600  -0.0013989   0.0297147  -0.0000084  -0.0000061  -0.8822036  -0.8005717
158.5658301  -0.9627153  -0.2509413  -0.0013479   0.0300814  -0.0000037   0.0000147  -0.9241073  -0.7445390
160.5151177  -0.9619704  -0.2537393  -0.0013101   0.0304750   0.0000014  -0.0000065  -0.9630209  -0.6849737
162.4883685  -0.9605236  -0.2581687  -0.0013298   0.0310073   0.0000013  -0.0000028  -0.9967976  -0.6237559
164.4858769  -0.9599630  -0.2601225  -0.0012707   0.0312567   0.0000046  -0.0000033  -1.0278789  -0.5582318
166.5079411  -0.9588328  -0.2633142  -0.0012621   0.0316854  -0.0000070  -0.0000102  -1.0539276  -0.4910024
168.5548630  -0.9578686  -0.2666380  -0.0012268   0.0321103  -0.0000107   0.0000016  -1.0755896  -0.4214285
170.6269483  -0.9568417  -0.2698618  -0.0012112   0.0324947  -0.0000006  -0.0000172  -1.0920161  -0.3500769
172.7245062  -0.9559701  -0.2731933  -0.0011329   0.0329266   0.0000046  -0.0000030  -1.1035268  -0.2774294
174.8478498  -0.9548479  -0.2767098  -0.0010721   0.0333475   0.0000061  -0.0000036  -1.1094082  -0.2032648
176.9972963  -0.9537682  -0.2801790  -0.0010426   0.0338244   0.0000235  -0.0000062  -1.1102204  -0.1277967
179.1731664  -0.9526387  -0.2855796  -0.0009729   0.0344045  -0.0000187  -0.0000088  -1.1019377  -0.0580540
181.3757850  -0.9527969  -0.2868547  -0.0007025   0.0344905  -0.0000020  -0.0000058  -1.0923748   0.0172629
183.6054809  -0.9505373  -0.2908522  -0.0008479   0.0350190  -0.0000115  -0.0000014  -1.0773858   0.0954521
185.8625870  -0.9495989  -0.2945224  -0.0007238   0.0354501  -0.0000271  -0.0000083  -1.0548059   0.1676861
188.1474402  -0.9489039  -0.2981437  -0.0006485   0.0357668  -0.0000045  -0.0000041  -1.0266452   0.2388777
190.4603817  -0.9470798  -0.3003182  -0.0006454   0.0360694  -0.0000241  -0.0000166  -0.9928692   0.3077410
192.8017567  -0.9414704  -0.3070425  -0.0008109   0.0364966   0.0000113  -0.0000080  -0.9528826   0.3737659
195.1719148  -0.9426088  -0.3180767  -0.0007709   0.0371317  -0.0000411   0.0000164  -0.9079903   0.4365081
197.5712099  -0.9558901  -0.3275929  -0.0006751   0.0377235   0.0000064  -0.0000064  -0.8584258   0.4960860
200.0000000  -0.9634320  -0.3106531  -0.0002376   0.0382986  -0.0000129  -0.0000066  -0.8026131   0.5505821
