! ListType=Log
# MHZ S RI R 50
0.0010000    -0.9997408   0.0003694   0.0004721   0.0001373  -0.0000115  -0.0000299  -0.9088780   0.2599563
0.0010123    -0.9988646  -0.0010415   0.0003358   0.0004111   0.0000121  -0.0000287  -0.9094622   0.2603417
0.0010247    -0.9995282   0.0015826   0.0006017   0.0000719  -0.0000157   0.0000266  -0.9095897   0.2591301
0.0010373    -0.9994909  -0.0000486   0.0004877   0.0002108  -0.0000085  -0.0000056  -0.9097936   0.2598523
0.0010501    -1.0014117   0.0001465   0.0005976  -0.0000855  -0.0000136  -0.0000118  -0.9091506   0.2596915
0.0010630    -0.9992052  -0.0008698   0.0004843   0.0002135   0.0000229   0.0000125  -0.9105505   0.2595735
0.0010761    -0.9996316   0.0008555   0.0004354   0.0003312  -0.0000149   0.0000095  -0.9107037   0.2587981
0.0010893    -0.9997474  -0.0010879   0.0006162   0.0002353   0.0000198  -0.0000037  -0.9110865   0.2599258
0.0011027    -0.9994371   0.0000461   0.0007735   0.0003857   0.0000030  -0.0000187  -0.9110775   0.2587990
0.0011162    -0.9983383   0.0011364   0.0003969   0.0001119  -0.0000056   0.0000030  -0.9120701   0.2584382
0.0011300    -1.0002275   0.0005546   0.0001216   0.0001200  -0.0000259  -0.0000173  -0.9112969   0.2587179
0.0011439    -0.9993271  -0.0005276   0.0004528   0.0000130   0.0000190  -0.0000020  -0.9120502   0.2590832
0.0011579    -0.9998801   0.0012974   0.0004649   0.0003295  -0.0000080   0.0000011  -0.9120575   0.2578675
0.0011721    -0.9995354  -0.0000760   0.0005917   0.0002360   0.0000114  -0.0000118  -0.9124015   0.2585311
0.0011866    -1.0008957   0.0002492   0.0004483   0.0004165  -0.0000454  -0.0000152  -0.9122040   0.2582435
0.0012011    -0.9996903   0.0000195   0.0006428   0.0003608  -0.0000151   0.0000003  -0.9128818   0.2582597
0.0012159    -0.9988359  -0.0003959   0.0004877  -0.0001208   0.0000208   0.0000031  -0.9136437   0.2584854
0.0012309    -0.9991575   0.0008489   0.0005464   0.0001499   0.0000094   0.0000109  -0.9137401   0.2577885
0.0012460    -1.0003492  -0.0002870   0.0007420   0.0000083  -0.0000062  -0.0000060  -0.9134154   0.2581256
0.0012613    -0.9985497  -0.0001174   0.0003668   0.0003442   0.0000269  -0.0000021  -0.9147353   0.2579363
0.0012768    -0.9999069   0.0006738   0.0006017   0.0001552  -0.0000207   0.0000053  -0.9141770   0.2576231
0.0012925    -0.9990067  -0.0003486   0.0005561   0.0000659   0.0000140   0.0000076  -0.9151106   0.2580592
0.0013084    -0.9997420   0.0002116   0.0004837   0.0000262  -0.0000049   0.0000097  -0.9149123   0.2575421
0.0013245    -0.9990165  -0.0005644   0.0005122   0.0000333   0.0000181  -0.0000016  -0.9155488   0.2580240
0.0013408    -0.9997207   0.0002690   0.0006059   0.0000824   0.0000024  -0.0000096  -0.9153819   0.2572752
0.0013572    -0.9985999  -0.0004290   0.0005856  -0.0000128   0.0000187   0.0000077  -0.9163567   0.2576933
0.0013739    -0.9996826   0.0002105   0.0002522   0.0000818   0.0000133   0.0000164  -0.9162218   0.2575399
0.0013908    -0.9989216  -0.0002008   0.0004867  -0.0000049   0.0000136   0.0000045  -0.9169530   0.2576089
0.0014079    -0.9999454   0.0002520   0.0003070   0.0001102  -0.0000214  -0.0000005  -0.9167295   0.2573538
0.0014252    -0.9988115   0.0000288   0.0005908   0.0000690   0.0000186   0.0000247  -0.9176592   0.2572531
0.0014427    -1.0000486   0.0002267   0.0005519  -0.0001018  -0.0000097  -0.0000156  -0.9173659   0.2571991
0.0014605    -0.9989687  -0.0001999   0.0006875   0.0000211   0.0000009  -0.0000180  -0.9180822   0.2573986
0.0014784    -0.9999077   0.0005269   0.0006113   0.0000914  -0.0000049   0.0000082  -0.9178605   0.2569127
0.0014966    -0.9995967  -0.0004311   0.0006530   0.0001290   0.0000002  -0.0000287  -0.9186111   0.2574162
0.0015150    -0.9988658   0.0004657   0.0004968  -0.0000890   0.0000270   0.0000241  -0.9189818   0.2573396
0.0015336    -0.9996135   0.0005136   0.0005661   0.0001888  -0.0000074  -0.0000028  -0.9190102   0.2570696
0.0015525    -1.0002802   0.0001108   0.0005272   0.0001389  -0.0000076  -0.0000167  -0.9190290   0.2573496
0.0015716    -0.9995016   0.0002661   0.0005143   0.0000269   0.0000126  -0.0000211  -0.9196280   0.2571869
0.0015909    -0.9995969  -0.0005781   0.0005013   0.0000266   0.0000100  -0.0000345  -0.9199847   0.2575694
0.0016104    -0.9995159   0.0006991   0.0006076  -0.0000399  -0.0000243   0.0000094  -0.9203199   0.2569523
0.0016302    -0.9997914  -0.0004327   0.0005101   0.0000557   0.0000135  -0.0000063  -0.9203642   0.2573044
0.0016503    -0.9991034  -0.0003482   0.0005510   0.0000366   0.0000088  -0.0000100  -0.9213751   0.2574882
0.0016706    -0.9994475   0.0000732   0.0004178   0.0000606   0.0000033  -0.0000045  -0.9211996   0.2574022
0.0016911    -0.9994078   0.0005754   0.0006790   0.0000802  -0.0000210  -0.0000159  -0.9218180   0.2570958
0.0017119    -0.9999051  -0.0000371   0.0004563  -0.0001575  -0.0000161  -0.0000298  -0.9218589   0.2574357
0.0017329    -0.9993811   0.0001482   0.0003945   0.0000640  -0.0000031   0.0000134  -0.9220861   0.2573962
0.0017542    -0.9993451   0.0006307   0.0003848   0.0000186   0.0000071   0.0000175  -0.9225671   0.2571541
0.0017758    -0.9996143  -0.0000634   0.0003839   0.0000563  -0.0000018  -0.0000029  -0.9227763   0.2574617
0.0017976    -0.9993408   0.0001191   0.0005261  -0.0001519   0.0000059  -0.0000063  -0.9233452   0.2574793
0.0018197    -0.9999746   0.0004664   0.0005311   0.0000062  -0.0000150  -0.0000040  -0.9231438   0.2573279
0.0018421    -0.9992422   0.0000184   0.0004675  -0.0001239   0.0000151  -0.0000070  -0.9238326   0.2577191
0.0018648    -0.9995210   0.0003912   0.0005673   0.0000813  -0.0000028   0.0000040  -0.9239003   0.2574820
0.0018877    -1.0002637   0.0002318   0.0004254   0.0000220  -0.0000105  -0.0000158  -0.9239804   0.2577066
0.0019109    -0.9993659   0.0001702   0.0005131   0.0000098  -0.0000036   0.0000066  -0.9248491   0.2579357
0.0019344    -0.9997600   0.0000517   0.0005028   0.0000115  -0.0000050  -0.0000064  -0.9247153   0.2577397
0.0019582    -1.0001359   0.0000935   0.0004384  -0.0000835   0.0000018  -0.0000051  -0.9248236   0.2579512
0.0019822    -0.9992685  -0.0002734   0.0005085  -0.0000892   0.0000061   0.0000007  -0.9256894   0.2580907
0.0020066    -0.9994574   0.0000485   0.0006699   0.0000702   0.0000030   0.0000010  -0.9257598   0.2582423
0.0020313    -0.9991618  -0.0001099   0.0004722  -0.0000807   0.0000072   0.0000076  -0.9261621   0.2581689
0.0020562    -0.9992567   0.0004859   0.0004163   0.0000889  -0.0000161  -0.0000018  -0.9265384   0.2580705
0.0020815    -0.9998210  -0.0002223   0.0005353  -0.0000238   0.0000003  -0.0000015  -0.9265952   0.2584793
0.0021071    -0.9995459   0.0000316   0.0004349  -0.0000020  -0.0000104  -0.0000033  -0.9270215   0.2585237
0.0021330    -0.9996279  -0.0001441   0.0005496   0.0000161  -0.0000010  -0.0000229  -0.9272019   0.2587586
0.0021592    -0.9993789  -0.0002161   0.0005483   0.0000004  -0.0000025  -0.0000190  -0.9277383   0.2588852
0.0021858    -0.9991436   0.0002849   0.0004783  -0.0000100  -0.0000026  -0.0000044  -0.9279115   0.2586740
0.0022126    -0.9997596  -0.0000396   0.0004716  -0.0000799  -0.0000054  -0.0000144  -0.9280733   0.2590422
0.0022398    -0.9995859   0.0001176   0.0005099  -0.0000741  -0.0000122   0.0000062  -0.9283379   0.2590142
0.0022674    -0.9994392  -0.0001730   0.0004768   0.0000635   0.0000047  -0.0000181  -0.9287816   0.2593020
0.0022953    -0.9993580  -0.0001964   0.0004785   0.0000533   0.0000060  -0.0000025  -0.9290308   0.2594769
0.0023235    -0.9990844   0.0001952   0.0005620   0.0000194  -0.0000061  -0.0000002  -0.9294341   0.2594680
0.0023520    -0.9999358   0.0001482   0.0005195   0.0000478  -0.0000078  -0.0000054  -0.9292532   0.2594361
0.0023809    -0.9992753   0.0001047   0.0004740  -0.0000655  -0.0000079   0.0000077  -0.9299422   0.2596373
0.0024102    -0.9996191   0.0000723   0.0003078   0.0000121   0.0000131   0.0000064  -0.9298942   0.2598229
0.0024398    -0.9996740   0.0001625   0.0004438   0.0001032   0.0000033   0.0000032  -0.9303333   0.2599209
0.0024698    -0.9996269  -0.0001016   0.0005141  -0.0000319   0.0000079  -0.0000170  -0.9305707   0.2602177
0.0025002    -0.9995108  -0.0001329   0.0004373   0.0000382  -0.0000013  -0.0000042  -0.9307198   0.2603729
0.0025309    -0.9995462  -0.0000972   0.0004701   0.0000481  -0.0000087  -0.0000112  -0.9309336   0.2606611
0.0025621    -0.9993946  -0.0001054   0.0004721  -0.0000586   0.0000070  -0.0000087  -0.9313972   0.2606534
0.0025935    -0.9991969   0.0001060   0.0004572  -0.0000739  -0.0000057  -0.0000035  -0.9316742   0.2605261
0.0026254    -0.9994806   0.0004643   0.0005469   0.0000194  -0.0000042  -0.0000026  -0.9317934   0.2605545
0.0026577    -0.9998305   0.0002880   0.0004337   0.0000362  -0.0000107  -0.0000105  -0.9319015   0.2609742
0.0026904    -0.9996473  -0.0004003   0.0005048  -0.0000194  -0.0000128  -0.0000062  -0.9320964   0.2613407
0.0027235    -0.9992717   0.0002124   0.0004694  -0.0000353  -0.0000013  -0.0000137  -0.9327563   0.2611832
0.0027569    -0.9995174   0.0002582   0.0005362  -0.0000558  -0.0000088  -0.0000033  -0.9327095   0.2612955
0.0027908    -0.9997157  -0.0002461   0.0004179  -0.0000088   0.0000059  -0.0000083  -0.9327881   0.2617246
0.0028251    -0.9994386   0.0000023   0.0004337  -0.0000811   0.0000069   0.0000018  -0.9332618   0.2618815
0.0028599    -0.9993119   0.0002407   0.0005211  -0.0000412  -0.0000022   0.0000010  -0.9334185   0.2618729
0.0028950    -0.9996359   0.0003948   0.0004428  -0.0000407   0.0000031   0.0000025  -0.9336124   0.2618484
0.0029306    -0.9995412   0.0001775   0.0004663   0.0000213  -0.0000042  -0.0000190  -0.9337557   0.2620064
0.0029666    -0.9996682   0.0001181   0.0004743   0.0000581   0.0000131  -0.0000065  -0.9339990   0.2622600
0.0030031    -0.9998334   0.0000941   0.0004230  -0.0000164  -0.0000049   0.0000133  -0.9341076   0.2625548
0.0030400    -0.9994899  -0.0000129   0.0004536   0.0000344  -0.0000027  -0.0000165  -0.9343379   0.2628196
0.0030774    -0.9993939   0.0001349   0.0003941   0.0000103  -0.0000097  -0.0000045  -0.9345217   0.2629743
0.0031152    -0.9995342   0.0001466   0.0004440  -0.0000254   0.0000102   0.0000018  -0.9348862   0.2629809
0.0031535    -0.9996894  -0.0000763   0.0005100   0.0000133  -0.0000035  -0.0000120  -0.9349260   0.2633534
0.0031923    -0.9993027  -0.0000949   0.0004365  -0.0000719   0.0000126  -0.0000124  -0.9353236   0.2634966
0.0032315    -0.9994684   0.0000757   0.0004754   0.0000190  -0.0000004  -0.0000064  -0.9355121   0.2636469
0.0032713    -0.9995208  -0.0001047   0.0005466   0.0000020   0.0000023  -0.0000089  -0.9356770   0.2636865
0.0033115    -0.9995779   0.0000730   0.0005112  -0.0000031   0.0000084  -0.0000006  -0.9357024   0.2639999
0.0033522    -0.9995587  -0.0002315   0.0003739   0.0000097  -0.0000109  -0.0000057  -0.9360229   0.2644064
0.0033934    -0.9993166   0.0002623   0.0004530   0.0000020   0.0000014   0.0000021  -0.9362628   0.2642656
0.0034351    -0.9993313   0.0001840   0.0004592   0.0000580  -0.0000013   0.0000084  -0.9364516   0.2645556
0.0034773    -0.9995913  -0.0001509   0.0004161   0.0000120   0.0000084  -0.0000086  -0.9364323   0.2647053
0.0035201    -0.9994057   0.0003339   0.0004112  -0.0000816   0.0000056  -0.0000029  -0.9367876   0.2648143
0.0035634    -0.9993500   0.0002947   0.0004313   0.0000192   0.0000070  -0.0000048  -0.9368663   0.2649771
0.0036072    -0.9994422  -0.0000455   0.0004741   0.0000028  -0.0000008  -0.0000046  -0.9369396   0.2652301
0.0036515    -0.9995984   0.0001024   0.0004753  -0.0000072  -0.0000051   0.0000044  -0.9372120   0.2655556
0.0036964    -0.9997044  -0.0001686   0.0004595   0.0000004  -0.0000114   0.0000007  -0.9371598   0.2658447
0.0037418    -0.9996223  -0.0000589   0.0004747  -0.0000095   0.0000014  -0.0000077  -0.9373776   0.2659021
0.0037878    -0.9997509   0.0000058   0.0004353   0.0000000   0.0000009  -0.0000191  -0.9374859   0.2660117
0.0038344    -0.9996721  -0.0000920   0.0004000  -0.0000163   0.0000059  -0.0000063  -0.9376847   0.2663411
0.0038815    -0.9995582   0.0000326   0.0004653  -0.0000702  -0.0000009   0.0000041  -0.9378065   0.2664228
0.0039293    -0.9996632   0.0002111   0.0005235  -0.0000964   0.0000049  -0.0000071  -0.9379777   0.2663981
0.0039776    -0.9994541   0.0000420   0.0005571   0.0000374  -0.0000018  -0.0000120  -0.9381920   0.2668196
0.0040265    -0.9995185   0.0004127   0.0005818  -0.0000065   0.0000000   0.0000014  -0.9383100   0.2667670
0.0040759    -0.9993670  -0.0000679   0.0004805  -0.0000826  -0.0000007   0.0000008  -0.9384242   0.2671272
0.0041261    -0.9995116   0.0003055   0.0004745  -0.0000275   0.0000015  -0.0000048  -0.9385339   0.2672093
0.0041768    -0.9996670   0.0000603   0.0004311  -0.0000233  -0.0000009   0.0000009  -0.9387328   0.2675105
0.0042281    -0.9993965   0.0000997   0.0004291  -0.0000638   0.0000064  -0.0000054  -0.9388509   0.2677209
0.0042801    -0.9995151  -0.0000203   0.0004990  -0.0000185   0.0000041  -0.0000002  -0.9389324   0.2679158
0.0043327    -0.9994021  -0.0001523   0.0004928  -0.0000339  -0.0000035  -0.0000042  -0.9390299   0.2683019
0.0043860    -0.9993097   0.0000160   0.0004405  -0.0000015  -0.0000025   0.0000091  -0.9392749   0.2683077
0.0044399    -0.9993871   0.0002123   0.0003987   0.0000162   0.0000007  -0.0000043  -0.9393379   0.2684832
0.0044945    -0.9994882   0.0002559   0.0004322  -0.0000413  -0.0000065  -0.0000034  -0.9394909   0.2686169
0.0045497    -0.9997097   0.0000168   0.0004601   0.0000254  -0.0000109  -0.0000034  -0.9394766   0.2688047
0.0046057    -0.9995144   0.0000675   0.0003956  -0.0000392  -0.0000053   0.0000049  -0.9395575   0.2689400
0.0046623    -0.9996304   0.0000242   0.0004403  -0.0000453   0.0000035  -0.0000071  -0.9395089   0.2692334
0.0047196    -0.9993847  -0.0000053   0.0004434  -0.0000296  -0.0000083  -0.0000009  -0.9398293   0.2694102
0.0047776    -0.9994720  -0.0000945   0.0004681   0.0000097   0.0000065  -0.0000104  -0.9398891   0.2695281
0.0048363    -0.9996251   0.0000490   0.0004185  -0.0000627   0.0000003  -0.0000094  -0.9399332   0.2697804
0.0048958    -0.9995640  -0.0000210   0.0004153  -0.0000032  -0.0000047  -0.0000137  -0.9400721   0.2700554
0.0049560    -0.9992661   0.0000108   0.0004350   0.0000042  -0.0000099  -0.0000067  -0.9402632   0.2701632
0.0050169    -0.9995121   0.0000104   0.0004577  -0.0000290  -0.0000178   0.0000051  -0.9403351   0.2701639
0.0050786    -0.9996236   0.0000054   0.0004321  -0.0000370   0.0000062   0.0000011  -0.9403187   0.2703988
0.0051410    -0.9992423   0.0001312   0.0005107   0.0000028  -0.0000039  -0.0000105  -0.9404152   0.2706001
0.0052042    -0.9995310  -0.0001849   0.0004415  -0.0000384   0.0000035  -0.0000032  -0.9405021   0.2708001
0.0052682    -0.9995347  -0.0000932   0.0004769  -0.0000494   0.0000060  -0.0000054  -0.9406327   0.2710467
0.0053330    -0.9994413  -0.0001109   0.0004201   0.0000268  -0.0000089  -0.0000088  -0.9406896   0.2711812
0.0053985    -0.9994154  -0.0000876   0.0004380  -0.0000490  -0.0000131  -0.0000073  -0.9407775   0.2713440
0.0054649    -0.9992703   0.0000761   0.0004251  -0.0000285   0.0000164  -0.0000018  -0.9409076   0.2714998
0.0055321    -0.9993230  -0.0000586   0.0004305  -0.0000354  -0.0000015  -0.0000112  -0.9409565   0.2716945
0.0056001    -0.9994081   0.0000522   0.0004668  -0.0000463   0.0000146   0.0000031  -0.9411138   0.2719386
0.0056689    -0.9995871  -0.0000385   0.0004346   0.0000110  -0.0000082  -0.0000200  -0.9411273   0.2720064
0.0057386    -0.9994577  -0.0000524   0.0004751   0.0000045   0.0000036  -0.0000155  -0.9411893   0.2721200
0.0058091    -0.9995459   0.0001150   0.0004161  -0.0000072   0.0000022   0.0000047  -0.9411386   0.2723728
0.0058806    -0.9994355   0.0001316   0.0004327   0.0000070  -0.0000013  -0.0000061  -0.9411190   0.2724188
0.0059529    -0.9995363   0.0000593   0.0004114  -0.0000124  -0.0000054  -0.0000104  -0.9412062   0.2727041
0.0060260    -0.9996766   0.0000433   0.0004791  -0.0000492  -0.0000053  -0.0000183  -0.9412507   0.2727098
0.0061001    -0.9997042   0.0000666   0.0004657  -0.0000205  -0.0000142  -0.0000055  -0.9413455   0.2729546
0.0061751    -0.9997171   0.0000283   0.0003959  -0.0000180   0.0000003   0.0000049  -0.9413314   0.2731470
0.0062510    -0.9996104   0.0000754   0.0004258   0.0000264  -0.0000030  -0.0000002  -0.9415101   0.2732916
0.0063279    -0.9994836  -0.0000867   0.0004605  -0.0000243  -0.0000043  -0.0000012  -0.9416430   0.2734560
0.0064056    -0.9994314   0.0000076   0.0004589  -0.0000038   0.0000044  -0.0000061  -0.9416371   0.2736081
0.0064844    -0.9994973   0.0000922   0.0004357  -0.0000252   0.0000000  -0.0000076  -0.9416977   0.2736701
0.0065641    -0.9996415   0.0000958   0.0004333  -0.0000257  -0.0000063  -0.0000193  -0.9415242   0.2737903
0.0066448    -0.9995796  -0.0000024   0.0004437   0.0000174   0.0000005  -0.0000093  -0.9416728   0.2739591
0.0067265    -0.9995851  -0.0000035   0.0004012   0.0000087  -0.0000082   0.0000041  -0.9417777   0.2741424
0.0068092    -0.9994391   0.0000542   0.0004965  -0.0000040   0.0000036   0.0000010  -0.9418365   0.2743665
0.0068929    -0.9995163   0.0000366   0.0004477  -0.0000498   0.0000128  -0.0000086  -0.9418909   0.2744498
0.0069776    -0.9995961   0.0000001   0.0003931  -0.0000174   0.0000024  -0.0000116  -0.9420478   0.2746782
0.0070634    -0.9995824  -0.0000102   0.0004093   0.0000066   0.0000023  -0.0000052  -0.9419420   0.2748400
0.0071502    -0.9995914  -0.0000333   0.0004105  -0.0000438   0.0000031  -0.0000154  -0.9419125   0.2748555
0.0072381    -0.9996866  -0.0001242   0.0004060  -0.0000263  -0.0000033  -0.0000122  -0.9418756   0.2750367
0.0073271    -0.9996921   0.0000502   0.0004244  -0.0000344  -0.0000089  -0.0000030  -0.9420109   0.2752536
0.0074172    -0.9995052   0.0000477   0.0004308   0.0000212   0.0000121  -0.0000083  -0.9421284   0.2753567
0.0075084    -0.9995875  -0.0000509   0.0004889  -0.0000309   0.0000064  -0.0000108  -0.9421577   0.2755385
0.0076007    -0.9994064  -0.0001548   0.0004243  -0.0000462   0.0000004  -0.0000116  -0.9421461   0.2756577
0.0076941    -0.9995418  -0.0000150   0.0004527  -0.0000320  -0.0000021   0.0000084  -0.9421786   0.2759126
0.0077887    -0.9997032  -0.0001062   0.0003937  -0.0000338   0.0000107  -0.0000020  -0.9421820   0.2759312
0.0078844    -0.9996242  -0.0000219   0.0004004  -0.0000449  -0.0000035  -0.0000018  -0.9422685   0.2760016
0.0079814    -0.9996538   0.0000702   0.0004826  -0.0000216   0.0000006  -0.0000059  -0.9422404   0.2762762
0.0080795    -0.9996014   0.0000564   0.0004128  -0.0000114   0.0000058  -0.0000034  -0.9423989   0.2763341
0.0081788    -0.9996030   0.0000109   0.0004125  -0.0000349  -0.0000045   0.0000043  -0.9422137   0.2765218
0.0082793    -0.9995978  -0.0001247   0.0004226  -0.0000626  -0.0000005  -0.0000093  -0.9423942   0.2765888
0.0083811    -0.9996027   0.0000695   0.0004165  -0.0000657  -0.0000037   0.0000070  -0.9423573   0.2767983
0.0084842    -0.9994362   0.0000403   0.0004518   0.0000010  -0.0000016   0.0000005  -0.9423313   0.2768930
0.0085885    -0.9994424  -0.0000076   0.0004404  -0.0000109   0.0000015  -0.0000070  -0.9424398   0.2769427
0.0086940    -0.9996194  -0.0000662   0.0004130  -0.0000468   0.0000127  -0.0000141  -0.9423699   0.2771411
0.0088009    -0.9994279  -0.0000117   0.0004078  -0.0000298   0.0000002   0.0000062  -0.9423860   0.2772914
0.0089091    -0.9995428  -0.0001820   0.0004453  -0.0000268   0.0000024  -0.0000112  -0.9423989   0.2774866
0.0090186    -0.9995723   0.0001065   0.0004270  -0.0000174  -0.0000090  -0.0000046  -0.9424998   0.2774735
0.0091295    -0.9995102   0.0000585   0.0004333  -0.0000213   0.0000055  -0.0000005  -0.9425199   0.2777457
0.0092417    -0.9995753  -0.0001280   0.0004371  -0.0000348   0.0000093  -0.0000054  -0.9424069   0.2777833
0.0093553    -0.9994601   0.0001288   0.0004458  -0.0000256   0.0000041  -0.0000095  -0.9424297   0.2779104
0.0094703    -0.9994746   0.0000208   0.0004863  -0.0000177   0.0000006   0.0000108  -0.9425230   0.2779699
0.0095868    -0.9994402  -0.0001897   0.0004182  -0.0000365  -0.0000033  -0.0000074  -0.9424579   0.2781670
0.0097046    -0.9996068  -0.0000798   0.0004229   0.0000024  -0.0000017   0.0000127  -0.9425030   0.2781965
0.0098239    -0.9994965  -0.0001293   0.0003846   0.0000360  -0.0000008   0.0000001  -0.9425577   0.2783250
0.0099447    -0.9994365   0.0000004   0.0004398  -0.0000398  -0.0000004  -0.0000051  -0.9425478   0.2783615
0.0100669    -0.9995377   0.0000873   0.0004290  -0.0000130  -0.0000093  -0.0000186  -0.9425242   0.2785836
0.0101907    -0.9995190   0.0000226   0.0004147  -0.0000323  -0.0000033  -0.0000092  -0.9425358   0.2786114
0.0103160    -0.9995662   0.0002133   0.0004406   0.0000264   0.0000116  -0.0000083  -0.9425019   0.2787091
0.0104428    -0.9996417   0.0000445   0.0003931  -0.0000389  -0.0000035   0.0000003  -0.9425838   0.2789201
0.0105712    -0.9995581   0.0000018   0.0004360  -0.0000731   0.0000088   0.0000015  -0.9425830   0.2789347
0.0107011    -0.9995309  -0.0001846   0.0003952   0.0000186   0.0000044  -0.0000051  -0.9426090   0.2791118
0.0108327    -0.9994714  -0.0001293   0.0004043   0.0000107   0.0000012  -0.0000062  -0.9425325   0.2791449
0.0109658    -0.9994610   0.0000049   0.0004635  -0.0000120  -0.0000070  -0.0000045  -0.9426464   0.2792784
0.0111006    -0.9995615   0.0000604   0.0004110  -0.0000229  -0.0000041  -0.0000068  -0.9426136   0.2795289
0.0112371    -0.9995445  -0.0001039   0.0004041  -0.0000370  -0.0000054   0.0000003  -0.9426557   0.2794251
0.0113752    -0.9994147  -0.0000073   0.0004631   0.0000266  -0.0000107   0.0000007  -0.9425597   0.2795968
0.0115151    -0.9996224  -0.0000400   0.0004066  -0.0000490   0.0000003  -0.0000004  -0.9427017   0.2798539
0.0116566    -0.9996386  -0.0000454   0.0004054  -0.0000080  -0.0000025  -0.0000093  -0.9425976   0.2797545
0.0117999    -0.9995749  -0.0000126   0.0003643  -0.0000625  -0.0000078  -0.0000039  -0.9426702   0.2800117
0.0119450    -0.9996809  -0.0001417   0.0004668  -0.0000069  -0.0000012   0.0000006  -0.9434624   0.2782170
0.0120918    -0.9996263  -0.0000895   0.0004236  -0.0000396   0.0000006  -0.0000104  -0.9426943   0.2801527
0.0122405    -0.9996259   0.0000706   0.0004743  -0.0000357  -0.0000107   0.0000039  -0.9427471   0.2801706
0.0123910    -0.9995383  -0.0000576   0.0004925  -0.0000088  -0.0000042  -0.0000100  -0.9426088   0.2804391
0.0125433    -0.9996203  -0.0000926   0.0003823   0.0000234  -0.0000016   0.0000043  -0.9427097   0.2803775
0.0126975    -0.9994678   0.0001468   0.0004192  -0.0000359  -0.0000036  -0.0000023  -0.9425424   0.2804387
0.0128536    -0.9995284  -0.0001009   0.0004596   0.0000556   0.0000036  -0.0000033  -0.9426407   0.2806492
0.0130116    -0.9996692  -0.0000256   0.0003825  -0.0000163   0.0000031   0.0000037  -0.9426215   0.2806846
0.0131716    -0.9994786  -0.0000411   0.0005759   0.0000560  -0.0000045   0.0000010  -0.9426642   0.2806807
0.0133335    -0.9995591  -0.0000463   0.0004295  -0.0000552  -0.0000017  -0.0000095  -0.9425145   0.2809397
0.0134974    -0.9995615  -0.0000600   0.0004630  -0.0000091   0.0000014  -0.0000020  -0.9425677   0.2809175
0.0136633    -0.9994987   0.0000280   0.0004556  -0.0000096   0.0000013  -0.0000062  -0.9426221   0.2811150
0.0138313    -0.9995591  -0.0001025   0.0004348   0.0000527  -0.0000014  -0.0000050  -0.9425397   0.2811490
0.0140013    -0.9995563  -0.0001328   0.0004941  -0.0002728  -0.0000043  -0.0000027  -0.9426175   0.2812854
0.0141734    -0.9995450   0.0000406   0.0002855  -0.0001012  -0.0000133  -0.0000052  -0.9426482   0.2814176
0.0143477    -0.9996194   0.0000344   0.0005233  -0.0003046   0.0000019  -0.0000050  -0.9426134   0.2813920
0.0145240    -0.9995167  -0.0002245   0.0005082  -0.0000879   0.0000018   0.0000028  -0.9426510   0.2814696
0.0147026    -0.9995354  -0.0000201   0.0003791  -0.0000371   0.0000098  -0.0000082  -0.9425887   0.2815431
0.0148833    -0.9995618  -0.0000125   0.0004371   0.0000295  -0.0000038  -0.0000085  -0.9425701   0.2817147
0.0150663    -0.9996013   0.0000202   0.0003623  -0.0000427   0.0000025  -0.0000094  -0.9425500   0.2817628
0.0152515    -0.9994895   0.0000208   0.0003867  -0.0000345  -0.0000064  -0.0000097  -0.9425577   0.2819218
0.0154390    -0.9996099  -0.0000839   0.0003722  -0.0000073  -0.0000151   0.0000062  -0.9425825   0.2819117
0.0156288    -0.9996737   0.0001614   0.0004365   0.0000235  -0.0000092  -0.0000074  -0.9426634   0.2819290
0.0158209    -0.9994201  -0.0000265   0.0003322  -0.0001017  -0.0000031  -0.0000088  -0.9425187   0.2819562
0.0160154    -0.9994722   0.0000022   0.0004005  -0.0000902   0.0000012  -0.0000067  -0.9425096   0.2821765
0.0162123    -0.9995945  -0.0000653   0.0003555   0.0000549  -0.0000041  -0.0000005  -0.9424733   0.2823458
0.0164116    -0.9995723   0.0000460   0.0004091   0.0000174   0.0000020  -0.0000133  -0.9425390   0.2823374
0.0166134    -0.9994992  -0.0000634   0.0004591   0.0000217   0.0000025   0.0000024  -0.9424725   0.2825105
0.0168176    -0.9994974  -0.0001246   0.0003887  -0.0000474   0.0000023  -0.0000011  -0.9425681   0.2824212
0.0170243    -0.9994056  -0.0000329   0.0004600   0.0000784  -0.0000044  -0.0000021  -0.9425075   0.2825839
0.0172336    -0.9995597  -0.0000266   0.0003847   0.0000180   0.0000039  -0.0000065  -0.9424701   0.2825693
0.0174455    -0.9995966  -0.0000310   0.0003299  -0.0000431  -0.0000069   0.0000054  -0.9424511   0.2826684
0.0176599    -0.9996114   0.0000242   0.0004098  -0.0000202  -0.0000030  -0.0000096  -0.9424459   0.2827776
0.0178770    -0.9995303   0.0000644   0.0004831  -0.0001427  -0.0000056   0.0000042  -0.9424224   0.2829245
0.0180968    -0.9995614  -0.0000211   0.0005143  -0.0000557  -0.0000086  -0.0000035  -0.9424302   0.2828374
0.0183193    -0.9995791  -0.0000089   0.0003794  -0.0000557   0.0000087  -0.0000044  -0.9424509   0.2830002
0.0185445    -0.9995729  -0.0000405   0.0004197   0.0000029   0.0000103  -0.0000060  -0.9424455   0.2830423
0.0187724    -0.9995201   0.0001617   0.0005564   0.0000918   0.0000036   0.0000011  -0.9423371   0.2830841
0.0190032    -0.9995806   0.0000410   0.0005653   0.0000032  -0.0000030  -0.0000051  -0.9424280   0.2831313
0.0192368    -0.9995061  -0.0001684   0.0001634   0.0000271   0.0000020   0.0000008  -0.9425254   0.2832695
0.0194733    -0.9994892   0.0000010   0.0002880  -0.0001883   0.0000098  -0.0000044  -0.9424154   0.2833488
0.0197127    -0.9995204  -0.0001673   0.0006387   0.0000038  -0.0000072  -0.0000149  -0.9423865   0.2834325
0.0199550    -0.9996267  -0.0001842   0.0003013  -0.0001491  -0.0000085  -0.0000115  -0.9424142   0.2834576
0.0202003    -0.9995990  -0.0000777   0.0004482  -0.0001006  -0.0000027  -0.0000121  -0.9424186   0.2834956
0.0204487    -0.9997188  -0.0000329   0.0004077  -0.0000862  -0.0000126  -0.0000027  -0.9423482   0.2836018
0.0207001    -0.9995438  -0.0000316   0.0004240  -0.0001130  -0.0000050  -0.0000153  -0.9422820   0.2836091
0.0209545    -0.9996333  -0.0000525   0.0004526   0.0000255  -0.0000042  -0.0000062  -0.9422991   0.2836966
0.0212121    -0.9994816  -0.0000605   0.0003936  -0.0000339   0.0000013   0.0000014  -0.9422630   0.2838958
0.0214729    -0.9995532  -0.0000043   0.0003620  -0.0000825  -0.0000082  -0.0000137  -0.9423046   0.2839225
0.0217369    -0.9995615  -0.0000925   0.0003801  -0.0000593   0.0000177  -0.0000012  -0.9422967   0.2839207
0.0220041    -0.9996361  -0.0000749   0.0003117  -0.0001046  -0.0000034  -0.0000052  -0.9423316   0.2839710
0.0222746    -0.9994781  -0.0000475   0.0003894  -0.0000177   0.0000044  -0.0000094  -0.9421834   0.2840686
0.0225484    -0.9995724   0.0000024   0.0004081  -0.0000635  -0.0000069   0.0000029  -0.9421589   0.2840821
0.0228256    -0.9995637  -0.0000970   0.0004459  -0.0000521  -0.0000015   0.0000000  -0.9422130   0.2841121
0.0231062    -0.9996106  -0.0000762   0.0004191  -0.0000538  -0.0000071  -0.0000067  -0.9422103   0.2841453
0.0233902    -0.9994721   0.0000047   0.0004210  -0.0000506  -0.0000062   0.0000041  -0.9421501   0.2842650
0.0236778    -0.9995510  -0.0001603   0.0004192  -0.0000619   0.0000026  -0.0000065  -0.9421274   0.2843437
0.0239689    -1.0017304  -0.0007573   0.0004595  -0.0000727  -0.0000034  -0.0000028  -0.9431943   0.2849166
0.0242635    -0.9994959  -0.0000063   0.0004232  -0.0000668   0.0000020  -0.0000015  -0.9421554   0.2844378
0.0245618    -0.9995580  -0.0000916   0.0003973  -0.0000516  -0.0000175  -0.0000006  -0.9420997   0.2845678
0.0248637    -0.9995452  -0.0000802   0.0004420  -0.0000784  -0.0000010  -0.0000011  -0.9421057   0.2846436
0.0251694    -0.9994746  -0.0000362   0.0004230  -0.0000710  -0.0000045  -0.0000092  -0.9421237   0.2846718
0.0254788    -0.9994926  -0.0000524   0.0004010  -0.0000443  -0.0000051  -0.0000060  -0.9420106   0.2847303
0.0257920    -0.9996725  -0.0000963   0.0004347  -0.0000686   0.0000011  -0.0000116  -0.9420984   0.2848583
0.0261091    -0.9995217   0.0000273   0.0004154  -0.0000509   0.0000032  -0.0000093  -0.9419308   0.2848252
0.0264301    -0.9996359  -0.0000281   0.0004419  -0.0000451   0.0000051  -0.0000114  -0.9420806   0.2849199
0.0267550    -0.9995237  -0.0000731   0.0004346  -0.0000670  -0.0000017   0.0000036  -0.9419236   0.2849455
0.0270839    -0.9994332  -0.0000169   0.0004349  -0.0000719  -0.0000150  -0.0000070  -0.9420152   0.2849370
0.0274168    -0.9995469  -0.0000244   0.0004474  -0.0000611  -0.0000071  -0.0000091  -0.9419723   0.2849874
0.0277539    -0.9994759  -0.0001282   0.0004049  -0.0000578  -0.0000055  -0.0000124  -0.9418585   0.2850718
0.0280951    -0.9995760  -0.0000339   0.0004389  -0.0000354  -0.0000084  -0.0000131  -0.9418695   0.2851680
0.0284404    -0.9994715   0.0000402   0.0004633  -0.0000565  -0.0000050  -0.0000027  -0.9418926   0.2852433
0.0287901    -0.9995341  -0.0000505   0.0004152  -0.0000694  -0.0000104  -0.0000071  -0.9419360   0.2851845
0.0291440    -0.9995551  -0.0002078   0.0004451  -0.0000355   0.0000046  -0.0000088  -0.9418947   0.2853351
0.0295023    -0.9995224  -0.0000309   0.0004293  -0.0000635   0.0000158   0.0000033  -0.9418181   0.2853636
0.0298649    -0.9995191  -0.0000934   0.0004424  -0.0000437   0.0000090  -0.0000008  -0.9418149   0.2853996
0.0302321    -0.9996537  -0.0000262   0.0004364  -0.0000560   0.0000043  -0.0000058  -0.9417208   0.2854923
0.0306037    -0.9994107  -0.0000355   0.0004371  -0.0001062  -0.0000045  -0.0000008  -0.9417143   0.2855678
0.0309799    -0.9995704   0.0000632   0.0004369  -0.0000777  -0.0000045   0.0000013  -0.9418265   0.2855831
0.0313608    -0.9995575  -0.0000524   0.0004383  -0.0000140   0.0000041  -0.0000197  -0.9417779   0.2856653
0.0317463    -0.9995380   0.0000617   0.0003773  -0.0000972  -0.0000047   0.0000050  -0.9416988   0.2857371
0.0321366    -0.9994229  -0.0000608   0.0004047  -0.0000137   0.0000041  -0.0000031  -0.9417880   0.2857474
0.0325316    -0.9995335  -0.0000582   0.0004679  -0.0000856   0.0000030  -0.0000159  -0.9416747   0.2858300
0.0329316    -0.9995827  -0.0000237   0.0004198  -0.0000337   0.0000071  -0.0000175  -0.9416642   0.2859160
0.0333364    -0.9995636  -0.0000066   0.0004266  -0.0000360   0.0000033  -0.0000037  -0.9416956   0.2859965
0.0337462    -0.9995398  -0.0000672   0.0004542  -0.0000105   0.0000003   0.0000066  -0.9415459   0.2858363
0.0341610    -0.9994654   0.0000674   0.0004133  -0.0001241   0.0000031  -0.0000018  -0.9415890   0.2860550
0.0345810    -0.9996971  -0.0000393   0.0004818  -0.0001042   0.0000025  -0.0000054  -0.9415994   0.2860402
0.0350061    -0.9995007  -0.0000313   0.0003849  -0.0000861   0.0000041   0.0000028  -0.9416480   0.2861025
0.0354365    -0.9995733   0.0000023   0.0004696  -0.0000371   0.0000008  -0.0000113  -0.9415532   0.2862356
0.0358721    -0.9995869   0.0000018   0.0003627  -0.0000877   0.0000027   0.0000040  -0.9415274   0.2861881
0.0363131    -0.9995819  -0.0001753   0.0004530  -0.0001169  -0.0000035  -0.0000022  -0.9415787   0.2862180
0.0367595    -0.9994740  -0.0000536   0.0003870  -0.0000799  -0.0000029  -0.0000134  -0.9414277   0.2863980
0.0372114    -0.9995587  -0.0000120   0.0004218  -0.0000177   0.0000021  -0.0000147  -0.9414660   0.2864445
0.0376688    -0.9994789  -0.0001438   0.0004301  -0.0000101  -0.0000015  -0.0000004  -0.9414265   0.2864517
0.0381319    -0.9995824  -0.0000728   0.0004042   0.0000327  -0.0000009  -0.0000148  -0.9414994   0.2864761
0.0386006    -0.9995799  -0.0000900   0.0004764  -0.0000424  -0.0000001  -0.0000062  -0.9414738   0.2866139
0.0390752    -0.9995384  -0.0000245   0.0003816  -0.0001923   0.0000058  -0.0000044  -0.9413666   0.2865701
0.0395555    -0.9997009  -0.0000633   0.0004038  -0.0001229  -0.0000018  -0.0000008  -0.9413887   0.2866159
0.0400418    -0.9996343   0.0000159   0.0004552  -0.0000010  -0.0000059  -0.0000090  -0.9414225   0.2867169
0.0405340    -0.9995258  -0.0000191   0.0004293  -0.0000514   0.0000032  -0.0000083  -0.9413678   0.2866962
0.0410323    -0.9994465  -0.0001506   0.0004098  -0.0000439   0.0000113  -0.0000063  -0.9412536   0.2867964
0.0415368    -0.9996436  -0.0001638   0.0004114  -0.0001036  -0.0000101   0.0000046  -0.9413906   0.2868516
0.0420474    -0.9995249  -0.0000905   0.0004143  -0.0000750  -0.0000032  -0.0000059  -0.9413047   0.2867908
0.0425643    -0.9995486  -0.0000638   0.0003904  -0.0000788   0.0000041  -0.0000041  -0.9412317   0.2868349
0.0430875    -0.9995214  -0.0001087   0.0003802  -0.0001004   0.0000041  -0.0000004  -0.9413051   0.2869693
0.0436172    -0.9995739  -0.0000284   0.0004190  -0.0000782  -0.0000077  -0.0000074  -0.9412355   0.2870156
0.0441534    -0.9995120  -0.0001107   0.0004113  -0.0000844   0.0000004  -0.0000073  -0.9411886   0.2871031
0.0446962    -0.9994072  -0.0000765   0.0003891  -0.0000748  -0.0000045  -0.0000057  -0.9411981   0.2871376
0.0452457    -0.9995514  -0.0000342   0.0004276  -0.0000833   0.0000028  -0.0000074  -0.9411458   0.2871384
0.0458019    -0.9995766  -0.0000795   0.0004081  -0.0000736   0.0000017  -0.0000085  -0.9411226   0.2871739
0.0463649    -0.9996076  -0.0001235   0.0003740  -0.0001104   0.0000098   0.0000013  -0.9410879   0.2872438
0.0469349    -0.9995116  -0.0001442   0.0004111  -0.0000968  -0.0000076  -0.0000056  -0.9410962   0.2873527
0.0475119    -0.9995274  -0.0000905   0.0003840  -0.0001078   0.0000017  -0.0000071  -0.9410704   0.2873649
0.0480960    -0.9996818  -0.0001549   0.0004146  -0.0001222  -0.0000044  -0.0000019  -0.9409973   0.2874680
0.0486872    -0.9995448  -0.0001736   0.0003954  -0.0001071  -0.0000129  -0.0000110  -0.9409651   0.2874875
0.0492857    -0.9995204  -0.0000533   0.0003825  -0.0000583  -0.0000002  -0.0000042  -0.9409461   0.2875644
0.0498916    -0.9995095  -0.0002098   0.0003787  -0.0001032  -0.0000045  -0.0000018  -0.9408737   0.2876173
0.0505050    -0.9995790  -0.0000861   0.0003866  -0.0000594  -0.0000103  -0.0000166  -0.9409469   0.2876108
0.0511258    -0.9995781  -0.0001218   0.0004228  -0.0000698  -0.0000017  -0.0000074  -0.9409396   0.2877756
0.0517543    -0.9996168  -0.0000138   0.0004091  -0.0000773  -0.0000078  -0.0000062  -0.9409543   0.2877150
0.0523906    -0.9995586  -0.0000335   0.0003646  -0.0000198   0.0000057  -0.0000072  -0.9408638   0.2877875
0.0530346    -0.9995386  -0.0000359   0.0003627  -0.0001338   0.0000032  -0.0000115  -0.9408033   0.2878187
0.0536866    -0.9995265  -0.0001229   0.0003884  -0.0001002  -0.0000095  -0.0000167  -0.9408350   0.2878571
0.0543466    -0.9995559  -0.0000593   0.0003960  -0.0001129  -0.0000052  -0.0000006  -0.9407425   0.2878680
0.0550146    -0.9995703  -0.0001274   0.0003963  -0.0000820  -0.0000055  -0.0000045  -0.9407686   0.2879192
0.0556910    -0.9995534  -0.0001196   0.0003245  -0.0000925  -0.0000121  -0.0000102  -0.9406990   0.2879734
0.0563756    -0.9997129  -0.0000863   0.0003092  -0.0001236   0.0000018  -0.0000108  -0.9407175   0.2881117
0.0570686    -0.9995762  -0.0002316   0.0003779  -0.0000252   0.0000006  -0.0000166  -0.9406780   0.2881488
0.0577702    -0.9995953  -0.0000486   0.0003378  -0.0000934  -0.0000013  -0.0000054  -0.9406106   0.2882546
0.0584804    -0.9996192  -0.0001948   0.0003562  -0.0000915   0.0000011  -0.0000075  -0.9405687   0.2881916
0.0591993    -0.9995236  -0.0000231   0.0003813  -0.0001329   0.0000087   0.0000003  -0.9405477   0.2882490
0.0599270    -0.9995402  -0.0000596   0.0003865  -0.0000656   0.0000084  -0.0000020  -0.9406534   0.2883762
0.0606637    -0.9994750  -0.0000751   0.0003869  -0.0001285  -0.0000008  -0.0000084  -0.9404613   0.2883609
0.0614095    -0.9994520  -0.0002094   0.0003729  -0.0000953  -0.0000130   0.0000009  -0.9405219   0.2883972
0.0621644    -0.9995929  -0.0001184   0.0003734  -0.0001172  -0.0000010  -0.0000074  -0.9405535   0.2885076
0.0629286    -0.9993737  -0.0001101   0.0003675  -0.0001122  -0.0000052  -0.0000012  -0.9404398   0.2884878
0.0637022    -0.9994109  -0.0001035   0.0003865  -0.0001189   0.0000020  -0.0000046  -0.9403573   0.2886245
0.0644853    -0.9995505  -0.0000909   0.0003961  -0.0001123  -0.0000014  -0.0000039  -0.9404157   0.2886764
0.0652780    -0.9995178  -0.0000487   0.0003837  -0.0000885   0.0000039  -0.0000084  -0.9403190   0.2886986
0.0660805    -0.9996738  -0.0002187   0.0003849  -0.0001124  -0.0000050  -0.0000067  -0.9402917   0.2888275
0.0668928    -0.9995318  -0.0001497   0.0003418  -0.0000894  -0.0000128  -0.0000122  -0.9402203   0.2888212
0.0677152    -0.9995896  -0.0001154   0.0003438  -0.0001135   0.0000000  -0.0000112  -0.9402024   0.2888230
0.0685476    -0.9995172  -0.0001916   0.0003738  -0.0001222  -0.0000072  -0.0000117  -0.9401862   0.2888922
0.0693903    -0.9994725  -0.0000459   0.0003338  -0.0001163  -0.0000004  -0.0000041  -0.9401122   0.2890172
0.0702433    -0.9995257  -0.0001194   0.0003509  -0.0001144  -0.0000029   0.0000041  -0.9401311   0.2890242
0.0711068    -0.9994853  -0.0001413   0.0003715  -0.0000920   0.0000037  -0.0000059  -0.9400895   0.2890692
0.0719810    -0.9994611  -0.0001533   0.0003579  -0.0000955  -0.0000091   0.0000050  -0.9400307   0.2890734
0.0728659    -0.9995560  -0.0001057   0.0003636  -0.0001209   0.0000052  -0.0000014  -0.9399982   0.2891921
0.0737616    -0.9995243  -0.0001501   0.0003255  -0.0001057  -0.0000012   0.0000004  -0.9399166   0.2892475
0.0746684    -0.9995840  -0.0001160   0.0003611  -0.0001219   0.0000073  -0.0000086  -0.9399425   0.2892933
0.0755863    -0.9995474  -0.0001663   0.0003644  -0.0001319  -0.0000051  -0.0000018  -0.9398644   0.2893296
0.0765155    -0.9995116  -0.0001552   0.0003519  -0.0001237  -0.0000040  -0.0000102  -0.9398543   0.2893451
0.0774561    -0.9996329  -0.0002319   0.0004184  -0.0000958   0.0000021  -0.0000132  -0.9397228   0.2894283
0.0784083    -0.9995773  -0.0001814   0.0003604  -0.0001158   0.0000033   0.0000006  -0.9396576   0.2894038
0.0793722    -0.9995347  -0.0001208   0.0003182  -0.0001123  -0.0000042  -0.0000104  -0.9396161   0.2895158
0.0803479    -0.9996009  -0.0000942   0.0003592  -0.0001256   0.0000014  -0.0000099  -0.9396115   0.2895176
0.0813357    -0.9995507  -0.0001740   0.0003504  -0.0001342  -0.0000006  -0.0000007  -0.9394970   0.2895606
0.0823356    -0.9995323  -0.0001059   0.0003523  -0.0001213  -0.0000053  -0.0000076  -0.9394075   0.2896695
0.0833477    -0.9995842  -0.0001700   0.0003512  -0.0001191   0.0000061  -0.0000029  -0.9393761   0.2896456
0.0843723    -0.9995523  -0.0002067   0.0003525  -0.0001252   0.0000086  -0.0000037  -0.9393115   0.2897923
0.0854095    -0.9995990  -0.0001685   0.0003253  -0.0001294  -0.0000026  -0.0000074  -0.9392051   0.2896720
0.0864595    -0.9995391  -0.0001430   0.0003453  -0.0001415  -0.0000029   0.0000073  -0.9391912   0.2898053
0.0875224    -0.9995627  -0.0001762   0.0003294  -0.0001123   0.0000034  -0.0000104  -0.9391330   0.2897833
0.0885983    -0.9995913  -0.0002388   0.0003280  -0.0001180  -0.0000022  -0.0000038  -0.9390844   0.2898074
0.0896875    -0.9995776  -0.0001522   0.0003322  -0.0001287   0.0000089  -0.0000091  -0.9389901   0.2898603
0.0907900    -0.9995719  -0.0001228   0.0003434  -0.0001289  -0.0000058  -0.0000009  -0.9389029   0.2897670
0.0919061    -0.9995404  -0.0000653   0.0003434  -0.0001385   0.0000026   0.0000009  -0.9387465   0.2898359
0.0930359    -0.9995304  -0.0002239   0.0003112  -0.0001166   0.0000012   0.0000016  -0.9387368   0.2897206
0.0941797    -0.9995601  -0.0001362   0.0003300  -0.0001184   0.0000025   0.0000095  -0.9386642   0.2897788
0.0953374    -0.9996474  -0.0001882   0.0003614  -0.0001279  -0.0000047   0.0000036  -0.9386589   0.2896874
0.0965094    -0.9995305  -0.0001244   0.0003470  -0.0001314   0.0000008  -0.0000022  -0.9385277   0.2897067
0.0976959    -0.9994164  -0.0001442   0.0003429  -0.0001414   0.0000064  -0.0000051  -0.9385353   0.2896980
0.0988969    -0.9995279  -0.0001835   0.0003055  -0.0001297  -0.0000068  -0.0000015  -0.9384663   0.2896201
0.1001126    -0.9995011  -0.0000938   0.0003324  -0.0001295  -0.0000042  -0.0000113  -0.9384273   0.2896009
0.1013433    -0.9995271  -0.0002341   0.0003239  -0.0001217  -0.0000066  -0.0000005  -0.9384162   0.2895283
0.1025892    -0.9995205  -0.0002781   0.0003184  -0.0001159  -0.0000089  -0.0000156  -0.9383242   0.2894642
0.1038503    -0.9994909  -0.0002389   0.0003084  -0.0001479  -0.0000061   0.0000026  -0.9383898   0.2893628
0.1051270    -0.9994542  -0.0000944   0.0003119  -0.0001276  -0.0000042   0.0000032  -0.9384645   0.2893710
0.1064193    -0.9995693  -0.0000448   0.0003241  -0.0001327  -0.0000009  -0.0000043  -0.9385210   0.2892712
0.1077276    -0.9994835  -0.0001554   0.0003199  -0.0001257  -0.0000010   0.0000042  -0.9385561   0.2893075
0.1090519    -0.9995076  -0.0002650   0.0003194  -0.0001342   0.0000081   0.0000023  -0.9386699   0.2891948
0.1103925    -0.9994511  -0.0002275   0.0003158  -0.0001091  -0.0000053  -0.0000082  -0.9386504   0.2892372
0.1117496    -0.9994703  -0.0002066   0.0003174  -0.0001446   0.0000070  -0.0000009  -0.9387449   0.2892651
0.1131233    -0.9994099  -0.0002149   0.0003198  -0.0001444  -0.0000109  -0.0000063  -0.9388706   0.2892237
0.1145140    -0.9995606  -0.0001690   0.0002839  -0.0001273  -0.0000020  -0.0000139  -0.9389367   0.2893050
0.1159217    -0.9995866  -0.0002413   0.0003030  -0.0001317  -0.0000058  -0.0000006  -0.9389502   0.2893045
0.1173468    -0.9994600  -0.0003020   0.0003038  -0.0001539   0.0000043  -0.0000100  -0.9390159   0.2893834
0.1187893    -0.9994843  -0.0000962   0.0002873  -0.0001422  -0.0000015  -0.0000112  -0.9391408   0.2894386
0.1202497    -0.9994389  -0.0002642   0.0002863  -0.0001104  -0.0000076  -0.0000202  -0.9391425   0.2894774
0.1217279    -0.9995208  -0.0002353   0.0003150  -0.0001370   0.0000047   0.0000067  -0.9391774   0.2895602
0.1232243    -0.9994725  -0.0001727   0.0003130  -0.0001421  -0.0000059  -0.0000097  -0.9393238   0.2897100
0.1247392    -0.9995724  -0.0002418   0.0002998  -0.0001533  -0.0000005  -0.0000021  -0.9393441   0.2897610
0.1262726    -0.9995513  -0.0002516   0.0003151  -0.0001394  -0.0000082  -0.0000107  -0.9393835   0.2898578
0.1278249    -0.9995357  -0.0002935   0.0003212  -0.0001499  -0.0000011  -0.0000062  -0.9393711   0.2899272
0.1293963    -0.9995129  -0.0002976   0.0002898  -0.0001505  -0.0000038  -0.0000042  -0.9394349   0.2900448
0.1309870    -0.9995320  -0.0003058   0.0002799  -0.0001235   0.0000004  -0.0000140  -0.9394403   0.2901690
0.1325973    -0.9994521  -0.0001550   0.0002769  -0.0001243  -0.0000006   0.0000020  -0.9394429   0.2901727
0.1342273    -0.9996103  -0.0001909   0.0002874  -0.0001168  -0.0000030  -0.0000066  -0.9395119   0.2902830
0.1358774    -0.9994646  -0.0003042   0.0002666  -0.0001422  -0.0000045   0.0000028  -0.9394840   0.2904587
0.1375478    -0.9994876  -0.0001486   0.0002704  -0.0001099   0.0000041  -0.0000011  -0.9395102   0.2904983
0.1392387    -0.9995323  -0.0002377   0.0002839  -0.0001275  -0.0000016  -0.0000030  -0.9394896   0.2906542
0.1409504    -0.9995078  -0.0003148   0.0003107  -0.0001442  -0.0000098  -0.0000030  -0.9395416   0.2907525
0.1426831    -0.9996419  -0.0002826   0.0002901  -0.0001310  -0.0000051  -0.0000032  -0.9395182   0.2907696
0.1444371    -0.9994763  -0.0002519   0.0002873  -0.0001419   0.0000040  -0.0000025  -0.9394529   0.2909111
0.1462127    -0.9994592  -0.0002664   0.0002714  -0.0001527   0.0000011  -0.0000080  -0.9395321   0.2910522
0.1480102    -0.9995523  -0.0002720   0.0002613  -0.0001418  -0.0000016  -0.0000117  -0.9394888   0.2911476
0.1498297    -0.9994854  -0.0002959   0.0002713  -0.0001374  -0.0000046   0.0000006  -0.9394295   0.2911965
0.1516716    -0.9994128  -0.0003342   0.0002514  -0.0001281  -0.0000031   0.0000037  -0.9394114   0.2913293
0.1535361    -0.9996056  -0.0003316   0.0002707  -0.0001257  -0.0000056  -0.0000089  -0.9394468   0.2914228
0.1554236    -0.9994789  -0.0003182   0.0002748  -0.0001474   0.0000006   0.0000022  -0.9394299   0.2915906
0.1573342    -0.9996891  -0.0003226   0.0002768  -0.0001305  -0.0000109  -0.0000090  -0.9393141   0.2916879
0.1592684    -0.9995425  -0.0003374   0.0002817  -0.0001568   0.0000048   0.0000032  -0.9394186   0.2917255
0.1612263    -0.9995290  -0.0003085   0.0002672  -0.0001363   0.0000049  -0.0000010  -0.9393069   0.2918717
0.1632083    -0.9994634  -0.0002190   0.0002715  -0.0001499   0.0000052  -0.0000046  -0.9393931   0.2919294
0.1652147    -0.9995112  -0.0003287   0.0002794  -0.0001064  -0.0000054   0.0000015  -0.9392935   0.2920767
0.1672457    -0.9995428  -0.0003648   0.0002768  -0.0001419   0.0000058  -0.0000092  -0.9392819   0.2921465
0.1693017    -0.9995672  -0.0002603   0.0002629  -0.0001212  -0.0000093  -0.0000026  -0.9392562   0.2921591
0.1713829    -0.9994856  -0.0002729   0.0002446  -0.0001525  -0.0000062  -0.0000029  -0.9392212   0.2923577
0.1734898    -0.9995272  -0.0003666   0.0002443  -0.0001370  -0.0000008   0.0000005  -0.9391912   0.2923584
0.1756225    -0.9994925  -0.0002884   0.0002280  -0.0001446   0.0000067  -0.0000024  -0.9391699   0.2925539
0.1777815    -0.9995490  -0.0002748   0.0002294  -0.0001469  -0.0000031  -0.0000086  -0.9390592   0.2925714
0.1799670    -0.9995513  -0.0004297   0.0002444  -0.0001420  -0.0000053  -0.0000102  -0.9390654   0.2927581
0.1821794    -0.9994911  -0.0002640   0.0002290  -0.0001354   0.0000027  -0.0000042  -0.9390483   0.2928551
0.1844190    -0.9995790  -0.0003325   0.0002352  -0.0001332  -0.0000014  -0.0000113  -0.9391059   0.2929285
0.1866861    -0.9994532  -0.0004464   0.0002469  -0.0001313  -0.0000025  -0.0000085  -0.9389236   0.2930493
0.1889811    -0.9995102  -0.0003414   0.0002566  -0.0001442  -0.0000052  -0.0000045  -0.9389341   0.2931909
0.1913043    -0.9995569  -0.0003808   0.0002314  -0.0001294  -0.0000022  -0.0000077  -0.9389398   0.2931881
0.1936560    -0.9995806  -0.0003558   0.0002377  -0.0001278  -0.0000029   0.0000011  -0.9388743   0.2934055
0.1960367    -0.9994645  -0.0003804   0.0002185  -0.0001331  -0.0000034  -0.0000113  -0.9388666   0.2935421
0.1984466    -0.9995374  -0.0003276   0.0002425  -0.0001237  -0.0000069  -0.0000007  -0.9388003   0.2935264
0.2008861    -0.9995323  -0.0004361   0.0002324  -0.0001299  -0.0000035  -0.0000135  -0.9388468   0.2937072
0.2033557    -0.9996051  -0.0004784   0.0002190  -0.0001243  -0.0000017  -0.0000072  -0.9388149   0.2937507
0.2058556    -0.9996306  -0.0003421   0.0002223  -0.0001430   0.0000063  -0.0000012  -0.9386165   0.2938308
0.2083862    -0.9994547  -0.0003284   0.0002355  -0.0001503  -0.0000007  -0.0000098  -0.9386430   0.2939738
0.2109480    -0.9994623  -0.0003884   0.0002169  -0.0001128  -0.0000041   0.0000037  -0.9386125   0.2940661
0.2135412    -0.9995621  -0.0004180   0.0002144  -0.0001406   0.0000026  -0.0000099  -0.9385548   0.2941996
0.2161663    -0.9994386  -0.0004262   0.0002292  -0.0001529   0.0000069  -0.0000061  -0.9385860   0.2942747
0.2188237    -0.9994971  -0.0005018   0.0002143  -0.0001362  -0.0000015  -0.0000051  -0.9385893   0.2944157
0.2215137    -0.9995231  -0.0004187   0.0002242  -0.0001331  -0.0000176  -0.0000081  -0.9384733   0.2944849
0.2242369    -0.9994836  -0.0004470   0.0002175  -0.0001231  -0.0000093  -0.0000156  -0.9383799   0.2946712
0.2269935    -0.9995602  -0.0003859   0.0002264  -0.0001466  -0.0000070  -0.0000102  -0.9383557   0.2947396
0.2297839    -0.9995391  -0.0003818   0.0002068  -0.0001413   0.0000008  -0.0000095  -0.9383288   0.2948782
0.2326087    -0.9995723  -0.0005625   0.0002147  -0.0001138  -0.0000072  -0.0000042  -0.9383012   0.2949777
0.2354682    -0.9995198  -0.0004667   0.0002145  -0.0001404   0.0000062  -0.0000025  -0.9382314   0.2950852
0.2383629    -0.9995226  -0.0004937   0.0002177  -0.0001444   0.0000095  -0.0000077  -0.9382402   0.2951383
0.2412932    -0.9995632  -0.0005364   0.0002166  -0.0001116  -0.0000204  -0.0000146  -0.9381400   0.2952565
0.2442594    -0.9995625  -0.0005094   0.0002037  -0.0001283  -0.0000093   0.0000065  -0.9381314   0.2954319
0.2472622    -0.9994979  -0.0005167   0.0002018  -0.0001287  -0.0000034  -0.0000044  -0.9381191   0.2955686
0.2503018    -0.9995489  -0.0005247   0.0001981  -0.0001431  -0.0000125  -0.0000093  -0.9379876   0.2957517
0.2533788    -0.9995871  -0.0004708   0.0001992  -0.0001298  -0.0000040   0.0000031  -0.9379655   0.2957465
0.2564937    -0.9995037  -0.0004709   0.0002016  -0.0001375  -0.0000017  -0.0000116  -0.9379517   0.2958429
0.2596468    -0.9995436  -0.0004680   0.0001910  -0.0001281  -0.0000103  -0.0000019  -0.9378675   0.2960615
0.2628387    -0.9994710  -0.0005516   0.0001906  -0.0001635   0.0000019   0.0000031  -0.9378421   0.2962113
0.2660699    -0.9995794  -0.0004915   0.0001923  -0.0001117   0.0000030  -0.0000001  -0.9377637   0.2962477
0.2693407    -0.9995132  -0.0006433   0.0001937  -0.0001288   0.0000029   0.0000017  -0.9376920   0.2964796
0.2726518    -0.9995497  -0.0004708   0.0001808  -0.0001214   0.0000098  -0.0000065  -0.9376563   0.2965318
0.2760036    -0.9995094  -0.0004939   0.0001926  -0.0001313  -0.0000009  -0.0000004  -0.9376370   0.2967253
0.2793966    -0.9994847  -0.0004791   0.0001773  -0.0001207   0.0000015  -0.0000069  -0.9375655   0.2967840
0.2828312    -0.9994532  -0.0005025   0.0001904  -0.0001287  -0.0000054  -0.0000065  -0.9375553   0.2969881
0.2863082    -0.9995255  -0.0005549   0.0001743  -0.0001344  -0.0000069  -0.0000156  -0.9374514   0.2970842
0.2898278    -0.9995455  -0.0006263   0.0001988  -0.0001368   0.0000011  -0.0000148  -0.9373987   0.2972562
0.2933907    -0.9995248  -0.0004830   0.0001792  -0.0001161  -0.0000071  -0.0000110  -0.9374491   0.2973166
0.2969975    -0.9993824  -0.0006086   0.0001694  -0.0001255   0.0000025  -0.0000002  -0.9373918   0.2974570
0.3006485    -0.9994530  -0.0006275   0.0002024  -0.0001080  -0.0000037  -0.0000003  -0.9372446   0.2976492
0.3043445    -0.9994980  -0.0006046   0.0001701  -0.0001142   0.0000030  -0.0000090  -0.9372233   0.2977212
0.3080858    -0.9994228  -0.0005980   0.0001591  -0.0001289   0.0000008  -0.0000047  -0.9371217   0.2978439
0.3118732    -0.9995390  -0.0006053   0.0001731  -0.0001270  -0.0000029  -0.0000037  -0.9370846   0.2981255
0.3157071    -0.9994597  -0.0005765   0.0001711  -0.0001239   0.0000001  -0.0000051  -0.9369519   0.2981806
0.3195882    -0.9994382  -0.0006269   0.0001676  -0.0001328  -0.0000056  -0.0000075  -0.9369621   0.2983713
0.3235170    -0.9995298  -0.0005777   0.0001723  -0.0001311   0.0000005  -0.0000101  -0.9368877   0.2985743
0.3274941    -0.9995177  -0.0005876   0.0001655  -0.0001288  -0.0000171  -0.0000030  -0.9368245   0.2986018
0.3315200    -0.9995143  -0.0006180   0.0001604  -0.0001199  -0.0000011  -0.0000002  -0.9366881   0.2987612
0.3355955    -0.9995073  -0.0006671   0.0002043  -0.0001072   0.0000024  -0.0000098  -0.9367534   0.2988743
0.3397210    -0.9995324  -0.0006864   0.0001536  -0.0001062  -0.0000033  -0.0000140  -0.9366286   0.2991156
0.3438973    -0.9994939  -0.0006272   0.0001758  -0.0001230   0.0000025  -0.0000018  -0.9365542   0.2991742
0.3481249    -0.9994425  -0.0006211   0.0001785  -0.0001218  -0.0000090  -0.0000003  -0.9365513   0.2993079
0.3524045    -0.9994400  -0.0006501   0.0001569  -0.0001114   0.0000071  -0.0000049  -0.9364981   0.2994654
0.3567367    -0.9995317  -0.0007762   0.0001687  -0.0000922   0.0000048  -0.0000006  -0.9364733   0.2996630
0.3611221    -0.9995288  -0.0007109   0.0001756  -0.0001089  -0.0000009  -0.0000053  -0.9363157   0.2998125
0.3655615    -0.9994877  -0.0007530   0.0001594  -0.0001003   0.0000008   0.0000035  -0.9362350   0.2999891
0.3700554    -0.9995122  -0.0006686   0.0001722  -0.0000938  -0.0000078   0.0000013  -0.9361766   0.3001423
0.3746046    -0.9995649  -0.0007895   0.0001440  -0.0001078  -0.0000074   0.0000052  -0.9360952   0.3002810
0.3792097    -0.9994653  -0.0006498   0.0001432  -0.0001142   0.0000027  -0.0000014  -0.9360310   0.3005167
0.3838714    -0.9994823  -0.0006614   0.0001347  -0.0001085  -0.0000147   0.0000006  -0.9360487   0.3006684
0.3885905    -0.9995323  -0.0007185   0.0001558  -0.0001072   0.0000014  -0.0000025  -0.9359445   0.3008066
0.3933675    -0.9995299  -0.0009052   0.0001572  -0.0000859  -0.0000064  -0.0000079  -0.9358374   0.3010662
0.3982033    -0.9994281  -0.0006803   0.0001543  -0.0000996   0.0000045  -0.0000028  -0.9357388   0.3011775
0.4030985    -0.9995157  -0.0008521   0.0001336  -0.0000855  -0.0000013  -0.0000019  -0.9356822   0.3013380
0.4080538    -0.9994745  -0.0008096   0.0001400  -0.0000824   0.0000088  -0.0000011  -0.9356213   0.3015114
0.4130701    -0.9993758  -0.0008947   0.0001528  -0.0000928  -0.0000030  -0.0000011  -0.9354990   0.3017008
0.4181481    -0.9994457  -0.0008277   0.0001530  -0.0000810  -0.0000217  -0.0000123  -0.9354835   0.3019167
0.4232885    -0.9995261  -0.0007547   0.0001514  -0.0000993   0.0000013  -0.0000042  -0.9353929   0.3020374
0.4284921    -0.9994446  -0.0008365   0.0001653  -0.0000944   0.0000050  -0.0000019  -0.9353126   0.3021829
0.4337597    -0.9994570  -0.0008258   0.0001327  -0.0000917  -0.0000025  -0.0000129  -0.9351899   0.3024178
0.4390920    -0.9995099  -0.0009148   0.0001532  -0.0000837   0.0000014  -0.0000040  -0.9351455   0.3026475
0.4444898    -0.9995251  -0.0008524   0.0001418  -0.0000850   0.0000003  -0.0000071  -0.9350953   0.3028394
0.4499541    -0.9994333  -0.0007889   0.0001492  -0.0000843   0.0000018   0.0000071  -0.9349420   0.3029515
0.4554854    -0.9993240  -0.0008971   0.0001349  -0.0000811  -0.0000024   0.0000004  -0.9349191   0.3031716
0.4610848    -0.9995257  -0.0009818   0.0001230  -0.0000790   0.0000036  -0.0000010  -0.9347462   0.3034583
0.4667531    -0.9994920  -0.0009342   0.0001495  -0.0000750  -0.0000048  -0.0000122  -0.9347264   0.3035858
0.4724910    -0.9993701  -0.0009225   0.0001367  -0.0000632   0.0000114  -0.0000039  -0.9345766   0.3037551
0.4782994    -0.9994413  -0.0009476   0.0001331  -0.0000729  -0.0000062  -0.0000052  -0.9345650   0.3040264
0.4841793    -0.9995111  -0.0009584   0.0001229  -0.0000635   0.0000106   0.0000023  -0.9344129   0.3041643
0.4901314    -0.9995221  -0.0010362   0.0001337  -0.0000760   0.0000062  -0.0000086  -0.9344641   0.3044346
0.4961567    -0.9994964  -0.0010249   0.0001249  -0.0000662  -0.0000058  -0.0000014  -0.9343045   0.3046205
0.5022561    -0.9993853  -0.0009851   0.0001243  -0.0000917  -0.0000017  -0.0000053  -0.9341865   0.3048411
0.5084304    -0.9994291  -0.0009921   0.0001224  -0.0000707  -0.0000013  -0.0000019  -0.9340425   0.3051119
0.5146807    -0.9994390  -0.0010987   0.0001068  -0.0000672  -0.0000092  -0.0000063  -0.9339961   0.3052493
0.5210078    -0.9994584  -0.0009773   0.0001318  -0.0000624   0.0000043  -0.0000041  -0.9338725   0.3054744
0.5274126    -0.9995208  -0.0010427   0.0001182  -0.0000572  -0.0000064  -0.0000075  -0.9338402   0.3057256
0.5338963    -0.9995035  -0.0010820   0.0001210  -0.0000452   0.0000003   0.0000057  -0.9337405   0.3059158
0.5404596    -0.9994500  -0.0010903   0.0001150  -0.0000521  -0.0000084   0.0000050  -0.9336710   0.3062319
0.5471036    -0.9994101  -0.0011558   0.0001200  -0.0000767  -0.0000094  -0.0000065  -0.9335276   0.3063257
0.5538292    -0.9994945  -0.0011535   0.0001144  -0.0000708   0.0000020  -0.0000054  -0.9334165   0.3066357
0.5606376    -0.9995382  -0.0011254   0.0001147  -0.0000825  -0.0000026  -0.0000073  -0.9332411   0.3068205
0.5675297    -0.9995328  -0.0011582   0.0001085  -0.0000532  -0.0000022  -0.0000028  -0.9331879   0.3071370
0.5745064    -0.9994372  -0.0010840   0.0001071  -0.0000642   0.0000018   0.0000011  -0.9330557   0.3073340
0.5815690    -0.9995039  -0.0012236   0.0001125  -0.0000467   0.0000020   0.0000047  -0.9330523   0.3075216
0.5887183    -0.9994794  -0.0011744   0.0001118  -0.0000791  -0.0000109  -0.0000114  -0.9328489   0.3077647
0.5959556    -0.9994048  -0.0011200   0.0001102  -0.0000471  -0.0000057  -0.0000093  -0.9327533   0.3080503
0.6032818    -0.9993526  -0.0013550   0.0001164  -0.0000543  -0.0000051  -0.0000031  -0.9326622   0.3083318
0.6106981    -0.9994770  -0.0012903   0.0001327  -0.0000650   0.0000033  -0.0000101  -0.9325332   0.3086434
0.6182056    -0.9993053  -0.0012790   0.0001125  -0.0000496   0.0000045  -0.0000047  -0.9324797   0.3087512
0.6258053    -0.9994317  -0.0013459   0.0001169  -0.0000530  -0.0000036   0.0000009  -0.9323100   0.3090988
0.6334985    -0.9994400  -0.0012792   0.0001122  -0.0000469   0.0000043  -0.0000057  -0.9322906   0.3093580
0.6412862    -0.9994785  -0.0014242   0.0000966  -0.0000468  -0.0000087  -0.0000039  -0.9320162   0.3096498
0.6491697    -0.9994383  -0.0013195   0.0001105  -0.0000513  -0.0000025   0.0000017  -0.9320639   0.3099768
0.6571501    -0.9994847  -0.0013625   0.0000956  -0.0000297  -0.0000156  -0.0000076  -0.9318527   0.3101546
0.6652286    -0.9994871  -0.0013197   0.0000784  -0.0000359   0.0000013  -0.0000025  -0.9317385   0.3105023
0.6734064    -0.9994349  -0.0013074   0.0000955  -0.0000486  -0.0000007  -0.0000128  -0.9316249   0.3107810
0.6816848    -0.9995346  -0.0014342   0.0001061  -0.0000365  -0.0000108  -0.0000052  -0.9314518   0.3109770
0.6900649    -0.9993606  -0.0014065   0.0001072  -0.0000453  -0.0000001  -0.0000024  -0.9313558   0.3112493
0.6985480    -0.9994935  -0.0014192   0.0001003  -0.0000376  -0.0000011  -0.0000022  -0.9312130   0.3116300
0.7071355    -0.9995115  -0.0015298   0.0000990  -0.0000362   0.0000024  -0.0000047  -0.9311384   0.3119213
0.7158284    -0.9993796  -0.0015266   0.0001041  -0.0000554   0.0000018  -0.0000044  -0.9310515   0.3121998
0.7246283    -0.9994508  -0.0015088   0.0001047  -0.0000168  -0.0000065  -0.0000022  -0.9308397   0.3124587
0.7335363    -0.9993985  -0.0015111   0.0001013  -0.0000419   0.0000072  -0.0000030  -0.9308036   0.3127722
0.7425539    -0.9994180  -0.0015450   0.0000991  -0.0000388  -0.0000014  -0.0000051  -0.9306783   0.3131388
0.7516822    -0.9993749  -0.0015193   0.0000924  -0.0000154  -0.0000061   0.0000039  -0.9304417   0.3133883
0.7609229    -0.9993583  -0.0015448   0.0001068  -0.0000354  -0.0000108  -0.0000073  -0.9302693   0.3136903
0.7702771    -0.9992634  -0.0016674   0.0000856  -0.0000363   0.0000060  -0.0000118  -0.9301103   0.3139566
0.7797463    -0.9993546  -0.0016544   0.0000946  -0.0000345  -0.0000053  -0.0000039  -0.9299867   0.3143409
0.7893319    -0.9994384  -0.0016114   0.0001125  -0.0000340  -0.0000011  -0.0000039  -0.9298566   0.3146606
0.7990353    -0.9993675  -0.0016501   0.0001167  -0.0000189   0.0000108   0.0000006  -0.9297423   0.3149845
0.8088580    -0.9993730  -0.0017063   0.0001009  -0.0000100  -0.0000011  -0.0000043  -0.9295781   0.3153214
0.8188015    -0.9993984  -0.0016759   0.0000998  -0.0000246  -0.0000041  -0.0000032  -0.9294537   0.3156519
0.8288673    -0.9994045  -0.0017448   0.0001002  -0.0000276  -0.0000032  -0.0000065  -0.9292674   0.3159989
0.8390567    -0.9994184  -0.0018061   0.0000946  -0.0000169   0.0000029  -0.0000167  -0.9291964   0.3163791
0.8493714    -0.9994191  -0.0017632   0.0001008  -0.0000173   0.0000081  -0.0000012  -0.9290133   0.3166715
0.8598130    -0.9993512  -0.0019047   0.0001111  -0.0000226   0.0000073  -0.0000083  -0.9288463   0.3170546
0.8703829    -0.9993014  -0.0018188   0.0000859  -0.0000189   0.0000037  -0.0000044  -0.9286617   0.3173866
0.8810827    -0.9994774  -0.0018551   0.0000886   0.0000102  -0.0000029  -0.0000054  -0.9285109   0.3178376
0.8919140    -0.9994319  -0.0019022   0.0001017   0.0000071   0.0000023  -0.0000108  -0.9283561   0.3181357
0.9028786    -0.9992401  -0.0018698   0.0000949   0.0000166  -0.0000092   0.0000004  -0.9281942   0.3185210
0.9139779    -0.9993220  -0.0018901   0.0000850  -0.0000186  -0.0000026  -0.0000067  -0.9280326   0.3189216
0.9252136    -0.9992278  -0.0019974   0.0000940   0.0000006  -0.0000001  -0.0000139  -0.9278553   0.3192816
0.9365875    -0.9993676  -0.0020446   0.0000963  -0.0000129  -0.0000034   0.0000006  -0.9276938   0.3196557
0.9481012    -0.9993895  -0.0019983   0.0000851   0.0000060  -0.0000017  -0.0000055  -0.9275186   0.3200543
0.9597564    -0.9993191  -0.0020353   0.0001011   0.0000098  -0.0000017  -0.0000023  -0.9273121   0.3204456
0.9715549    -0.9993382  -0.0020761   0.0000957  -0.0000074  -0.0000036  -0.0000012  -0.9271461   0.3208858
0.9834985    -0.9992786  -0.0021796   0.0001111  -0.0000082  -0.0000065  -0.0000013  -0.9270109   0.3212321
0.9955889    -0.9993393  -0.0020455   0.0000954   0.0000257  -0.0000032  -0.0000050  -0.9268638   0.3216050
1.0078279    -0.9993800  -0.0021678   0.0001029   0.0000012   0.0000107  -0.0000079  -0.9265545   0.3220619
1.0202173    -0.9991992  -0.0021604   0.0001097   0.0000130   0.0000011  -0.0000053  -0.9264578   0.3224213
1.0327591    -0.9992448  -0.0022957   0.0000908   0.0000044  -0.0000039  -0.0000004  -0.9262505   0.3229331
1.0454551    -0.9993772  -0.0022142   0.0000907   0.0000172   0.0000008  -0.0000101  -0.9260666   0.3233381
1.0583071    -0.9992051  -0.0022536   0.0000781   0.0000143  -0.0000013   0.0000049  -0.9258682   0.3237213
1.0713171    -0.9992797  -0.0023548   0.0000890   0.0000106  -0.0000064   0.0000018  -0.9255917   0.3241481
1.0844871    -0.9992684  -0.0022379   0.0001221   0.0000118  -0.0000048   0.0000027  -0.9254617   0.3245377
1.0978189    -0.9993578  -0.0023413   0.0001031   0.0000217   0.0000007   0.0000068  -0.9252756   0.3250599
1.1113147    -0.9993773  -0.0023384   0.0001002   0.0000088  -0.0000006  -0.0000055  -0.9250334   0.3254274
1.1249763    -0.9993190  -0.0023757   0.0000834   0.0000130  -0.0000013  -0.0000018  -0.9248774   0.3259905
1.1388059    -0.9991466  -0.0024346   0.0001052   0.0000364  -0.0000019  -0.0000060  -0.9247198   0.3264517
1.1528056    -0.9993516  -0.0024948   0.0001032   0.0000395  -0.0000044  -0.0000036  -0.9244583   0.3268988
1.1669773    -0.9991894  -0.0025453   0.0000966   0.0000245  -0.0000009  -0.0000082  -0.9242727   0.3273953
1.1813232    -0.9993056  -0.0025651   0.0000931   0.0000123  -0.0000031  -0.0000048  -0.9240773   0.3278585
1.1958455    -0.9992235  -0.0025884   0.0000920   0.0000161   0.0000009   0.0000004  -0.9238039   0.3283554
1.2105463    -0.9993091  -0.0026683   0.0001037   0.0000356  -0.0000031  -0.0000085  -0.9236208   0.3288517
1.2254278    -0.9992888  -0.0026162   0.0000906   0.0000374  -0.0000064   0.0000002  -0.9233540   0.3293477
1.2404923    -0.9992231  -0.0026369   0.0000999   0.0000147   0.0000005  -0.0000006  -0.9232183   0.3298264
1.2557420    -0.9993024  -0.0027287   0.0001028   0.0000190   0.0000060  -0.0000034  -0.9229541   0.3303611
1.2711791    -0.9991688  -0.0028392   0.0001167   0.0000380   0.0000058   0.0000032  -0.9226769   0.3308420
1.2868060    -0.9991739  -0.0027465   0.0000898   0.0000437  -0.0000086   0.0000018  -0.9224299   0.3313969
1.3026251    -0.9992361  -0.0028033   0.0000867   0.0000571   0.0000010  -0.0000178  -0.9221532   0.3319239
1.3186385    -0.9992202  -0.0028817   0.0000728   0.0000159  -0.0000032  -0.0000001  -0.9219294   0.3324706
1.3348489    -0.9992809  -0.0029054   0.0000885   0.0000330  -0.0000022  -0.0000067  -0.9217568   0.3330027
1.3512585    -0.9992270  -0.0029025   0.0000952   0.0000414  -0.0000067  -0.0000152  -0.9214508   0.3335168
1.3678698    -0.9991815  -0.0029764   0.0000913   0.0000526  -0.0000091  -0.0000157  -0.9212825   0.3340755
1.3846854    -0.9991725  -0.0030856   0.0000879   0.0000551   0.0000027  -0.0000135  -0.9210106   0.3347380
1.4017077    -0.9992206  -0.0030929   0.0001110   0.0000605   0.0000041   0.0000045  -0.9207423   0.3352204
1.4189392    -0.9992530  -0.0031357   0.0000871   0.0000469   0.0000006   0.0000001  -0.9205003   0.3357456
1.4363825    -0.9992043  -0.0032311   0.0001007   0.0000560  -0.0000072  -0.0000012  -0.9202484   0.3363581
1.4540403    -0.9992180  -0.0032350   0.0001011   0.0000543  -0.0000064  -0.0000011  -0.9199559   0.3369570
1.4719152    -0.9991570  -0.0032180   0.0000866   0.0000361   0.0000078   0.0000075  -0.9197156   0.3376479
1.4900098    -0.9991809  -0.0032483   0.0000900   0.0000614   0.0000059  -0.0000025  -0.9193985   0.3381595
1.5083269    -0.9991831  -0.0034008   0.0000799   0.0000628  -0.0000053   0.0000013  -0.9191216   0.3387463
1.5268691    -0.9991710  -0.0033082   0.0000990   0.0000629   0.0000075  -0.0000016  -0.9188447   0.3393919
1.5456392    -0.9990597  -0.0034412   0.0000947   0.0000482  -0.0000034  -0.0000016  -0.9186352   0.3399954
1.5646402    -0.9992141  -0.0035903   0.0000912   0.0000837   0.0000027  -0.0000022  -0.9183255   0.3407034
1.5838747    -0.9991087  -0.0034737   0.0001065   0.0000651  -0.0000058   0.0000018  -0.9180071   0.3413056
1.6033456    -0.9991158  -0.0036152   0.0001110   0.0000584  -0.0000038   0.0000005  -0.9178175   0.3419714
1.6230559    -0.9991646  -0.0036756   0.0001068   0.0000744   0.0000040  -0.0000088  -0.9174998   0.3426997
1.6430085    -0.9991184  -0.0037049   0.0000766   0.0000745  -0.0000092  -0.0000087  -0.9171685   0.3433497
1.6632064    -0.9991303  -0.0036397   0.0000968   0.0000794  -0.0000108  -0.0000073  -0.9168588   0.3440620
1.6836526    -0.9990337  -0.0037016   0.0000847   0.0000801   0.0000037  -0.0000099  -0.9166106   0.3447857
1.7043502    -0.9990193  -0.0038656   0.0000975   0.0000762   0.0000002  -0.0000113  -0.9161800   0.3455200
1.7253021    -0.9990355  -0.0038714   0.0001137   0.0000721  -0.0000079  -0.0000040  -0.9159925   0.3461715
1.7465117    -0.9991727  -0.0040505   0.0000679   0.0000733   0.0000025  -0.0000055  -0.9157903   0.3469968
1.7679820    -0.9990120  -0.0039335   0.0000890   0.0000721  -0.0000045   0.0000031  -0.9154066   0.3477171
1.7897162    -0.9990454  -0.0040248   0.0001003   0.0000721  -0.0000016  -0.0000074  -0.9151174   0.3484560
1.8117176    -0.9990186  -0.0040303   0.0000990   0.0000798  -0.0000088  -0.0000035  -0.9147761   0.3493066
1.8339895    -0.9990291  -0.0041136   0.0001006   0.0000932  -0.0000118  -0.0000034  -0.9144893   0.3500739
1.8565352    -0.9991519  -0.0041730   0.0000888   0.0000913  -0.0000061  -0.0000007  -0.9141587   0.3508992
1.8793580    -0.9990144  -0.0041958   0.0000888   0.0000917   0.0000050  -0.0000067  -0.9138773   0.3516445
1.9024614    -0.9991021  -0.0043786   0.0000902   0.0000560   0.0000034   0.0000019  -0.9136433   0.3524820
1.9258488    -0.9990522  -0.0044348   0.0000941   0.0001037  -0.0000040  -0.0000066  -0.9132013   0.3533232
1.9495237    -0.9990112  -0.0045075   0.0000986   0.0000946  -0.0000036  -0.0000086  -0.9128573   0.3542622
1.9734897    -0.9990509  -0.0043466   0.0000903   0.0000890  -0.0000027  -0.0000027  -0.9124967   0.3551210
1.9977503    -0.9990227  -0.0045208   0.0000972   0.0001062  -0.0000022  -0.0000100  -0.9121862   0.3560367
2.0223091    -0.9989647  -0.0047138   0.0000911   0.0000959   0.0000036  -0.0000066  -0.9117146   0.3569520
2.0471698    -0.9990288  -0.0046263   0.0001048   0.0000665   0.0000021  -0.0000058  -0.9112576   0.3578717
2.0723362    -0.9988687  -0.0048363   0.0001093   0.0000865  -0.0000052  -0.0000109  -0.9108508   0.3587810
2.0978119    -0.9989845  -0.0047944   0.0000963   0.0001055  -0.0000046  -0.0000081  -0.9103719   0.3597379
2.1236008    -0.9990051  -0.0048733   0.0000993   0.0001288  -0.0000093  -0.0000004  -0.9098752   0.3606545
2.1497067    -0.9989514  -0.0050044   0.0001247   0.0000877  -0.0000046  -0.0000022  -0.9093895   0.3616367
2.1761336    -0.9990800  -0.0050596   0.0000950   0.0001308  -0.0000068  -0.0000094  -0.9089004   0.3624516
2.2028853    -0.9990207  -0.0051611   0.0000867   0.0001329  -0.0000069  -0.0000036  -0.9082573   0.3634525
2.2299659    -0.9988517  -0.0051917   0.0001002   0.0000999  -0.0000041  -0.0000103  -0.9079217   0.3643863
2.2573794    -0.9989748  -0.0053322   0.0000807   0.0001116  -0.0000005   0.0000045  -0.9073349   0.3653268
2.2851299    -0.9990540  -0.0053848   0.0000720   0.0001196  -0.0000203  -0.0000078  -0.9067572   0.3662666
2.3132216    -0.9989702  -0.0054146   0.0000993   0.0001355  -0.0000061  -0.0000051  -0.9062437   0.3671181
2.3416586    -0.9989001  -0.0055329   0.0001025   0.0001301   0.0000013  -0.0000147  -0.9056892   0.3680784
2.3704451    -0.9989119  -0.0055602   0.0000875   0.0001334  -0.0000051  -0.0000091  -0.9051684   0.3691096
2.3995856    -0.9989162  -0.0056955   0.0001003   0.0001529  -0.0000066  -0.0000082  -0.9045189   0.3700807
2.4290843    -0.9989089  -0.0058077   0.0000827   0.0001159  -0.0000003  -0.0000136  -0.9041214   0.3709168
2.4589456    -0.9989858  -0.0057711   0.0000715   0.0001550  -0.0000015  -0.0000055  -0.9035454   0.3719175
2.4891740    -0.9988652  -0.0057952   0.0001020   0.0001550   0.0000065   0.0000046  -0.9030067   0.3729132
2.5197740    -0.9989304  -0.0060753   0.0000754   0.0001561  -0.0000101  -0.0000049  -0.9025121   0.3739415
2.5507502    -0.9988590  -0.0059686   0.0000742   0.0001196  -0.0000041   0.0000006  -0.9019500   0.3748543
2.5821072    -0.9988878  -0.0061189   0.0000832   0.0001256   0.0000005  -0.0000009  -0.9013914   0.3758758
2.6138496    -0.9988788  -0.0061393   0.0000898   0.0001348  -0.0000073  -0.0000027  -0.9007222   0.3768633
2.6459823    -0.9988889  -0.0063568   0.0001043   0.0001349  -0.0000029   0.0000048  -0.9001987   0.3779199
2.6785100    -0.9987653  -0.0063143   0.0000927   0.0001385  -0.0000082  -0.0000121  -0.8996597   0.3790409
2.7114376    -0.9988199  -0.0065361   0.0001032   0.0001266  -0.0000063  -0.0000062  -0.8990225   0.3800620
2.7447699    -0.9989321  -0.0065931   0.0001121   0.0001177   0.0000017  -0.0000063  -0.8984440   0.3810689
2.7785120    -0.9988650  -0.0066528   0.0000933   0.0001201  -0.0000026  -0.0000068  -0.8978285   0.3821643
2.8126689    -0.9988237  -0.0067626   0.0001057   0.0001334  -0.0000122   0.0000035  -0.8973122   0.3833147
2.8472457    -0.9988799  -0.0068596   0.0001106   0.0001431  -0.0000035  -0.0000070  -0.8967607   0.3844286
2.8822476    -0.9988822  -0.0068483   0.0000918   0.0001412   0.0000060   0.0000022  -0.8961782   0.3855124
2.9176798    -0.9988520  -0.0070240   0.0000947   0.0001559  -0.0000007  -0.0000141  -0.8955195   0.3866086
2.9535475    -0.9988033  -0.0070761   0.0000989   0.0001693  -0.0000058  -0.0000054  -0.8949483   0.3878070
2.9898562    -0.9988168  -0.0072242   0.0001124   0.0001461  -0.0000028  -0.0000049  -0.8942470   0.3890268
3.0266112    -0.9988865  -0.0074407   0.0000909   0.0001406  -0.0000014  -0.0000102  -0.8936296   0.3901293
3.0638180    -0.9988536  -0.0073951   0.0000965   0.0001298  -0.0000027  -0.0000106  -0.8929854   0.3913348
3.1014823    -0.9988275  -0.0075028   0.0001066   0.0001777   0.0000122   0.0000001  -0.8923790   0.3926033
3.1396096    -0.9988874  -0.0077125   0.0001001   0.0001509   0.0000007  -0.0000151  -0.8916534   0.3937399
3.1782055    -0.9988735  -0.0077260   0.0000988   0.0001835  -0.0000052  -0.0000060  -0.8910269   0.3950064
3.2172760    -0.9987983  -0.0079254   0.0001097   0.0001589  -0.0000021  -0.0000025  -0.8903442   0.3962763
3.2568267    -0.9987958  -0.0079516   0.0001169   0.0001808   0.0000000   0.0000010  -0.8897056   0.3975141
3.2968637    -0.9988859  -0.0080014   0.0000919   0.0001653   0.0000079  -0.0000071  -0.8889123   0.3988380
3.3373928    -0.9989357  -0.0081960   0.0001028   0.0001763  -0.0000055  -0.0000043  -0.8882090   0.4000991
3.3784202    -0.9987654  -0.0083709   0.0001044   0.0001938   0.0000017  -0.0000115  -0.8874257   0.4014749
3.4199519    -0.9988107  -0.0084256   0.0000926   0.0001774  -0.0000018  -0.0000072  -0.8867184   0.4027799
3.4619942    -0.9988373  -0.0084807   0.0000957   0.0001745   0.0000094  -0.0000015  -0.8859021   0.4040620
3.5045533    -0.9988481  -0.0085683   0.0001048   0.0001902  -0.0000130  -0.0000043  -0.8851955   0.4055343
3.5476356    -0.9988327  -0.0087556   0.0000899   0.0001827  -0.0000032  -0.0000072  -0.8844131   0.4068135
3.5912475    -0.9988745  -0.0087945   0.0000997   0.0002017   0.0000050  -0.0000068  -0.8835820   0.4081858
3.6353956    -0.9988019  -0.0089407   0.0000964   0.0001850  -0.0000033   0.0000033  -0.8828196   0.4096963
3.6800864    -0.9987129  -0.0091056   0.0000979   0.0001901  -0.0000019  -0.0000012  -0.8820544   0.4111741
3.7253266    -0.9988650  -0.0091813   0.0001022   0.0001997  -0.0000012   0.0000029  -0.8812237   0.4125975
3.7711229    -0.9988624  -0.0093448   0.0001100   0.0002076   0.0000036  -0.0000073  -0.8804596   0.4140384
3.8174822    -0.9988519  -0.0095003   0.0000947   0.0002142   0.0000054  -0.0000037  -0.8795996   0.4154965
3.8644115    -0.9987746  -0.0096058   0.0001011   0.0002026  -0.0000027  -0.0000005  -0.8788628   0.4170898
3.9119176    -0.9988719  -0.0097095   0.0001043   0.0002012   0.0000050  -0.0000047  -0.8780034   0.4186069
3.9600077    -0.9988594  -0.0099062   0.0001047   0.0002137  -0.0000003  -0.0000106  -0.8772529   0.4201030
4.0086890    -0.9988379  -0.0100554   0.0001019   0.0001886  -0.0000001  -0.0000011  -0.8762245   0.4216955
4.0579688    -0.9988782  -0.0101973   0.0000873   0.0001957   0.0000105  -0.0000087  -0.8753939   0.4232443
4.1078544    -0.9988943  -0.0101615   0.0001046   0.0002019   0.0000009  -0.0000062  -0.8745147   0.4247613
4.1583532    -0.9988462  -0.0104103   0.0001239   0.0002121  -0.0000076  -0.0000134  -0.8735491   0.4263804
4.2094729    -0.9988124  -0.0105721   0.0001166   0.0002283  -0.0000130  -0.0000085  -0.8727399   0.4279787
4.2612209    -0.9988553  -0.0107364   0.0001012   0.0002199   0.0000049  -0.0000003  -0.8717528   0.4295703
4.3136051    -0.9988523  -0.0108252   0.0000747   0.0002227   0.0000094  -0.0000038  -0.8707551   0.4312195
4.3666333    -0.9989129  -0.0109282   0.0001150   0.0002171  -0.0000042  -0.0000094  -0.8698497   0.4329018
4.4203134    -0.9988792  -0.0110975   0.0001026   0.0002344  -0.0000094  -0.0000055  -0.8687537   0.4345216
4.4746534    -0.9988864  -0.0112633   0.0001064   0.0002374  -0.0000100  -0.0000040  -0.8676684   0.4362446
4.5296613    -0.9988625  -0.0114283   0.0001035   0.0002523  -0.0000140  -0.0000062  -0.8666960   0.4379928
4.5853455    -0.9989015  -0.0115921   0.0000852   0.0002326   0.0000126  -0.0000056  -0.8655878   0.4397037
4.6417143    -0.9989752  -0.0116994   0.0001191   0.0002567   0.0000038  -0.0000010  -0.8644354   0.4412928
4.6987760    -0.9988980  -0.0119816   0.0001124   0.0002359  -0.0000146  -0.0000077  -0.8633619   0.4429503
4.7565392    -0.9989780  -0.0120073   0.0000882   0.0002554  -0.0000048  -0.0000118  -0.8622112   0.4446939
4.8150125    -0.9989245  -0.0121539   0.0000996   0.0002458   0.0000012  -0.0000054  -0.8610678   0.4463435
4.8742045    -0.9989442  -0.0123374   0.0001002   0.0002430   0.0000013  -0.0000100  -0.8598778   0.4479819
4.9341243    -0.9989380  -0.0125174   0.0000950   0.0002691  -0.0000079  -0.0000109  -0.8588102   0.4494953
4.9947807    -0.9989691  -0.0126706   0.0000828   0.0002482  -0.0000006  -0.0000013  -0.8578174   0.4510817
5.0561827    -0.9990764  -0.0127127   0.0001131   0.0002644  -0.0000007  -0.0000055  -0.8568059   0.4527803
5.1183396    -0.9990277  -0.0130495   0.0000945   0.0002728   0.0000014  -0.0000067  -0.8558557   0.4544847
5.1812606    -0.9989085  -0.0130679   0.0000992   0.0002711   0.0000041   0.0000007  -0.8549632   0.4562606
5.2449550    -0.9990232  -0.0132645   0.0001098   0.0002821  -0.0000038  -0.0000165  -0.8540537   0.4582926
5.3094325    -0.9990504  -0.0134879   0.0000862   0.0002655  -0.0000002  -0.0000129  -0.8530595   0.4601084
5.3747026    -0.9991210  -0.0136651   0.0000997   0.0002678  -0.0000032  -0.0000010  -0.8520304   0.4623129
5.4407751    -0.9991551  -0.0138547   0.0001049   0.0002798   0.0000050  -0.0000045  -0.8508710   0.4642557
5.5076599    -0.9991405  -0.0139892   0.0000937   0.0003103  -0.0000117  -0.0000096  -0.8497691   0.4663224
5.5753669    -0.9992183  -0.0141474   0.0001044   0.0003032   0.0000046  -0.0000046  -0.8485973   0.4684798
5.6439062    -0.9991223  -0.0144712   0.0001072   0.0002972   0.0000020  -0.0000020  -0.8474325   0.4705647
5.7132881    -0.9991444  -0.0144865   0.0000956   0.0002944  -0.0000053  -0.0000021  -0.8461542   0.4727491
5.7835229    -0.9991916  -0.0146617   0.0000939   0.0002951   0.0000120  -0.0000015  -0.8448744   0.4749231
5.8546211    -0.9992627  -0.0148579   0.0000937   0.0003111   0.0000019  -0.0000059  -0.8436650   0.4771559
5.9265934    -0.9992477  -0.0150408   0.0000903   0.0003055   0.0000031  -0.0000032  -0.8422969   0.4793258
5.9994504    -0.9991771  -0.0154074   0.0001116   0.0003305  -0.0000047  -0.0000054  -0.8409209   0.4814409
6.0732031    -0.9992382  -0.0155166   0.0001201   0.0003373  -0.0000113  -0.0000100  -0.8395623   0.4836481
6.1478624    -0.9992090  -0.0156510   0.0001213   0.0003384   0.0000063  -0.0000045  -0.8381859   0.4858738
6.2234396    -0.9992878  -0.0158816   0.0000960   0.0003324  -0.0000013  -0.0000036  -0.8366054   0.4881844
6.2999458    -0.9993754  -0.0160203   0.0001135   0.0003222  -0.0000015  -0.0000074  -0.8352632   0.4904485
6.3773925    -0.9993241  -0.0162598   0.0001065   0.0003518  -0.0000065  -0.0000109  -0.8337530   0.4927246
6.4557914    -0.9993549  -0.0164126   0.0000998   0.0003508   0.0000019  -0.0000044  -0.8322471   0.4949631
6.5351539    -0.9993457  -0.0166258   0.0001087   0.0003534  -0.0000016   0.0000001  -0.8307492   0.4973691
6.6154922    -0.9993297  -0.0168440   0.0000910   0.0003466   0.0000017  -0.0000067  -0.8291662   0.4997310
6.6968180    -0.9993693  -0.0169776   0.0001000   0.0003523  -0.0000013  -0.0000054  -0.8275994   0.5021189
6.7791436    -0.9993576  -0.0172512   0.0001042   0.0003876  -0.0000036  -0.0000061  -0.8260330   0.5044637
6.8624812    -0.9994420  -0.0175392   0.0000869   0.0003631  -0.0000017  -0.0000108  -0.8244187   0.5069328
6.9468433    -0.9994702  -0.0176958   0.0001180   0.0003589  -0.0000075   0.0000006  -0.8228260   0.5093485
7.0322425    -0.9995892  -0.0178792   0.0000957   0.0003851  -0.0000001  -0.0000017  -0.8211146   0.5118158
7.1186916    -0.9994924  -0.0180873   0.0001204   0.0003803   0.0000055  -0.0000068  -0.8194095   0.5143454
7.2062034    -0.9996993  -0.0183908   0.0001116   0.0003998  -0.0000054  -0.0000028  -0.8176992   0.5169044
7.2947909    -0.9996011  -0.0185618   0.0001119   0.0003924  -0.0000060  -0.0000003  -0.8159561   0.5194736
7.3844675    -0.9996542  -0.0187607   0.0001128   0.0003995  -0.0000109  -0.0000018  -0.8142863   0.5220747
7.4752466    -0.9996225  -0.0190075   0.0001164   0.0004086   0.0000062  -0.0000064  -0.8124937   0.5246904
7.5671416    -0.9997521  -0.0191325   0.0000955   0.0004123  -0.0000101   0.0000033  -0.8107805   0.5273408
7.6601662    -0.9996963  -0.0193981   0.0000978   0.0003790  -0.0000032  -0.0000058  -0.8089321   0.5300260
7.7543345    -0.9998273  -0.0196901   0.0001067   0.0004223  -0.0000011  -0.0000027  -0.8070409   0.5328550
7.8496604    -0.9998855  -0.0198610   0.0001035   0.0004151  -0.0000081  -0.0000079  -0.8052010   0.5356596
7.9461581    -0.9997936  -0.0201496   0.0001213   0.0004308  -0.0000041  -0.0000001  -0.8031845   0.5385086
8.0438422    -0.9998872  -0.0203241   0.0000916   0.0004178  -0.0000019   0.0000034  -0.8012046   0.5413537
8.1427270    -0.9999093  -0.0206419   0.0000966   0.0004377   0.0000042   0.0000010  -0.7990345   0.5443276
8.2428275    -0.9998642  -0.0208356   0.0001010   0.0004410   0.0000016   0.0000028  -0.7968067   0.5471867
8.3441586    -1.0000076  -0.0211169   0.0001018   0.0004398  -0.0000017   0.0000017  -0.7946318   0.5499687
8.4467353    -0.9999204  -0.0213196   0.0001110   0.0004430   0.0000085  -0.0000037  -0.7923743   0.5529673
8.5505731    -1.0000453  -0.0215317   0.0001068   0.0004516   0.0000036  -0.0000037  -0.7900742   0.5557386
8.6556873    -1.0000740  -0.0218952   0.0001105   0.0004933   0.0000022  -0.0000069  -0.7877981   0.5586649
8.7620937    -1.0000529  -0.0222430   0.0001122   0.0004695  -0.0000146  -0.0000022  -0.7855033   0.5615264
8.8698082    -1.0000669  -0.0224144   0.0001189   0.0004844   0.0000006  -0.0000076  -0.7831491   0.5644380
8.9788469    -1.0000835  -0.0226398   0.0001175   0.0004780   0.0000057  -0.0000060  -0.7808526   0.5673655
9.0892260    -1.0002724  -0.0229107   0.0001120   0.0005085  -0.0000017  -0.0000065  -0.7784899   0.5703176
9.2009621    -1.0002121  -0.0231026   0.0001163   0.0005136  -0.0000012  -0.0000011  -0.7759998   0.5733714
9.3140717    -1.0003130  -0.0233958   0.0001020   0.0005078   0.0000038   0.0000058  -0.7735743   0.5763568
9.4285718    -1.0002094  -0.0236573   0.0001114   0.0005106  -0.0000053  -0.0000121  -0.7711036   0.5794398
9.5444795    -1.0002625  -0.0239402   0.0001373   0.0005266  -0.0000082   0.0000062  -0.7685506   0.5825374
9.6618121    -1.0003696  -0.0242201   0.0001300   0.0005169   0.0000018  -0.0000043  -0.7660223   0.5856292
9.7805870    -1.0004183  -0.0244686   0.0001268   0.0005437   0.0000009   0.0000032  -0.7634060   0.5888029
9.9008221    -1.0004108  -0.0247937   0.0001219   0.0005394   0.0000039  -0.0000012  -0.7607542   0.5920226
10.0225353   -1.0004159  -0.0250349   0.0001238   0.0005438  -0.0000049  -0.0000083  -0.7581033   0.5951324
10.1457447   -1.0004496  -0.0252495   0.0001348   0.0005635  -0.0000039  -0.0000058  -0.7553612   0.5984296
10.2704688   -1.0004563  -0.0257248   0.0001194   0.0005630  -0.0000041  -0.0000085  -0.7526769   0.6017045
10.3967261   -1.0005810  -0.0259192   0.0001262   0.0005792  -0.0000061  -0.0000066  -0.7498397   0.6050384
10.5245356   -1.0005674  -0.0262534   0.0000938   0.0005742  -0.0000079  -0.0000076  -0.7469667   0.6082174
10.6539162   -1.0005780  -0.0265673   0.0001309   0.0005740   0.0000029   0.0000029  -0.7440703   0.6115378
10.7848873   -1.0006965  -0.0268428   0.0001201   0.0006072   0.0000005  -0.0000063  -0.7411368   0.6149778
10.9174685   -1.0006749  -0.0271486   0.0001421   0.0006033  -0.0000070  -0.0000035  -0.7381281   0.6183689
11.0516796   -1.0006551  -0.0275178   0.0001474   0.0006083  -0.0000045   0.0000037  -0.7349763   0.6217995
11.1875405   -1.0008726  -0.0277627   0.0001139   0.0006146   0.0000009  -0.0000076  -0.7319551   0.6253218
11.3250716   -1.0007817  -0.0280983   0.0001414   0.0006102  -0.0000013  -0.0000002  -0.7288001   0.6287838
11.4642934   -1.0008498  -0.0283863   0.0001167   0.0006184  -0.0000070  -0.0000020  -0.7255736   0.6322627
11.6052267   -1.0008687  -0.0287152   0.0001145   0.0006116  -0.0000104  -0.0000051  -0.7223402   0.6358978
11.7478926   -1.0008955  -0.0290212   0.0001351   0.0006402  -0.0000036   0.0000009  -0.7190147   0.6394037
11.8923122   -1.0009501  -0.0293283   0.0001301   0.0006486   0.0000007   0.0000002  -0.7156511   0.6429700
12.0385073   -1.0010035  -0.0297342   0.0001319   0.0006694  -0.0000075  -0.0000003  -0.7121713   0.6466395
12.1864995   -1.0010376  -0.0299815   0.0001400   0.0006563  -0.0000044  -0.0000095  -0.7086981   0.6502674
12.3363111   -1.0010763  -0.0304602   0.0001363   0.0006556  -0.0000098  -0.0000015  -0.7052440   0.6539590
12.4879643   -1.0011627  -0.0306693   0.0001391   0.0006794  -0.0000047  -0.0000026  -0.7015574   0.6576797
12.6414818   -1.0011328  -0.0310563   0.0001542   0.0006628   0.0000050  -0.0000068  -0.6978449   0.6613944
12.7968866   -1.0011350  -0.0314790   0.0001287   0.0007035   0.0000019  -0.0000131  -0.6941116   0.6651428
12.9542018   -1.0012210  -0.0317900   0.0001432   0.0006863   0.0000027   0.0000004  -0.6903715   0.6689079
13.1134509   -1.0012185  -0.0321257   0.0001414   0.0007126  -0.0000100  -0.0000035  -0.6864955   0.6727020
13.2746577   -1.0013312  -0.0324461   0.0001335   0.0006995  -0.0000033  -0.0000037  -0.6825288   0.6765492
13.4378462   -1.0013805  -0.0328712   0.0001488   0.0007246   0.0000116  -0.0000093  -0.6785797   0.6805044
13.6030409   -1.0013886  -0.0333275   0.0001163   0.0007032   0.0000024  -0.0000091  -0.6744924   0.6843455
13.7702663   -1.0014593  -0.0336734   0.0001465   0.0007362  -0.0000078   0.0000053  -0.6703140   0.6882447
13.9395475   -1.0015042  -0.0339276   0.0001650   0.0007594  -0.0000009  -0.0000010  -0.6661352   0.6921232
14.1109097   -1.0015427  -0.0344520   0.0001354   0.0007723  -0.0000038  -0.0000051  -0.6618006   0.6961022
14.2843785   -1.0014915  -0.0348895   0.0001547   0.0007597   0.0000052   0.0000030  -0.6574447   0.7000021
14.4599797   -1.0016216  -0.0351848   0.0001570   0.0007770   0.0000036  -0.0000067  -0.6530176   0.7040575
14.6377397   -1.0017432  -0.0355465   0.0001498   0.0007976  -0.0000093  -0.0000076  -0.6485291   0.7080584
14.8176850   -1.0017154  -0.0358499   0.0001626   0.0007846  -0.0000131   0.0000027  -0.6439510   0.7120446
14.9998423   -1.0017123  -0.0364261   0.0001547   0.0008017  -0.0000022  -0.0000131  -0.6392536   0.7161155
15.1842390   -1.0017063  -0.0367179   0.0001608   0.0008225  -0.0000130   0.0000049  -0.6344815   0.7202062
15.3709024   -1.0018054  -0.0371943   0.0001362   0.0008110  -0.0000048   0.0000017  -0.6297241   0.7242485
15.5598606   -1.0018276  -0.0375825   0.0001453   0.0008354  -0.0000054  -0.0000108  -0.6248621   0.7283607
15.7511417   -1.0019302  -0.0380185   0.0001621   0.0008410   0.0000019  -0.0000063  -0.6198680   0.7325479
15.9447743   -1.0019541  -0.0384429   0.0001460   0.0008363   0.0000020  -0.0000005  -0.6148227   0.7366409
16.1407872   -1.0019402  -0.0389320   0.0001502   0.0008520  -0.0000153  -0.0000110  -0.6095775   0.7408179
16.3392097   -1.0020680  -0.0393735   0.0001566   0.0008690  -0.0000056   0.0000011  -0.6043237   0.7450111
16.5400716   -1.0020106  -0.0397669   0.0001652   0.0008820  -0.0000077   0.0000002  -0.5990279   0.7492048
16.7434026   -1.0020242  -0.0401630   0.0001649   0.0008940  -0.0000112  -0.0000024  -0.5935454   0.7533613
16.9492333   -1.0021756  -0.0406637   0.0001711   0.0008803   0.0000049   0.0000022  -0.5880423   0.7577115
17.1575942   -1.0020906  -0.0410755   0.0001554   0.0008954  -0.0000039   0.0000064  -0.5824226   0.7618352
17.3685166   -1.0022011  -0.0416184   0.0001510   0.0009130  -0.0000002   0.0000013  -0.5767305   0.7661086
17.5820320   -1.0023020  -0.0421060   0.0001564   0.0009340  -0.0000036  -0.0000010  -0.5708657   0.7702965
17.7981721   -1.0023330  -0.0424767   0.0001544   0.0009445  -0.0000008  -0.0000063  -0.5649477   0.7746078
18.0169693   -1.0022536  -0.0430549   0.0001694   0.0009517  -0.0000148   0.0000015  -0.5589829   0.7788677
18.2384562   -1.0023381  -0.0434894   0.0001490   0.0009674  -0.0000088  -0.0000066  -0.5528978   0.7832294
18.4626659   -1.0025149  -0.0439176   0.0001836   0.0009581   0.0000017  -0.0000043  -0.5466180   0.7874117
18.6896319   -1.0025388  -0.0445543   0.0001805   0.0009909  -0.0000066   0.0000047  -0.5403799   0.7916946
18.9193880   -1.0025916  -0.0449699   0.0001735   0.0009994  -0.0000040  -0.0000020  -0.5338648   0.7960754
19.1519686   -1.0026715  -0.0454592   0.0001832   0.0010024   0.0000009  -0.0000067  -0.5272533   0.8003731
19.3874083   -1.0025836  -0.0459491   0.0001719   0.0010158  -0.0000090  -0.0000072  -0.5205907   0.8046701
19.6257423   -1.0026607  -0.0465700   0.0001822   0.0010263  -0.0000034  -0.0000054  -0.5139282   0.8090026
19.8670063   -1.0026935  -0.0470955   0.0001691   0.0010460  -0.0000003  -0.0000053  -0.5070653   0.8132444
20.1112361   -1.0027312  -0.0475222   0.0001681   0.0010544   0.0000014   0.0000039  -0.5000667   0.8175503
20.3584684   -1.0027842  -0.0481539   0.0001873   0.0010504  -0.0000109  -0.0000031  -0.4928451   0.8218131
20.6087399   -1.0028607  -0.0486123   0.0001780   0.0010683   0.0000064  -0.0000074  -0.4856078   0.8260492
20.8620881   -1.0028878  -0.0492784   0.0001935   0.0010880  -0.0000070   0.0000015  -0.4781752   0.8303917
21.1185507   -1.0029619  -0.0497366   0.0001904   0.0011123  -0.0000055   0.0000029  -0.4706816   0.8346281
21.3781661   -1.0030045  -0.0503400   0.0001948   0.0011114  -0.0000035  -0.0000010  -0.4630449   0.8387695
21.6409730   -1.0030319  -0.0508735   0.0001922   0.0011312  -0.0000039  -0.0000078  -0.4552968   0.8429882
21.9070107   -1.0030484  -0.0513878   0.0001712   0.0011084  -0.0000070   0.0000040  -0.4474480   0.8472129
22.1763188   -1.0031236  -0.0520855   0.0002043   0.0011471  -0.0000040   0.0000040  -0.4393970   0.8514093
22.4489376   -1.0031658  -0.0526997   0.0001999   0.0011700  -0.0000043  -0.0000038  -0.4312338   0.8556008
22.7249077   -1.0031599  -0.0532488   0.0002012   0.0011849  -0.0000006  -0.0000028  -0.4229033   0.8597198
23.0042705   -1.0032366  -0.0537693   0.0001904   0.0011780  -0.0000025   0.0000032  -0.4144679   0.8638397
23.2870675   -1.0033518  -0.0544130   0.0001909   0.0012034  -0.0000063   0.0000051  -0.4059703   0.8679089
23.5733409   -1.0033611  -0.0551110   0.0002068   0.0012256  -0.0000101  -0.0000119  -0.3971808   0.8719871
23.8631337   -1.0033988  -0.0557675   0.0002073   0.0012400  -0.0000095   0.0000009  -0.3882574   0.8759217
24.1564889   -1.0033449  -0.0563840   0.0002061   0.0012492  -0.0000145   0.0000020  -0.3793041   0.8799030
24.4534504   -1.0033628  -0.0570354   0.0002068   0.0012666  -0.0000039  -0.0000033  -0.3701540   0.8837846
24.7540625   -1.0034255  -0.0577250   0.0001993   0.0012717  -0.0000011  -0.0000056  -0.3608652   0.8877116
25.0583701   -1.0035594  -0.0583183   0.0002076   0.0013019   0.0000015  -0.0000007  -0.3513553   0.8915770
25.3664186   -1.0036688  -0.0590185   0.0002030   0.0013145  -0.0000058  -0.0000061  -0.3416299   0.8953736
25.6782541   -1.0036082  -0.0595763   0.0002017   0.0013111   0.0000039  -0.0000031  -0.3318719   0.8991532
25.9939230   -1.0036844  -0.0602968   0.0001911   0.0013319  -0.0000041  -0.0000050  -0.3219447   0.9027781
26.3134725   -1.0037703  -0.0609867   0.0001933   0.0013588   0.0000036  -0.0000035  -0.3118192   0.9063520
26.6369503   -1.0037612  -0.0616447   0.0002040   0.0013749  -0.0000030  -0.0000139  -0.3015927   0.9099376
26.9644047   -1.0037655  -0.0623944   0.0002147   0.0013964   0.0000019   0.0000037  -0.2911556   0.9134289
27.2958846   -1.0038610  -0.0631584   0.0002162   0.0014077  -0.0000076   0.0000021  -0.2805167   0.9167797
27.6314394   -1.0039141  -0.0639278   0.0002018   0.0014038  -0.0000017  -0.0000051  -0.2698048   0.9201340
27.9711193   -1.0039507  -0.0644786   0.0002120   0.0014296   0.0000071  -0.0000031  -0.2588429   0.9232956
28.3149750   -1.0039446  -0.0653092   0.0002028   0.0014691   0.0000039  -0.0000051  -0.2477763   0.9264440
28.6630578   -1.0040047  -0.0660168   0.0002237   0.0014914  -0.0000087  -0.0000003  -0.2365017   0.9294491
29.0154196   -1.0040806  -0.0667170   0.0002150   0.0015016  -0.0000064  -0.0000030  -0.2250419   0.9323611
29.3721131   -1.0040492  -0.0675316   0.0002273   0.0015061   0.0000014  -0.0000039  -0.2134533   0.9351741
29.7331915   -1.0041469  -0.0683043   0.0002291   0.0015219  -0.0000054  -0.0000036  -0.2016027   0.9379710
30.0987087   -1.0042129  -0.0689879   0.0002354   0.0015531  -0.0000033   0.0000123  -0.1897006   0.9405994
30.4687194   -1.0042277  -0.0698081   0.0002139   0.0015772  -0.0000021  -0.0000058  -0.1775500   0.9431766
30.8432786   -1.0042249  -0.0707137   0.0002455   0.0015789  -0.0000102   0.0000030  -0.1652043   0.9454509
31.2224424   -1.0044006  -0.0715244   0.0002414   0.0016003   0.0000061   0.0000027  -0.1527992   0.9476807
31.6062674   -1.0044114  -0.0722341   0.0002561   0.0016192  -0.0000091  -0.0000072  -0.1400337   0.9498177
31.9948108   -1.0044039  -0.0730847   0.0002525   0.0016399   0.0000000   0.0000043  -0.1271896   0.9518871
32.3881306   -1.0044380  -0.0739608   0.0002309   0.0016515  -0.0000007  -0.0000042  -0.1141830   0.9537462
32.7862857   -1.0045239  -0.0747079   0.0002448   0.0016757  -0.0000070  -0.0000062  -0.1009629   0.9553778
33.1893353   -1.0045857  -0.0755978   0.0002354   0.0016812  -0.0000018  -0.0000006  -0.0875903   0.9570247
33.5973398   -1.0045739  -0.0764001   0.0002249   0.0017220   0.0000037  -0.0000116  -0.0740442   0.9583378
34.0103599   -1.0046402  -0.0772851   0.0002395   0.0017343  -0.0000011   0.0000036  -0.0602129   0.9594876
34.4284574   -1.0047133  -0.0782111   0.0002467   0.0017646  -0.0000075  -0.0000028  -0.0465159   0.9606917
34.8516946   -1.0047355  -0.0790826   0.0002320   0.0018066  -0.0000053   0.0000028  -0.0322434   0.9616950
35.2801349   -1.0047170  -0.0800409   0.0002512   0.0018329  -0.0000032  -0.0000036  -0.0177784   0.9624635
35.7138420   -1.0048140  -0.0809313   0.0002499   0.0018600  -0.0000069  -0.0000060  -0.0032039   0.9628964
36.1528808   -1.0048709  -0.0818099   0.0002604   0.0018855  -0.0000086  -0.0000063   0.0115347   0.9632563
36.5973168   -1.0048667  -0.0827432   0.0002915   0.0018874   0.0000000  -0.0000055   0.0264333   0.9633738
37.0472164   -1.0049499  -0.0838070   0.0002789   0.0019108  -0.0000010  -0.0000025   0.0415912   0.9631242
37.5026467   -1.0050079  -0.0848510   0.0002972   0.0019490   0.0000005  -0.0000051   0.0569194   0.9628974
37.9636757   -1.0049941  -0.0856587   0.0002839   0.0019505  -0.0000025  -0.0000048   0.0726387   0.9619464
38.4303722   -1.0051637  -0.0866394   0.0003098   0.0019735   0.0000012  -0.0000023   0.0881824   0.9611452
38.9028060   -1.0051744  -0.0875689   0.0002954   0.0019937   0.0000032   0.0000041   0.1040381   0.9599848
39.3810475   -1.0053315  -0.0885747   0.0002925   0.0020010  -0.0000019   0.0000034   0.1201362   0.9586652
39.8651681   -1.0052259  -0.0896145   0.0003080   0.0020395  -0.0000008   0.0000047   0.1362896   0.9569852
40.3552402   -1.0052839  -0.0907522   0.0003237   0.0020682   0.0000052   0.0000025   0.1527017   0.9550329
40.8513368   -1.0053687  -0.0916673   0.0003221   0.0020742  -0.0000009  -0.0000083   0.1693457   0.9526915
41.3535320   -1.0053729  -0.0927453   0.0003306   0.0020960  -0.0000069  -0.0000035   0.1860114   0.9501695
41.8619009   -1.0054655  -0.0937301   0.0003249   0.0021186  -0.0000012   0.0000013   0.2030277   0.9472720
42.3765193   -1.0055387  -0.0948406   0.0003171   0.0021528   0.0000010  -0.0000008   0.2201222   0.9440599
42.8974639   -1.0054434  -0.0958895   0.0002946   0.0021726  -0.0000026   0.0000052   0.2373514   0.9404513
43.4248127   -1.0054579  -0.0970813   0.0003356   0.0022024   0.0000010  -0.0000060   0.2547651   0.9366341
43.9586443   -1.0055512  -0.0980708   0.0003418   0.0022301   0.0000045  -0.0000092   0.2723270   0.9323410
44.4990385   -1.0055789  -0.0991926   0.0003360   0.0022509  -0.0000060   0.0000010   0.2900678   0.9276746
45.0460758   -1.0056471  -0.1004052   0.0003461   0.0022971   0.0000030   0.0000042   0.3079234   0.9226692
45.5998380   -1.0057161  -0.1014126   0.0003533   0.0023132  -0.0000014  -0.0000026   0.3258964   0.9172927
46.1604077   -1.0057442  -0.1026263   0.0003384   0.0023295  -0.0000057  -0.0000096   0.3439905   0.9114112
46.7278686   -1.0056875  -0.1037336   0.0003588   0.0023575  -0.0000078  -0.0000061   0.3622095   0.9051561
47.3023055   -1.0058262  -0.1049009   0.0003505   0.0023772  -0.0000035   0.0000063   0.3805383   0.8984954
47.8838040   -1.0058029  -0.1061635   0.0003565   0.0024348   0.0000035  -0.0000116   0.3990787   0.8913030
48.4724511   -1.0057803  -0.1074150   0.0003377   0.0024507  -0.0000043   0.0000037   0.4175483   0.8837820
49.0683345   -1.0059261  -0.1085614   0.0003427   0.0025080  -0.0000065   0.0000016   0.4362200   0.8757527
49.6715433   -1.0059597  -0.1098619   0.0003599   0.0025196  -0.0000056  -0.0000091   0.4548566   0.8672616
50.2821675   -1.0059161  -0.1110582   0.0003534   0.0025475  -0.0000049  -0.0000026   0.4737366   0.8581977
50.9002982   -1.0060000  -0.1123728   0.0003837   0.0026080  -0.0000001  -0.0000023   0.4925113   0.8486204
51.5260277   -1.0059941  -0.1136242   0.0003682   0.0026401   0.0000016  -0.0000145   0.5114078   0.8386844
52.1594495   -1.0060116  -0.1149827   0.0004044   0.0026744   0.0000007  -0.0000111   0.5302185   0.8281260
52.8006581   -1.0059559  -0.1162037   0.0004025   0.0026924   0.0000019  -0.0000070   0.5491565   0.8169084
53.4497492   -1.0060457  -0.1174885   0.0004202   0.0027099   0.0000038  -0.0000035   0.5682259   0.8053365
54.1068198   -1.0060214  -0.1187839   0.0004058   0.0027538   0.0000014  -0.0000070   0.5870810   0.7931806
54.7719678   -1.0060580  -0.1202447   0.0004272   0.0027822  -0.0000080  -0.0000108   0.6059003   0.7804755
55.4452927   -1.0060086  -0.1216016   0.0004172   0.0028123  -0.0000031   0.0000036   0.6248029   0.7668483
56.1268950   -1.0061655  -0.1229056   0.0004186   0.0028361  -0.0000012  -0.0000006   0.6436129   0.7528409
56.8168763   -1.0061708  -0.1242844   0.0004060   0.0028919  -0.0000113  -0.0000002   0.6623330   0.7382715
57.5153398   -1.0061505  -0.1256674   0.0003995   0.0029165  -0.0000006  -0.0000099   0.6809259   0.7230836
58.2223896   -1.0061388  -0.1271090   0.0003876   0.0029877   0.0000062  -0.0000063   0.6993919   0.7071741
58.9381314   -1.0061960  -0.1285709   0.0004000   0.0030143   0.0000077  -0.0000018   0.7177304   0.6906869
59.6626719   -1.0062235  -0.1300115   0.0004093   0.0030959   0.0000018  -0.0000044   0.7358872   0.6734457
60.3961194   -1.0061934  -0.1314569   0.0004289   0.0031539  -0.0000076  -0.0000076   0.7539451   0.6555725
61.1385834   -1.0062238  -0.1329985   0.0004819   0.0031988   0.0000077  -0.0000151   0.7717916   0.6369847
61.8901746   -1.0060489  -0.1344698   0.0004891   0.0032543  -0.0000007  -0.0000055   0.7892939   0.6177425
62.6510053   -1.0061578  -0.1359790   0.0005470   0.0032684  -0.0000042  -0.0000129   0.8065969   0.5978861
63.4211891   -1.0061325  -0.1374403   0.0005421   0.0032992  -0.0000005   0.0000010   0.8236544   0.5771804
64.2008409   -1.0061520  -0.1391010   0.0005454   0.0033246  -0.0000013  -0.0000071   0.8403290   0.5559154
64.9900772   -1.0060579  -0.1405799   0.0005574   0.0033758   0.0000060  -0.0000039   0.8567017   0.5338548
65.7890158   -1.0061065  -0.1422478   0.0005441   0.0034074   0.0000066  -0.0000067   0.8726612   0.5111127
66.5977759   -1.0061341  -0.1437358   0.0005804   0.0034600  -0.0000110   0.0000004   0.8881822   0.4875516
67.4164783   -1.0060539  -0.1453926   0.0005748   0.0035311   0.0000024  -0.0000098   0.9034119   0.4632958
68.2452452   -1.0060413  -0.1471132   0.0006183   0.0035656  -0.0000016  -0.0000030   0.9180764   0.4384124
69.0842003   -1.0059989  -0.1486710   0.0006393   0.0035921  -0.0000021  -0.0000152   0.9322427   0.4127304
69.9334689   -1.0058386  -0.1504413   0.0006574   0.0036395  -0.0000106  -0.0000085   0.9455765   0.3863505
70.7931778   -1.0061299  -0.1521909   0.0006672   0.0037076   0.0000082  -0.0000021   0.9591080   0.3591561
71.6634552   -1.0059711  -0.1537481   0.0006859   0.0037262  -0.0000035  -0.0000070   0.9716677   0.3310241
72.5444312   -1.0058742  -0.1554465   0.0007049   0.0037561   0.0000123   0.0000005   0.9836817   0.3023485
73.4362373   -1.0060006  -0.1571733   0.0007152   0.0037918  -0.0000012  -0.0000107   0.9948434   0.2729349
74.3390065   -1.0055230  -0.1589504   0.0007495   0.0038290   0.0000080  -0.0000129   1.0046945   0.2431284
75.2528737   -1.0056772  -0.1607469   0.0007511   0.0038828  -0.0000040  -0.0000102   1.0143737   0.2123149
76.1779753   -1.0055599  -0.1626527   0.0007643   0.0039133  -0.0000051  -0.0000124   1.0232854   0.1808396
77.1144493   -1.0054474  -0.1644219   0.0007566   0.0039674  -0.0000026  -0.0000045   1.0313023   0.1486103
78.0624357   -1.0054255  -0.1662327   0.0007637   0.0040357  -0.0000029  -0.0000080   1.0384154   0.1157628
79.0220759   -1.0052683  -0.1680521   0.0007954   0.0041071   0.0000002  -0.0000036   1.0445212   0.0821697
79.9935132   -1.0052891  -0.1699232   0.0008232   0.0041365   0.0000041  -0.0000131   1.0496229   0.0480313
80.9768926   -1.0051605  -0.1719125   0.0008488   0.0041714  -0.0000064  -0.0000116   1.0537186   0.0132410
81.9723609   -1.0050719  -0.1737945   0.0008597   0.0042076   0.0000053  -0.0000071   1.0567157  -0.0222640
82.9800667   -1.0050173  -0.1757150   0.0008638   0.0042670  -0.0000016  -0.0000180   1.0586042  -0.0582525
84.0001605   -1.0048704  -0.1776626   0.0008618   0.0043271   0.0000053  -0.0000160   1.0593000  -0.0947391
85.0327946   -1.0047653  -0.1796843   0.0008949   0.0043860   0.0000022  -0.0000081   1.0586965  -0.1319093
86.0781231   -1.0045981  -0.1817468   0.0009018   0.0044653   0.0000029  -0.0000101   1.0568105  -0.1694968
87.1363020   -1.0045754  -0.1837205   0.0009594   0.0045479   0.0000048  -0.0000041   1.0536046  -0.2074041
88.2074894   -1.0044277  -0.1857321   0.0010066   0.0045990  -0.0000051  -0.0000155   1.0489040  -0.2458368
89.2918452   -1.0042306  -0.1877912   0.0010779   0.0045900  -0.0000005  -0.0000021   1.0430306  -0.2849234
90.3895312   -1.0041710  -0.1898941   0.0010346   0.0046489  -0.0000024  -0.0000180   1.0355088  -0.3237174
91.5007114   -1.0039470  -0.1918914   0.0010818   0.0047150  -0.0000084  -0.0000163   1.0264270  -0.3630294
92.6255515   -1.0037468  -0.1940705   0.0011292   0.0047598  -0.0000034  -0.0000041   1.0155656  -0.4024850
93.7642195   -1.0036437  -0.1962475   0.0011189   0.0048214  -0.0000052  -0.0000188   1.0031624  -0.4420937
94.9168855   -1.0034456  -0.1985077   0.0011359   0.0048745  -0.0000125  -0.0000104   0.9892346  -0.4818269
96.0837215   -1.0031688  -0.2005803   0.0011724   0.0049264  -0.0000039  -0.0000178   0.9734644  -0.5215695
97.2649017   -1.0030415  -0.2028385   0.0011933   0.0049987  -0.0000004  -0.0000104   0.9559370  -0.5609835
98.4606024   -1.0028378  -0.2050930   0.0012329   0.0050411  -0.0000038  -0.0000064   0.9365502  -0.6005025
99.6710021   -1.0026343  -0.2073528   0.0012233   0.0050769  -0.0000145  -0.0000062   0.9153443  -0.6396754
100.8962816  -1.0022210  -0.2096844   0.0012345   0.0051422  -0.0000102  -0.0000124   0.8922365  -0.6784421
102.1366237  -1.0020150  -0.2120000   0.0012466   0.0052286   0.0000052  -0.0000179   0.8671283  -0.7166929
103.3922136  -1.0018182  -0.2143627   0.0012821   0.0053294  -0.0000096  -0.0000112   0.8401955  -0.7544722
104.6632389  -1.0014929  -0.2167620   0.0013508   0.0054070  -0.0000105  -0.0000055   0.8113415  -0.7912682
105.9498891  -1.0009035  -0.2191884   0.0014043   0.0054731  -0.0000069  -0.0000089   0.7803574  -0.8250929
107.2523564  -1.0011620  -0.2211431   0.0014290   0.0055267  -0.0000016  -0.0000085   0.7458400  -0.8653272
108.5708353  -1.0010893  -0.2238025   0.0015187   0.0055729  -0.0000106  -0.0000041   0.7121824  -0.8993932
109.9055225  -1.0010248  -0.2270668   0.0015191   0.0055843   0.0000076  -0.0000064   0.6774515  -0.9319120
111.2566174  -0.9999912  -0.2288120   0.0015644   0.0056775  -0.0000017  -0.0000120   0.6366632  -0.9623526
112.6243216  -0.9996650  -0.2313712   0.0016175   0.0057500   0.0000017  -0.0000150   0.5956314  -0.9930429
114.0088393  -0.9994810  -0.2337683   0.0015639   0.0057846  -0.0000127  -0.0000032   0.5528684  -1.0220177
115.4103773  -0.9991202  -0.2363566   0.0016074   0.0058432  -0.0000076  -0.0000214   0.5080600  -1.0493846
116.8291446  -0.9987155  -0.2389680   0.0017237   0.0058233   0.0000125  -0.0000049   0.4616156  -1.0748125
118.2653533  -0.9983626  -0.2416328   0.0016404   0.0059968  -0.0000004  -0.0000118   0.4131618  -1.0983546
119.7192175  -0.9979112  -0.2440963   0.0017237   0.0060515  -0.0000147  -0.0000006   0.3630310  -1.1198741
121.1909545  -0.9975981  -0.2468934   0.0017331   0.0061313  -0.0000096  -0.0000137   0.3112472  -1.1389094
122.6807839  -0.9971101  -0.2494712   0.0017598   0.0062197  -0.0000186  -0.0000183   0.2578829  -1.1556283
124.1889281  -0.9965834  -0.2522561   0.0018198   0.0062950   0.0000025  -0.0000021   0.2030196  -1.1697805
125.7156123  -0.9962281  -0.2547760   0.0018807   0.0063646  -0.0000108  -0.0000053   0.1468018  -1.1813263
127.2610644  -0.9958877  -0.2577587   0.0018759   0.0064687  -0.0000061  -0.0000096   0.0899457  -1.1898236
128.8255151  -0.9952202  -0.2606264   0.0019268   0.0065556  -0.0000125  -0.0000101   0.0310541  -1.1954536
130.4091980  -0.9946537  -0.2632524   0.0020132   0.0065905  -0.0000132  -0.0000125  -0.0282397  -1.1979713
132.0123495  -0.9941274  -0.2662242   0.0020375   0.0066907  -0.0000062  -0.0000027  -0.0885005  -1.1971293
133.6352088  -0.9937518  -0.2689054   0.0020626   0.0068292  -0.0000239  -0.0000059  -0.1491135  -1.1931309
135.2780184  -0.9929891  -0.2719918   0.0021051   0.0069173  -0.0000031  -0.0000057  -0.2103454  -1.1854267
136.9410235  -0.9926078  -0.2747745   0.0021733   0.0070382  -0.0000093  -0.0000137  -0.2717939  -1.1740384
138.6244722  -0.9919150  -0.2778067   0.0022555   0.0071545  -0.0000096  -0.0000023  -0.3330388  -1.1591738
140.3286160  -0.9914882  -0.2807895   0.0023529   0.0072318  -0.0000127  -0.0000127  -0.3943408  -1.1406394
142.0537093  -0.9909336  -0.2837505   0.0024684   0.0072978  -0.0000183  -0.0000196  -0.4577303  -1.1193078
143.8000095  -0.9904656  -0.2870778   0.0025415   0.0074329  -0.0000058   0.0000000  -0.5114804  -1.0920313
145.5677774  -0.9894760  -0.2906090   0.0026115   0.0074796   0.0000058  -0.0000122  -0.5686752  -1.0596310
147.3572769  -0.9897628  -0.2929917   0.0027011   0.0075453  -0.0000021  -0.0000169  -0.6296031  -1.0274029
149.1687752  -0.9887838  -0.2953955   0.0027976   0.0075788   0.0000015  -0.0000091  -0.6842854  -0.9897038
151.0025426  -0.9879292  -0.2986553   0.0028501   0.0076752  -0.0000053  -0.0000193  -0.7376444  -0.9478988
152.8588530  -0.9869442  -0.3016096   0.0029688   0.0077606  -0.0000013  -0.0000092  -0.7884430  -0.9023780
154.7379834  -0.9859593  -0.3049586   0.0030176   0.0078595  -0.0000086  -0.0000110  -0.8368112  -0.8532143
156.6402144  -0.9851655  -0.3079800   0.0030884   0.0079067  -0.0000084  -0.0000061  -0.8822036  -0.8005717
158.5658301  -0.9844709  -0.3114150   0.0032019   0.0079921  -0.0000037   0.0000147  -0.9241073  -0.7445390
160.5151177  -0.9838228  -0.3147545   0.0033148   0.0080728   0.0000014  -0.0000065  -0.9630209  -0.6849737
162.4883685  -0.9816368  -0.3176439   0.0033565   0.0081647   0.0000013  -0.0000028  -0.9967976  -0.6237559
164.4858769  -0.9818133  -0.3210807   0.0034499   0.0081846   0.0000046  -0.0000033  -1.0278789  -0.5582318
166.5079411  -0.9806197  -0.3244594   0.0035524   0.0082762  -0.0000070  -0.0000102  -1.0539276  -0.4910024
168.5548630  -0.9794673  -0.3278704   0.0036273   0.0083503  -0.0000107   0.0000016  -1.0755896  -0.4214285
170.6269483  -0.9784940  -0.3310611   0.0037358   0.0084571  -0.0000006  -0.0000172  -1.0920161  -0.3500769
172.7245062  -0.9777023  -0.3345162   0.0037911   0.0085116   0.0000046  -0.0000030  -1.1035268  -0.2774294
174.8478498  -0.9766234  -0.3379941   0.0038910   0.0086043   0.0000061  -0.0000036  -1.1094082  -0.2032648
176.9972963  -0.9756475  -0.3412674   0.0040428   0.0086787   0.0000235  -0.0000062  -1.1102204  -0.1277967
179.1731664  -0.9711963  -0.3442952   0.0040579   0.0088159  -0.0000187  -0.0000088  -1.1019377  -0.0580540
181.3757850  -0.9729048  -0.3486590   0.0042371   0.0088085  -0.0000020  -0.0000058  -1.0923748   0.0172629
183.6054809  -0.9718573  -0.3514846   0.0042918   0.0088379  -0.0000115  -0.0000014  -1.0773858   0.0954521
185.8625870  -0.9707995  -0.3548429   0.0044172   0.0089013  -0.0000271  -0.0000083  -1.0548059   0.1676861
188.1474402  -0.9691624  -0.3581377   0.0044249   0.0090205  -0.0000045  -0.0000041  -1.0266452   0.2388777
190.4603817  -0.9681580  -0.3615835   0.0046009   0.0090985  -0.0000241  -0.0000166  -0.9928692   0.3077410
192.8017567  -0.9666882  -0.3650448   0.0047340   0.0090752   0.0000113  -0.0000080  -0.9528826   0.3737659
195.1719148  -0.9651851  -0.3682961   0.0048231   0.0091518  -0.0000411   0.0000164  -0.9079903   0.4365081
197.5712099  -0.9632848  -0.3721412   0.0049179   0.0092678   0.0000064  -0.0000064  -0.8584258   0.4960860
200.0000000  -0.9629553  -0.3749495   0.0050263   0.0093326  -0.0000129  -0.0000066  -0.8026131   0.5505821
