! ListType=Log
# MHZ S RI R 50
0.0010000     0.2630203  -0.1724358   0.3807018   0.4684893  -0.0000115  -0.0000299  -0.9088780   0.2599563
0.0010123     0.2606056  -0.1723742   0.3858121   0.4677841   0.0000121  -0.0000287  -0.9094622   0.2603417
0.0010247     0.2591673  -0.1716710   0.3923705   0.4665152  -0.0000157   0.0000266  -0.9095897   0.2591301
0.0010373     0.2569290  -0.1715966   0.3974453   0.4663837  -0.0000085  -0.0000056  -0.9097936   0.2598523
0.0010501     0.2549788  -0.1705206   0.4037021   0.4654592  -0.0000136  -0.0000118  -0.9091506   0.2596915
0.0010630     0.2526009  -0.1703300   0.4095051   0.4647627   0.0000229   0.0000125  -0.9105505   0.2595735
0.0010761     0.2513688  -0.1703558   0.4143056   0.4645475  -0.0000149   0.0000095  -0.9107037   0.2587981
0.0010893     0.2489007  -0.1693911   0.4200810   0.4627815   0.0000198  -0.0000037  -0.9110865   0.2599258
0.0011027     0.2476141  -0.1690197   0.4254347   0.4621243   0.0000030  -0.0000187  -0.9110775   0.2587990
0.0011162     0.2453377  -0.1689885   0.4311914   0.4609118  -0.0000056   0.0000030  -0.9120701   0.2584382
0.0011300     0.2435166  -0.1680726   0.4368013   0.4602794  -0.0000259  -0.0000173  -0.9112969   0.2587179
0.0011439     0.2416224  -0.1678207   0.4411842   0.4587851   0.0000190  -0.0000020  -0.9120502   0.2590832
0.0011579     0.2398691  -0.1667089   0.4474026   0.4568001  -0.0000080   0.0000011  -0.9120575   0.2578675
0.0011721     0.2378689  -0.1663821   0.4521033   0.4556687   0.0000114  -0.0000118  -0.9124015   0.2585311
0.0011866     0.2362671  -0.1654562   0.4576548   0.4543525  -0.0000454  -0.0000152  -0.9122040   0.2582435
0.0012011     0.2343705  -0.1652343   0.4626462   0.4526158  -0.0000151   0.0000003  -0.9128818   0.2582597
0.0012159     0.2326906  -0.1648678   0.4674267   0.4508764   0.0000208   0.0000031  -0.9136437   0.2584854
0.0012309     0.2305997  -0.1638078   0.4728925   0.4490578   0.0000094   0.0000109  -0.9137401   0.2577885
0.0012460     0.2287712  -0.1627387   0.4785304   0.4474653  -0.0000062  -0.0000060  -0.9134154   0.2581256
0.0012613     0.2269190  -0.1628857   0.4832307   0.4464858   0.0000269  -0.0000021  -0.9147353   0.2579363
0.0012768     0.2255769  -0.1616036   0.4876103   0.4440045  -0.0000207   0.0000053  -0.9141770   0.2576231
0.0012925     0.2233899  -0.1609526   0.4932227   0.4420380   0.0000140   0.0000076  -0.9151106   0.2580592
0.0013084     0.2220502  -0.1602267   0.4974142   0.4402636  -0.0000049   0.0000097  -0.9149123   0.2575421
0.0013245     0.2195858  -0.1595489   0.5027224   0.4381857   0.0000181  -0.0000016  -0.9155488   0.2580240
0.0013408     0.2187058  -0.1586008   0.5069047   0.4359791   0.0000024  -0.0000096  -0.9153819   0.2572752
0.0013572     0.2164074  -0.1579437   0.5119367   0.4340452   0.0000187   0.0000077  -0.9163567   0.2576933
0.0013739     0.2152430  -0.1569321   0.5163611   0.4314653   0.0000133   0.0000164  -0.9162218   0.2575399
0.0013908     0.2131374  -0.1564216   0.5209608   0.4296275   0.0000136   0.0000045  -0.9169530   0.2576089
0.0014079     0.2115766  -0.1550926   0.5256791   0.4269020  -0.0000214  -0.0000005  -0.9167295   0.2573538
0.0014252     0.2100357  -0.1548142   0.5296723   0.4249537   0.0000186   0.0000247  -0.9176592   0.2572531
0.0014427     0.2085747  -0.1535401   0.5343240   0.4220353  -0.0000097  -0.0000156  -0.9173659   0.2571991
0.0014605     0.2066829  -0.1529970   0.5386142   0.4201818   0.0000009  -0.0000180  -0.9180822   0.2573986
0.0014784     0.2057670  -0.1517725   0.5423319   0.4172739  -0.0000049   0.0000082  -0.9178605   0.2569127
0.0014966     0.2037835  -0.1507059   0.5469719   0.4144336   0.0000002  -0.0000287  -0.9186111   0.2574162
0.0015150     0.2022037  -0.1500649   0.5513129   0.4121141   0.0000270   0.0000241  -0.9189818   0.2573396
0.0015336     0.2006460  -0.1489004   0.5552872   0.4096278  -0.0000074  -0.0000028  -0.9190102   0.2570696
0.0015525     0.1992856  -0.1477955   0.5591101   0.4068969  -0.0000076  -0.0000167  -0.9190290   0.2573496
0.0015716     0.1978928  -0.1471154   0.5629020   0.4041755   0.0000126  -0.0000211  -0.9196280   0.2571869
0.0015909     0.1961651  -0.1459021   0.5667070   0.4012982   0.0000100  -0.0000345  -0.9199847   0.2575694
0.0016104     0.1948617  -0.1453315   0.5704009   0.3989513  -0.0000243   0.0000094  -0.9203199   0.2569523
0.0016302     0.1935184  -0.1439260   0.5736530   0.3956804   0.0000135  -0.0000063  -0.9203642   0.2573044
0.0016503     0.1921711  -0.1431956   0.5774063   0.3927186   0.0000088  -0.0000100  -0.9213751   0.2574882
0.0016706     0.1909124  -0.1423816   0.5811825   0.3901086   0.0000033  -0.0000045  -0.9211996   0.2574022
0.0016911     0.1894753  -0.1411870   0.5847143   0.3870066  -0.0000210  -0.0000159  -0.9218180   0.2570958
0.0017119     0.1880696  -0.1400062   0.5883398   0.3841894  -0.0000161  -0.0000298  -0.9218589   0.2574357
0.0017329     0.1866176  -0.1394745   0.5913994   0.3815502  -0.0000031   0.0000134  -0.9220861   0.2573962
0.0017542     0.1855392  -0.1381508   0.5947176   0.3782938   0.0000071   0.0000175  -0.9225671   0.2571541
0.0017758     0.1840670  -0.1368855   0.5977732   0.3754311  -0.0000018  -0.0000029  -0.9227763   0.2574617
0.0017976     0.1830027  -0.1360606   0.6007361   0.3722291   0.0000059  -0.0000063  -0.9233452   0.2574793
0.0018197     0.1818960  -0.1348033   0.6039742   0.3692986  -0.0000150  -0.0000040  -0.9231438   0.2573279
0.0018421     0.1805765  -0.1338702   0.6068045   0.3661538   0.0000151  -0.0000070  -0.9238326   0.2577191
0.0018648     0.1791233  -0.1326000   0.6102200   0.3631091  -0.0000028   0.0000040  -0.9239003   0.2574820
0.0018877     0.1780839  -0.1316198   0.6129071   0.3599891  -0.0000105  -0.0000158  -0.9239804   0.2577066
0.0019109     0.1769114  -0.1307053   0.6157552   0.3570143  -0.0000036   0.0000066  -0.9248491   0.2579357
0.0019344     0.1757571  -0.1295879   0.6185288   0.3539779  -0.0000050  -0.0000064  -0.9247153   0.2577397
0.0019582     0.1746487  -0.1283106   0.6208814   0.3509224   0.0000018  -0.0000051  -0.9248236   0.2579512
0.0019822     0.1734639  -0.1274354   0.6232468   0.3475545   0.0000061   0.0000007  -0.9256894   0.2580907
0.0020066     0.1722750  -0.1263469   0.6262100   0.3445521   0.0000030   0.0000010  -0.9257598   0.2582423
0.0020313     0.1713108  -0.1254583   0.6284301   0.3415740   0.0000072   0.0000076  -0.9261621   0.2581689
0.0020562     0.1704834  -0.1242639   0.6309326   0.3382932  -0.0000161  -0.0000018  -0.9265384   0.2580705
0.0020815     0.1691865  -0.1230782   0.6334656   0.3352596   0.0000003  -0.0000015  -0.9265952   0.2584793
0.0021071     0.1683603  -0.1220637   0.6354455   0.3319928  -0.0000104  -0.0000033  -0.9270215   0.2585237
0.0021330     0.1672358  -0.1207944   0.6376605   0.3286272  -0.0000010  -0.0000229  -0.9272019   0.2587586
0.0021592     0.1661836  -0.1198102   0.6401004   0.3257420  -0.0000025  -0.0000190  -0.9277383   0.2588852
0.0021858     0.1653935  -0.1189397   0.6421960   0.3227203  -0.0000026  -0.0000044  -0.9279115   0.2586740
0.0022126     0.1643833  -0.1176850   0.6442037   0.3195849  -0.0000054  -0.0000144  -0.9280733   0.2590422
0.0022398     0.1635718  -0.1165149   0.6461112   0.3163920  -0.0000122   0.0000062  -0.9283379   0.2590142
0.0022674     0.1625390  -0.1153973   0.6481349   0.3131116   0.0000047  -0.0000181  -0.9287816   0.2593020
0.0022953     0.1616825  -0.1145126   0.6500034   0.3100586   0.0000060  -0.0000025  -0.9290308   0.2594769
0.0023235     0.1607361  -0.1135034   0.6516068   0.3069280  -0.0000061  -0.0000002  -0.9294341   0.2594680
0.0023520     0.1601966  -0.1120087   0.6535731   0.3037462  -0.0000078  -0.0000054  -0.9292532   0.2594361
0.0023809     0.1590925  -0.1110830   0.6551695   0.3005680  -0.0000079   0.0000077  -0.9299422   0.2596373
0.0024102     0.1583347  -0.1101582   0.6568283   0.2977236   0.0000131   0.0000064  -0.9298942   0.2598229
0.0024398     0.1575770  -0.1089859   0.6585137   0.2947182   0.0000033   0.0000032  -0.9303333   0.2599209
0.0024698     0.1568444  -0.1078973   0.6600453   0.2914951   0.0000079  -0.0000170  -0.9305707   0.2602177
0.0025002     0.1561138  -0.1068911   0.6614988   0.2884140  -0.0000013  -0.0000042  -0.9307198   0.2603729
0.0025309     0.1551332  -0.1058262   0.6631546   0.2853027  -0.0000087  -0.0000112  -0.9309336   0.2606611
0.0025621     0.1545140  -0.1047560   0.6644973   0.2824028   0.0000070  -0.0000087  -0.9313972   0.2606534
0.0025935     0.1538266  -0.1039057   0.6658111   0.2795425  -0.0000057  -0.0000035  -0.9316742   0.2605261
0.0026254     0.1533445  -0.1027139   0.6672369   0.2763703  -0.0000042  -0.0000026  -0.9317934   0.2605545
0.0026577     0.1525709  -0.1016839   0.6685247   0.2734674  -0.0000107  -0.0000105  -0.9319015   0.2609742
0.0026904     0.1517463  -0.1007193   0.6696896   0.2705604  -0.0000128  -0.0000062  -0.9320964   0.2613407
0.0027235     0.1511249  -0.0994938   0.6709996   0.2675406  -0.0000013  -0.0000137  -0.9327563   0.2611832
0.0027569     0.1507237  -0.0985250   0.6722506   0.2646928  -0.0000088  -0.0000033  -0.9327095   0.2612955
0.0027908     0.1498207  -0.0974410   0.6732694   0.2617724   0.0000059  -0.0000083  -0.9327881   0.2617246
0.0028251     0.1492283  -0.0964663   0.6743179   0.2589167   0.0000069   0.0000018  -0.9332618   0.2618815
0.0028599     0.1487444  -0.0955957   0.6754320   0.2559946  -0.0000022   0.0000010  -0.9334185   0.2618729
0.0028950     0.1480996  -0.0945141   0.6766255   0.2531739   0.0000031   0.0000025  -0.9336124   0.2618484
0.0029306     0.1475623  -0.0933079   0.6775778   0.2505093  -0.0000042  -0.0000190  -0.9337557   0.2620064
0.0029666     0.1469117  -0.0924968   0.6785445   0.2477128   0.0000131  -0.0000065  -0.9339990   0.2622600
0.0030031     0.1464124  -0.0914504   0.6793577   0.2450776  -0.0000049   0.0000133  -0.9341076   0.2625548
0.0030400     0.1459213  -0.0905501   0.6803773   0.2421058  -0.0000027  -0.0000165  -0.9343379   0.2628196
0.0030774     0.1454180  -0.0894921   0.6812125   0.2392690  -0.0000097  -0.0000045  -0.9345217   0.2629743
0.0031152     0.1448037  -0.0885847   0.6821486   0.2365602   0.0000102   0.0000018  -0.9348862   0.2629809
0.0031535     0.1442469  -0.0875432   0.6829128   0.2338775  -0.0000035  -0.0000120  -0.9349260   0.2633534
0.0031923     0.1437539  -0.0866957   0.6836810   0.2311663   0.0000126  -0.0000124  -0.9353236   0.2634966
0.0032315     0.1434781  -0.0857110   0.6843219   0.2286130  -0.0000004  -0.0000064  -0.9355121   0.2636469
0.0032713     0.1429002  -0.0846500   0.6852708   0.2260809   0.0000023  -0.0000089  -0.9356770   0.2636865
0.0033115     0.1426548  -0.0838258   0.6858841   0.2233729   0.0000084  -0.0000006  -0.9357024   0.2639999
0.0033522     0.1420432  -0.0828610   0.6863042   0.2208999  -0.0000109  -0.0000057  -0.9360229   0.2644064
0.0033934     0.1415587  -0.0820363   0.6873604   0.2183835   0.0000014   0.0000021  -0.9362628   0.2642656
0.0034351     0.1412575  -0.0808890   0.6878424   0.2158197  -0.0000013   0.0000084  -0.9364516   0.2645556
0.0034773     0.1407040  -0.0801986   0.6886140   0.2131144   0.0000084  -0.0000086  -0.9364323   0.2647053
0.0035201     0.1403212  -0.0792757   0.6891416   0.2105539   0.0000056  -0.0000029  -0.9367876   0.2648143
0.0035634     0.1399932  -0.0783311   0.6898060   0.2082877   0.0000070  -0.0000048  -0.9368663   0.2649771
0.0036072     0.1396992  -0.0774442   0.6903087   0.2057375  -0.0000008  -0.0000046  -0.9369396   0.2652301
0.0036515     0.1392520  -0.0764652   0.6907380   0.2033600  -0.0000051   0.0000044  -0.9372120   0.2655556
0.0036964     0.1388323  -0.0754911   0.6911933   0.2009451  -0.0000114   0.0000007  -0.9371598   0.2658447
0.0037418     0.1385427  -0.0748258   0.6918996   0.1985917   0.0000014  -0.0000077  -0.9373776   0.2659021
0.0037878     0.1380014  -0.0738745   0.6923363   0.1963214   0.0000009  -0.0000191  -0.9374859   0.2660117
0.0038344     0.1375467  -0.0730381   0.6927567   0.1937803   0.0000059  -0.0000063  -0.9376847   0.2663411
0.0038815     0.1374125  -0.0721917   0.6932532   0.1915519  -0.0000009   0.0000041  -0.9378065   0.2664228
0.0039293     0.1371197  -0.0713872   0.6939148   0.1894247   0.0000049  -0.0000071  -0.9379777   0.2663981
0.0039776     0.1368324  -0.0704982   0.6941148   0.1870522  -0.0000018  -0.0000120  -0.9381920   0.2668196
0.0040265     0.1366397  -0.0698191   0.6945779   0.1848261   0.0000000   0.0000014  -0.9383100   0.2667670
0.0040759     0.1361285  -0.0689192   0.6948901   0.1826504  -0.0000007   0.0000008  -0.9384242   0.2671272
0.0041261     0.1358873  -0.0679890   0.6951820   0.1805006   0.0000015  -0.0000048  -0.9385339   0.2672093
0.0041768     0.1354398  -0.0672700   0.6956362   0.1783214  -0.0000009   0.0000009  -0.9387328   0.2675105
0.0042281     0.1353049  -0.0665863   0.6960110   0.1760766   0.0000064  -0.0000054  -0.9388509   0.2677209
0.0042801     0.1350336  -0.0656758   0.6963707   0.1740070   0.0000041  -0.0000002  -0.9389324   0.2679158
0.0043327     0.1347511  -0.0648897   0.6966101   0.1719934  -0.0000035  -0.0000042  -0.9390299   0.2683019
0.0043860     0.1344950  -0.0640833   0.6969455   0.1698296  -0.0000025   0.0000091  -0.9392749   0.2683077
0.0044399     0.1342311  -0.0634082   0.6971379   0.1676651   0.0000007  -0.0000043  -0.9393379   0.2684832
0.0044945     0.1340237  -0.0625104   0.6975400   0.1656743  -0.0000065  -0.0000034  -0.9394909   0.2686169
0.0045497     0.1338344  -0.0617679   0.6979265   0.1637090  -0.0000109  -0.0000034  -0.9394766   0.2688047
0.0046057     0.1334088  -0.0611287   0.6981616   0.1616584  -0.0000053   0.0000049  -0.9395575   0.2689400
0.0046623     0.1333279  -0.0602078   0.6984082   0.1598219   0.0000035  -0.0000071  -0.9395089   0.2692334
0.0047196     0.1330013  -0.0595779   0.6987338   0.1578548  -0.0000083  -0.0000009  -0.9398293   0.2694102
0.0047776     0.1328194  -0.0589380   0.6989794   0.1559035   0.0000065  -0.0000104  -0.9398891   0.2695281
0.0048363     0.1325346  -0.0581156   0.6992784   0.1541532   0.0000003  -0.0000094  -0.9399332   0.2697804
0.0048958     0.1325398  -0.0574734   0.6993584   0.1522117  -0.0000047  -0.0000137  -0.9400721   0.2700554
0.0049560     0.1321644  -0.0566589   0.6995644   0.1501297  -0.0000099  -0.0000067  -0.9402632   0.2701632
0.0050169     0.1320119  -0.0560434   0.6999188   0.1483651  -0.0000178   0.0000051  -0.9403351   0.2701639
0.0050786     0.1319129  -0.0553070   0.7001015   0.1467567   0.0000062   0.0000011  -0.9403187   0.2703988
0.0051410     0.1315008  -0.0547469   0.7004565   0.1445451  -0.0000039  -0.0000105  -0.9404152   0.2706001
0.0052042     0.1316367  -0.0540585   0.7005828   0.1429709   0.0000035  -0.0000032  -0.9405021   0.2708001
0.0052682     0.1311016  -0.0532041   0.7006117   0.1411942   0.0000060  -0.0000054  -0.9406327   0.2710467
0.0053330     0.1310786  -0.0525374   0.7006797   0.1395215  -0.0000089  -0.0000088  -0.9406896   0.2711812
0.0053985     0.1309356  -0.0519025   0.7008893   0.1377598  -0.0000131  -0.0000073  -0.9407775   0.2713440
0.0054649     0.1307783  -0.0513214   0.7010698   0.1360503   0.0000164  -0.0000018  -0.9409076   0.2714998
0.0055321     0.1306412  -0.0506865   0.7012622   0.1343539  -0.0000015  -0.0000112  -0.9409565   0.2716945
0.0056001     0.1304338  -0.0499709   0.7014314   0.1326479   0.0000146   0.0000031  -0.9411138   0.2719386
0.0056689     0.1304087  -0.0494638   0.7015108   0.1310309  -0.0000082  -0.0000200  -0.9411273   0.2720064
0.0057386     0.1301354  -0.0486327   0.7017593   0.1294139   0.0000036  -0.0000155  -0.9411893   0.2721200
0.0058091     0.1299495  -0.0480374   0.7018141   0.1277720   0.0000022   0.0000047  -0.9411386   0.2723728
0.0058806     0.1299200  -0.0474306   0.7019467   0.1261620  -0.0000013  -0.0000061  -0.9411190   0.2724188
0.0059529     0.1298879  -0.0468888   0.7021648   0.1245643  -0.0000054  -0.0000104  -0.9412062   0.2727041
0.0060260     0.1295530  -0.0459765   0.7022352   0.1230435  -0.0000053  -0.0000183  -0.9412507   0.2727098
0.0061001     0.1294887  -0.0455189   0.7023621   0.1215032  -0.0000142  -0.0000055  -0.9413455   0.2729546
0.0061751     0.1293692  -0.0448900   0.7025109   0.1199417   0.0000003   0.0000049  -0.9413314   0.2731470
0.0062510     0.1292659  -0.0443667   0.7025127   0.1184154  -0.0000030  -0.0000002  -0.9415101   0.2732916
0.0063279     0.1290905  -0.0438929   0.7025803   0.1168940  -0.0000043  -0.0000012  -0.9416430   0.2734560
0.0064056     0.1292277  -0.0434631   0.7026922   0.1155199   0.0000044  -0.0000061  -0.9416371   0.2736081
0.0064844     0.1289329  -0.0426498   0.7027741   0.1139348   0.0000000  -0.0000076  -0.9416977   0.2736701
0.0065641     0.1287640  -0.0420874   0.7029376   0.1125078  -0.0000063  -0.0000193  -0.9415242   0.2737903
0.0066448     0.1287401  -0.0416091   0.7031056   0.1111709   0.0000005  -0.0000093  -0.9416728   0.2739591
0.0067265     0.1286970  -0.0410423   0.7032085   0.1097360  -0.0000082   0.0000041  -0.9417777   0.2741424
0.0068092     0.1287534  -0.0404885   0.7029523   0.1081601   0.0000036   0.0000010  -0.9418365   0.2743665
0.0068929     0.1285569  -0.0398604   0.7032003   0.1072261   0.0000128  -0.0000086  -0.9418909   0.2744498
0.0069776     0.1283876  -0.0393041   0.7031048   0.1053868   0.0000024  -0.0000116  -0.9420478   0.2746782
0.0070634     0.1282858  -0.0388232   0.7034101   0.1042864   0.0000023  -0.0000052  -0.9419420   0.2748400
0.0071502     0.1282341  -0.0382985   0.7034699   0.1028879   0.0000031  -0.0000154  -0.9419125   0.2748555
0.0072381     0.1281355  -0.0376864   0.7035725   0.1014793  -0.0000033  -0.0000122  -0.9418756   0.2750367
0.0073271     0.1281362  -0.0372763   0.7037452   0.1002685  -0.0000089  -0.0000030  -0.9420109   0.2752536
0.0074172     0.1280340  -0.0367557   0.7037391   0.0989842   0.0000121  -0.0000083  -0.9421284   0.2753567
0.0075084     0.1278915  -0.0360791   0.7037186   0.0977579   0.0000064  -0.0000108  -0.9421577   0.2755385
0.0076007     0.1276846  -0.0357495   0.7039177   0.0964574   0.0000004  -0.0000116  -0.9421461   0.2756577
0.0076941     0.1277782  -0.0353074   0.7040916   0.0952436  -0.0000021   0.0000084  -0.9421786   0.2759126
0.0077887     0.1276841  -0.0347920   0.7040155   0.0940331   0.0000107  -0.0000020  -0.9421820   0.2759312
0.0078844     0.1276223  -0.0343380   0.7040490   0.0927900  -0.0000035  -0.0000018  -0.9422685   0.2760016
0.0079814     0.1275655  -0.0338022   0.7039820   0.0906667   0.0000006  -0.0000059  -0.9422404   0.2762762
0.0080795     0.1274904  -0.0333047   0.7040091   0.0903753   0.0000058  -0.0000034  -0.9423989   0.2763341
0.0081788     0.1274656  -0.0327727   0.7043199   0.0892360  -0.0000045   0.0000043  -0.9422137   0.2765218
0.0082793     0.1274907  -0.0322766   0.7042238   0.0880120  -0.0000005  -0.0000093  -0.9423942   0.2765888
0.0083811     0.1273640  -0.0318168   0.7044079   0.0869629  -0.0000037   0.0000070  -0.9423573   0.2767983
0.0084842     0.1272657  -0.0313332   0.7045366   0.0854534  -0.0000016   0.0000005  -0.9423313   0.2768930
0.0085885     0.1274428  -0.0309828   0.7038163   0.0849940   0.0000015  -0.0000070  -0.9424398   0.2769427
0.0086940     0.1272629  -0.0304576   0.7044431   0.0836698   0.0000127  -0.0000141  -0.9423699   0.2771411
0.0088009     0.1271407  -0.0300178   0.7046868   0.0825466   0.0000002   0.0000062  -0.9423860   0.2772914
0.0089091     0.1272758  -0.0295878   0.7045350   0.0812692   0.0000024  -0.0000112  -0.9423989   0.2774866
0.0090186     0.1272945  -0.0292783   0.7046757   0.0801976  -0.0000090  -0.0000046  -0.9424998   0.2774735
0.0091295     0.1271492  -0.0286731   0.7045103   0.0791210   0.0000055  -0.0000005  -0.9425199   0.2777457
0.0092417     0.1271175  -0.0283206   0.7045964   0.0781534   0.0000093  -0.0000054  -0.9424069   0.2777833
0.0093553     0.1269593  -0.0279607   0.7047583   0.0770890   0.0000041  -0.0000095  -0.9424297   0.2779104
0.0094703     0.1270686  -0.0274243   0.7046921   0.0759468   0.0000006   0.0000108  -0.9425230   0.2779699
0.0095868     0.1270030  -0.0270017   0.7048761   0.0750747  -0.0000033  -0.0000074  -0.9424579   0.2781670
0.0097046     0.1270690  -0.0266746   0.7049083   0.0739717  -0.0000017   0.0000127  -0.9425030   0.2781965
0.0098239     0.1270634  -0.0262504   0.7048031   0.0731041  -0.0000008   0.0000001  -0.9425577   0.2783250
0.0099447     0.1268802  -0.0258621   0.7049123   0.0715841  -0.0000004  -0.0000051  -0.9425478   0.2783615
0.0100669     0.1269332  -0.0253868   0.7048401   0.0712047  -0.0000093  -0.0000186  -0.9425242   0.2785836
0.0101907     0.1268610  -0.0250526   0.7047371   0.0702585  -0.0000033  -0.0000092  -0.9425358   0.2786114
0.0103160     0.1268581  -0.0248447   0.7056638   0.0675162   0.0000116  -0.0000083  -0.9425019   0.2787091
0.0104428     0.1269404  -0.0243098   0.7046767   0.0681172  -0.0000035   0.0000003  -0.9425838   0.2789201
0.0105712     0.1270297  -0.0238338   0.7051726   0.0671624   0.0000088   0.0000015  -0.9425830   0.2789347
0.0107011     0.1270127  -0.0236460   0.7051239   0.0663727   0.0000044  -0.0000051  -0.9426090   0.2791118
0.0108327     0.1268820  -0.0231613   0.7050458   0.0654093   0.0000012  -0.0000062  -0.9425325   0.2791449
0.0109658     0.1268515  -0.0228445   0.7051194   0.0644183  -0.0000070  -0.0000045  -0.9426464   0.2792784
0.0111006     0.1268921  -0.0225194   0.7054343   0.0637501  -0.0000041  -0.0000068  -0.9426136   0.2795289
0.0112371     0.1269741  -0.0221414   0.7054173   0.0627238  -0.0000054   0.0000003  -0.9426557   0.2794251
0.0113752     0.1268675  -0.0217503   0.7050294   0.0617001  -0.0000107   0.0000007  -0.9425597   0.2795968
0.0115151     0.1269465  -0.0213739   0.7050768   0.0612495   0.0000003  -0.0000004  -0.9427017   0.2798539
0.0116566     0.1267728  -0.0210037   0.7052877   0.0598007  -0.0000025  -0.0000093  -0.9425976   0.2797545
0.0117999     0.1268951  -0.0206898   0.7053983   0.0596747  -0.0000078  -0.0000039  -0.9426702   0.2800117
0.0119450     0.1261175  -0.0213295   0.7027571   0.0521493  -0.0000012   0.0000006  -0.9434624   0.2782170
0.0120918     0.1269995  -0.0199540   0.7053493   0.0579961   0.0000006  -0.0000104  -0.9426943   0.2801527
0.0122405     0.1269499  -0.0196744   0.7053657   0.0565599  -0.0000107   0.0000039  -0.9427471   0.2801706
0.0123910     0.1269744  -0.0192751   0.7053136   0.0562022  -0.0000042  -0.0000100  -0.9426088   0.2804391
0.0125433     0.1269495  -0.0190647   0.7054633   0.0551931  -0.0000016   0.0000043  -0.9427097   0.2803775
0.0126975     0.1271183  -0.0187242   0.7054283   0.0545505  -0.0000036  -0.0000023  -0.9425424   0.2804387
0.0128536     0.1270852  -0.0183558   0.7053148   0.0538832   0.0000036  -0.0000033  -0.9426407   0.2806492
0.0130116     0.1270277  -0.0180563   0.7052218   0.0527994   0.0000031   0.0000037  -0.9426215   0.2806846
0.0131716     0.1271453  -0.0177042   0.7053204   0.0523156  -0.0000045   0.0000010  -0.9426642   0.2806807
0.0133335     0.1271031  -0.0174077   0.7054300   0.0513462  -0.0000017  -0.0000095  -0.9425145   0.2809397
0.0134974     0.1270909  -0.0171803   0.7060001   0.0508551   0.0000014  -0.0000020  -0.9425677   0.2809175
0.0136633     0.1272408  -0.0167633   0.7058656   0.0504363   0.0000013  -0.0000062  -0.9426221   0.2811150
0.0138313     0.1271039  -0.0165547   0.7054277   0.0493240  -0.0000014  -0.0000050  -0.9425397   0.2811490
0.0140013     0.1271026  -0.0162604   0.7054638   0.0487994  -0.0000043  -0.0000027  -0.9426175   0.2812854
0.0141734     0.1273096  -0.0159782   0.7053570   0.0477772  -0.0000133  -0.0000052  -0.9426482   0.2814176
0.0143477     0.1272420  -0.0156594   0.7056067   0.0470814   0.0000019  -0.0000050  -0.9426134   0.2813920
0.0145240     0.1273060  -0.0154371   0.7055024   0.0463165   0.0000018   0.0000028  -0.9426510   0.2814696
0.0147026     0.1273088  -0.0150213   0.7056001   0.0458192   0.0000098  -0.0000082  -0.9425887   0.2815431
0.0148833     0.1272113  -0.0147934   0.7056205   0.0451070  -0.0000038  -0.0000085  -0.9425701   0.2817147
0.0150663     0.1274189  -0.0145374   0.7056808   0.0444896   0.0000025  -0.0000094  -0.9425500   0.2817628
0.0152515     0.1274630  -0.0143173   0.7056665   0.0439582  -0.0000064  -0.0000097  -0.9425577   0.2819218
0.0154390     0.1275884  -0.0139883   0.7052057   0.0432693  -0.0000151   0.0000062  -0.9425825   0.2819117
0.0156288     0.1276598  -0.0136703   0.7055312   0.0427059  -0.0000092  -0.0000074  -0.9426634   0.2819290
0.0158209     0.1275866  -0.0134782   0.7056820   0.0416791  -0.0000031  -0.0000088  -0.9425187   0.2819562
0.0160154     0.1276614  -0.0132013   0.7056044   0.0411849   0.0000012  -0.0000067  -0.9425096   0.2821765
0.0162123     0.1275868  -0.0129537   0.7056467   0.0406303  -0.0000041  -0.0000005  -0.9424733   0.2823458
0.0164116     0.1276233  -0.0128065   0.7056387   0.0399611   0.0000020  -0.0000133  -0.9425390   0.2823374
0.0166134     0.1276519  -0.0124717   0.7056489   0.0393646   0.0000025   0.0000024  -0.9424725   0.2825105
0.0168176     0.1277800  -0.0123318   0.7056822   0.0387065   0.0000023  -0.0000011  -0.9425681   0.2824212
0.0170243     0.1277955  -0.0120750   0.7057291   0.0380008  -0.0000044  -0.0000021  -0.9425075   0.2825839
0.0172336     0.1277813  -0.0118124   0.7057302   0.0374422   0.0000039  -0.0000065  -0.9424701   0.2825693
0.0174455     0.1279708  -0.0116665   0.7057647   0.0368184  -0.0000069   0.0000054  -0.9424511   0.2826684
0.0176599     0.1278600  -0.0112955   0.7057844   0.0362732  -0.0000030  -0.0000096  -0.9424459   0.2827776
0.0178770     0.1280102  -0.0111765   0.7058226   0.0357853  -0.0000056   0.0000042  -0.9424224   0.2829245
0.0180968     0.1280176  -0.0110322   0.7057032   0.0352761  -0.0000086  -0.0000035  -0.9424302   0.2828374
0.0183193     0.1280860  -0.0107052   0.7058291   0.0346016   0.0000087  -0.0000044  -0.9424509   0.2830002
0.0185445     0.1281550  -0.0105554   0.7057468   0.0340349   0.0000103  -0.0000060  -0.9424455   0.2830423
0.0187724     0.1281141  -0.0102846   0.7058850   0.0336388   0.0000036   0.0000011  -0.9423371   0.2830841
0.0190032     0.1282430  -0.0100751   0.7057973   0.0329732  -0.0000030  -0.0000051  -0.9424280   0.2831313
0.0192368     0.1281460  -0.0098810   0.7058876   0.0324463   0.0000020   0.0000008  -0.9425254   0.2832695
0.0194733     0.1283496  -0.0097086   0.7058515   0.0319158   0.0000098  -0.0000044  -0.9424154   0.2833488
0.0197127     0.1283991  -0.0094187   0.7058528   0.0313752  -0.0000072  -0.0000149  -0.9423865   0.2834325
0.0199550     0.1284262  -0.0092605   0.7057425   0.0309272  -0.0000085  -0.0000115  -0.9424142   0.2834576
0.0202003     0.1284994  -0.0092105   0.7058216   0.0303809  -0.0000027  -0.0000121  -0.9424186   0.2834956
0.0204487     0.1285351  -0.0089370   0.7058090   0.0299051  -0.0000126  -0.0000027  -0.9423482   0.2836018
0.0207001     0.1286924  -0.0087382   0.7058262   0.0294510  -0.0000050  -0.0000153  -0.9422820   0.2836091
0.0209545     0.1286748  -0.0085250   0.7058616   0.0288560  -0.0000042  -0.0000062  -0.9422991   0.2836966
0.0212121     0.1286510  -0.0082782   0.7058085   0.0284414   0.0000013   0.0000014  -0.9422630   0.2838958
0.0214729     0.1287690  -0.0081775   0.7058512   0.0279287  -0.0000082  -0.0000137  -0.9423046   0.2839225
0.0217369     0.1288163  -0.0080204   0.7058444   0.0273794   0.0000177  -0.0000012  -0.9422967   0.2839207
0.0220041     0.1287640  -0.0077351   0.7058420   0.0269067  -0.0000034  -0.0000052  -0.9423316   0.2839710
0.0222746     0.1288602  -0.0076199   0.7058290   0.0264386   0.0000044  -0.0000094  -0.9421834   0.2840686
0.0225484     0.1289043  -0.0073421   0.7058102   0.0259841  -0.0000069   0.0000029  -0.9421589   0.2840821
0.0228256     0.1289911  -0.0073685   0.7058444   0.0255595  -0.0000015   0.0000000  -0.9422130   0.2841121
0.0231062     0.1291658  -0.0071564   0.7058443   0.0250928  -0.0000071  -0.0000067  -0.9422103   0.2841453
0.0233902     0.1290708  -0.0070188   0.7059146   0.0246693  -0.0000062   0.0000041  -0.9421501   0.2842650
0.0236778     0.1292713  -0.0068394   0.7059610   0.0242897   0.0000026  -0.0000065  -0.9421274   0.2843437
0.0239689     0.1242787  -0.0226848   0.7119736   0.0299928  -0.0000034  -0.0000028  -0.9431943   0.2849166
0.0242635     0.1292827  -0.0065256   0.7059964   0.0233557   0.0000020  -0.0000015  -0.9421554   0.2844378
0.0245618     0.1292382  -0.0065593   0.7059384   0.0229585  -0.0000175  -0.0000006  -0.9420997   0.2845678
0.0248637     0.1294621  -0.0062583   0.7058831   0.0224746  -0.0000010  -0.0000011  -0.9421057   0.2846436
0.0251694     0.1294567  -0.0060566   0.7059003   0.0220772  -0.0000045  -0.0000092  -0.9421237   0.2846718
0.0254788     0.1294765  -0.0058895   0.7058225   0.0216434  -0.0000051  -0.0000060  -0.9420106   0.2847303
0.0257920     0.1295948  -0.0057639   0.7058363   0.0211499   0.0000011  -0.0000116  -0.9420984   0.2848583
0.0261091     0.1297261  -0.0055940   0.7057470   0.0208134   0.0000032  -0.0000093  -0.9419308   0.2848252
0.0264301     0.1296391  -0.0055767   0.7058789   0.0204179   0.0000051  -0.0000114  -0.9420806   0.2849199
0.0267550     0.1296698  -0.0055266   0.7057769   0.0200141  -0.0000017   0.0000036  -0.9419236   0.2849455
0.0270839     0.1298520  -0.0053822   0.7057910   0.0196332  -0.0000150  -0.0000070  -0.9420152   0.2849370
0.0274168     0.1297264  -0.0051644   0.7058428   0.0192480  -0.0000071  -0.0000091  -0.9419723   0.2849874
0.0277539     0.1299233  -0.0049717   0.7059090   0.0188790  -0.0000055  -0.0000124  -0.9418585   0.2850718
0.0280951     0.1299239  -0.0048135   0.7057754   0.0184619  -0.0000084  -0.0000131  -0.9418695   0.2851680
0.0284404     0.1301079  -0.0046890   0.7057109   0.0180992  -0.0000050  -0.0000027  -0.9418926   0.2852433
0.0287901     0.1299864  -0.0047250   0.7058222   0.0177090  -0.0000104  -0.0000071  -0.9419360   0.2851845
0.0291440     0.1301258  -0.0045783   0.7057123   0.0174296   0.0000046  -0.0000088  -0.9418947   0.2853351
0.0295023     0.1302246  -0.0044119   0.7057997   0.0169562   0.0000158   0.0000033  -0.9418181   0.2853636
0.0298649     0.1302824  -0.0043769   0.7057995   0.0166303   0.0000090  -0.0000008  -0.9418149   0.2853996
0.0302321     0.1303271  -0.0042972   0.7057468   0.0162541   0.0000043  -0.0000058  -0.9417208   0.2854923
0.0306037     0.1301933  -0.0040639   0.7057536   0.0158786  -0.0000045  -0.0000008  -0.9417143   0.2855678
0.0309799     0.1304029  -0.0040785   0.7057756   0.0155594  -0.0000045   0.0000013  -0.9418265   0.2855831
0.0313608     0.1303341  -0.0039231   0.7057734   0.0152531   0.0000041  -0.0000197  -0.9417779   0.2856653
0.0317463     0.1304819  -0.0038952   0.7057246   0.0148777  -0.0000047   0.0000050  -0.9416988   0.2857371
0.0321366     0.1304997  -0.0036992   0.7057218   0.0145100   0.0000041  -0.0000031  -0.9417880   0.2857474
0.0325316     0.1306305  -0.0034795   0.7058248   0.0141782   0.0000030  -0.0000159  -0.9416747   0.2858300
0.0329316     0.1306405  -0.0033889   0.7057321   0.0138412   0.0000071  -0.0000175  -0.9416642   0.2859160
0.0333364     0.1306951  -0.0033747   0.7056564   0.0134930   0.0000033  -0.0000037  -0.9416956   0.2859965
0.0337462     0.1307863  -0.0032294   0.7056502   0.0132248   0.0000003   0.0000066  -0.9415459   0.2858363
0.0341610     0.1308844  -0.0030714   0.7055514   0.0129264   0.0000031  -0.0000018  -0.9415890   0.2860550
0.0345810     0.1307869  -0.0031136   0.7057092   0.0126488   0.0000025  -0.0000054  -0.9415994   0.2860402
0.0350061     0.1309619  -0.0029991   0.7055915   0.0122677   0.0000041   0.0000028  -0.9416480   0.2861025
0.0354365     0.1308962  -0.0029618   0.7056553   0.0120189   0.0000008  -0.0000113  -0.9415532   0.2862356
0.0358721     0.1309663  -0.0028975   0.7055567   0.0116660   0.0000027   0.0000040  -0.9415274   0.2861881
0.0363131     0.1310721  -0.0027917   0.7056408   0.0113564  -0.0000035  -0.0000022  -0.9415787   0.2862180
0.0367595     0.1310830  -0.0027530   0.7055320   0.0110319  -0.0000029  -0.0000134  -0.9414277   0.2863980
0.0372114     0.1311481  -0.0026177   0.7055491   0.0107809   0.0000021  -0.0000147  -0.9414660   0.2864445
0.0376688     0.1311577  -0.0024598   0.7054826   0.0104587  -0.0000015  -0.0000004  -0.9414265   0.2864517
0.0381319     0.1312011  -0.0024993   0.7054928   0.0101462  -0.0000009  -0.0000148  -0.9414994   0.2864761
0.0386006     0.1312416  -0.0023164   0.7054520   0.0098835  -0.0000001  -0.0000062  -0.9414738   0.2866139
0.0390752     0.1313313  -0.0022510   0.7053634   0.0096096   0.0000058  -0.0000044  -0.9413666   0.2865701
0.0395555     0.1313989  -0.0023304   0.7053412   0.0093066  -0.0000018  -0.0000008  -0.9413887   0.2866159
0.0400418     0.1315109  -0.0020926   0.7053695   0.0090696  -0.0000059  -0.0000090  -0.9414225   0.2867169
0.0405340     0.1314505  -0.0021067   0.7053713   0.0087710   0.0000032  -0.0000083  -0.9413678   0.2866962
0.0410323     0.1314884  -0.0020777   0.7053172   0.0084968   0.0000113  -0.0000063  -0.9412536   0.2867964
0.0415368     0.1316034  -0.0018503   0.7052587   0.0082383  -0.0000101   0.0000046  -0.9413906   0.2868516
0.0420474     0.1315657  -0.0017763   0.7053151   0.0079800  -0.0000032  -0.0000059  -0.9413047   0.2867908
0.0425643     0.1316270  -0.0017772   0.7052822   0.0077318   0.0000041  -0.0000041  -0.9412317   0.2868349
0.0430875     0.1315683  -0.0017200   0.7053736   0.0074515   0.0000041  -0.0000004  -0.9413051   0.2869693
0.0436172     0.1317813  -0.0016608   0.7052969   0.0071908  -0.0000077  -0.0000074  -0.9412355   0.2870156
0.0441534     0.1317352  -0.0016106   0.7052475   0.0069518   0.0000004  -0.0000073  -0.9411886   0.2871031
0.0446962     0.1317542  -0.0015554   0.7052003   0.0067070  -0.0000045  -0.0000057  -0.9411981   0.2871376
0.0452457     0.1317667  -0.0015214   0.7051356   0.0064235   0.0000028  -0.0000074  -0.9411458   0.2871384
0.0458019     0.1318384  -0.0014814   0.7051710   0.0062449   0.0000017  -0.0000085  -0.9411226   0.2871739
0.0463649     0.1319247  -0.0013307   0.7051440   0.0059552   0.0000098   0.0000013  -0.9410879   0.2872438
0.0469349     0.1319403  -0.0014075   0.7050535   0.0056953  -0.0000076  -0.0000056  -0.9410962   0.2873527
0.0475119     0.1319728  -0.0012584   0.7049119   0.0054833   0.0000017  -0.0000071  -0.9410704   0.2873649
0.0480960     0.1321226  -0.0012124   0.7050309   0.0053295  -0.0000044  -0.0000019  -0.9409973   0.2874680
0.0486872     0.1321346  -0.0011685   0.7048814   0.0049700  -0.0000129  -0.0000110  -0.9409651   0.2874875
0.0492857     0.1321349  -0.0011071   0.7049491   0.0047922  -0.0000002  -0.0000042  -0.9409461   0.2875644
0.0498916     0.1322195  -0.0010406   0.7048176   0.0045718  -0.0000045  -0.0000018  -0.9408737   0.2876173
0.0505050     0.1322070  -0.0010347   0.7048007   0.0043193  -0.0000103  -0.0000166  -0.9409469   0.2876108
0.0511258     0.1323347  -0.0008884   0.7047441   0.0041180  -0.0000017  -0.0000074  -0.9409396   0.2877756
0.0517543     0.1322265  -0.0008628   0.7046750   0.0039039  -0.0000078  -0.0000062  -0.9409543   0.2877150
0.0523906     0.1322891  -0.0007751   0.7047133   0.0037053   0.0000057  -0.0000072  -0.9408638   0.2877875
0.0530346     0.1324014  -0.0007414   0.7045860   0.0034352   0.0000032  -0.0000115  -0.9408033   0.2878187
0.0536866     0.1324047  -0.0008425   0.7045020   0.0032701  -0.0000095  -0.0000167  -0.9408350   0.2878571
0.0543466     0.1324435  -0.0006897   0.7044862   0.0029885  -0.0000052  -0.0000006  -0.9407425   0.2878680
0.0550146     0.1325613  -0.0006792   0.7044254   0.0028089  -0.0000055  -0.0000045  -0.9407686   0.2879192
0.0556910     0.1325127  -0.0006423   0.7043782   0.0026033  -0.0000121  -0.0000102  -0.9406990   0.2879734
0.0563756     0.1325889  -0.0005979   0.7043992   0.0023988   0.0000018  -0.0000108  -0.9407175   0.2881117
0.0570686     0.1325262  -0.0004892   0.7043976   0.0021916   0.0000006  -0.0000166  -0.9406780   0.2881488
0.0577702     0.1325429  -0.0005098   0.7043387   0.0019992  -0.0000013  -0.0000054  -0.9406106   0.2882546
0.0584804     0.1326797  -0.0004581   0.7043154   0.0018485   0.0000011  -0.0000075  -0.9405687   0.2881916
0.0591993     0.1326829  -0.0004386   0.7041980   0.0015981   0.0000087   0.0000003  -0.9405477   0.2882490
0.0599270     0.1327104  -0.0004394   0.7041804   0.0014368   0.0000084  -0.0000020  -0.9406534   0.2883762
0.0606637     0.1327684  -0.0002673   0.7041214   0.0012498  -0.0000008  -0.0000084  -0.9404613   0.2883609
0.0614095     0.1328109  -0.0003219   0.7040768   0.0010145  -0.0000130   0.0000009  -0.9405219   0.2883972
0.0621644     0.1328231  -0.0002883   0.7040394   0.0008434  -0.0000010  -0.0000074  -0.9405535   0.2885076
0.0629286     0.1328506  -0.0001792   0.7040506   0.0006729  -0.0000052  -0.0000012  -0.9404398   0.2884878
0.0637022     0.1329611  -0.0001708   0.7039669   0.0004812   0.0000020  -0.0000046  -0.9403573   0.2886245
0.0644853     0.1329161  -0.0001769   0.7039216   0.0002665  -0.0000014  -0.0000039  -0.9404157   0.2886764
0.0652780     0.1330010  -0.0000735   0.7037935   0.0000921   0.0000039  -0.0000084  -0.9403190   0.2886986
0.0660805     0.1329514  -0.0000994   0.7038464  -0.0000974  -0.0000050  -0.0000067  -0.9402917   0.2888275
0.0668928     0.1330343  -0.0001126   0.7037468  -0.0002279  -0.0000128  -0.0000122  -0.9402203   0.2888212
0.0677152     0.1330484  -0.0000455   0.7036747  -0.0004033   0.0000000  -0.0000112  -0.9402024   0.2888230
0.0685476     0.1329444  -0.0000263   0.7036142  -0.0006224  -0.0000072  -0.0000117  -0.9401862   0.2888922
0.0693903     0.1331155   0.0000509   0.7036413  -0.0007853  -0.0000004  -0.0000041  -0.9401122   0.2890172
0.0702433     0.1330879   0.0000668   0.7036636  -0.0009290  -0.0000029   0.0000041  -0.9401311   0.2890242
0.0711068     0.1331276   0.0000412   0.7035696  -0.0011044   0.0000037  -0.0000059  -0.9400895   0.2890692
0.0719810     0.1331202   0.0002045   0.7035342  -0.0012080  -0.0000091   0.0000050  -0.9400307   0.2890734
0.0728659     0.1331895   0.0002340   0.7034461  -0.0014338   0.0000052  -0.0000014  -0.9399982   0.2891921
0.0737616     0.1331661   0.0001498   0.7033763  -0.0016035  -0.0000012   0.0000004  -0.9399166   0.2892475
0.0746684     0.1331724   0.0002176   0.7033345  -0.0017570   0.0000073  -0.0000086  -0.9399425   0.2892933
0.0755863     0.1332221   0.0002525   0.7032723  -0.0018910  -0.0000051  -0.0000018  -0.9398644   0.2893296
0.0765155     0.1333338   0.0001778   0.7033031  -0.0020856  -0.0000040  -0.0000102  -0.9398543   0.2893451
0.0774561     0.1333102   0.0003718   0.7031712  -0.0022036   0.0000021  -0.0000132  -0.9397228   0.2894283
0.0784083     0.1332661   0.0002417   0.7031598  -0.0023789   0.0000033   0.0000006  -0.9396576   0.2894038
0.0793722     0.1333413   0.0003530   0.7031122  -0.0025116  -0.0000042  -0.0000104  -0.9396161   0.2895158
0.0803479     0.1334124   0.0003197   0.7030936  -0.0026980   0.0000014  -0.0000099  -0.9396115   0.2895176
0.0813357     0.1334960   0.0004276   0.7029925  -0.0028556  -0.0000006  -0.0000007  -0.9394970   0.2895606
0.0823356     0.1334380   0.0004450   0.7029336  -0.0030064  -0.0000053  -0.0000076  -0.9394075   0.2896695
0.0833477     0.1334721   0.0004394   0.7028888  -0.0031266   0.0000061  -0.0000029  -0.9393761   0.2896456
0.0843723     0.1334657   0.0004595   0.7028976  -0.0033005   0.0000086  -0.0000037  -0.9393115   0.2897923
0.0854095     0.1335397   0.0004583   0.7028164  -0.0034037  -0.0000026  -0.0000074  -0.9392051   0.2896720
0.0864595     0.1334961   0.0005087   0.7027818  -0.0035105  -0.0000029   0.0000073  -0.9391912   0.2898053
0.0875224     0.1335477   0.0005732   0.7026597  -0.0037524   0.0000034  -0.0000104  -0.9391330   0.2897833
0.0885983     0.1336112   0.0006139   0.7025992  -0.0038128  -0.0000022  -0.0000038  -0.9390844   0.2898074
0.0896875     0.1336833   0.0004960   0.7025224  -0.0039367   0.0000089  -0.0000091  -0.9389901   0.2898603
0.0907900     0.1336589   0.0005515   0.7024894  -0.0040973  -0.0000058  -0.0000009  -0.9389029   0.2897670
0.0919061     0.1336889   0.0005458   0.7024372  -0.0041865   0.0000026   0.0000009  -0.9387465   0.2898359
0.0930359     0.1337288   0.0005107   0.7023441  -0.0043254   0.0000012   0.0000016  -0.9387368   0.2897206
0.0941797     0.1337605   0.0006372   0.7022863  -0.0044455   0.0000025   0.0000095  -0.9386642   0.2897788
0.0953374     0.1337664   0.0006564   0.7022768  -0.0045248  -0.0000047   0.0000036  -0.9386589   0.2896874
0.0965094     0.1338047   0.0007311   0.7022135  -0.0046754   0.0000008  -0.0000022  -0.9385277   0.2897067
0.0976959     0.1338423   0.0007013   0.7021343  -0.0047175   0.0000064  -0.0000051  -0.9385353   0.2896980
0.0988969     0.1337469   0.0007400   0.7020706  -0.0049092  -0.0000068  -0.0000015  -0.9384663   0.2896201
0.1001126     0.1338599   0.0007355   0.7019654  -0.0049757  -0.0000042  -0.0000113  -0.9384273   0.2896009
0.1013433     0.1339442   0.0007049   0.7019178  -0.0051270  -0.0000066  -0.0000005  -0.9384162   0.2895283
0.1025892     0.1339299   0.0007595   0.7018714  -0.0052477  -0.0000089  -0.0000156  -0.9383242   0.2894642
0.1038503     0.1337986   0.0009280   0.7018499  -0.0053686  -0.0000061   0.0000026  -0.9383898   0.2893628
0.1051270     0.1339075   0.0008862   0.7017921  -0.0054423  -0.0000042   0.0000032  -0.9384645   0.2893710
0.1064193     0.1339215   0.0008440   0.7016676  -0.0055604  -0.0000009  -0.0000043  -0.9385210   0.2892712
0.1077276     0.1340407   0.0009154   0.7014969  -0.0056895  -0.0000010   0.0000042  -0.9385561   0.2893075
0.1090519     0.1339725   0.0008638   0.7016113  -0.0057725   0.0000081   0.0000023  -0.9386699   0.2891948
0.1103925     0.1339932   0.0008351   0.7014087  -0.0058866  -0.0000053  -0.0000082  -0.9386504   0.2892372
0.1117496     0.1340397   0.0009045   0.7013558  -0.0059650   0.0000070  -0.0000009  -0.9387449   0.2892651
0.1131233     0.1340831   0.0009141   0.7013614  -0.0061246  -0.0000109  -0.0000063  -0.9388706   0.2892237
0.1145140     0.1340735   0.0008998   0.7013544  -0.0062291  -0.0000020  -0.0000139  -0.9389367   0.2893050
0.1159217     0.1340996   0.0009273   0.7012858  -0.0062777  -0.0000058  -0.0000006  -0.9389502   0.2893045
0.1173468     0.1341036   0.0008966   0.7011328  -0.0064186   0.0000043  -0.0000100  -0.9390159   0.2893834
0.1187893     0.1340895   0.0009936   0.7011096  -0.0065074  -0.0000015  -0.0000112  -0.9391408   0.2894386
0.1202497     0.1341133   0.0009028   0.7010555  -0.0066109  -0.0000076  -0.0000202  -0.9391425   0.2894774
0.1217279     0.1340835   0.0009737   0.7010388  -0.0067229   0.0000047   0.0000067  -0.9391774   0.2895602
0.1232243     0.1341452   0.0009846   0.7009739  -0.0068163  -0.0000059  -0.0000097  -0.9393238   0.2897100
0.1247392     0.1342412   0.0010162   0.7008964  -0.0069261  -0.0000005  -0.0000021  -0.9393441   0.2897610
0.1262726     0.1342040   0.0010146   0.7007976  -0.0070365  -0.0000082  -0.0000107  -0.9393835   0.2898578
0.1278249     0.1341932   0.0010434   0.7007218  -0.0070835  -0.0000011  -0.0000062  -0.9393711   0.2899272
0.1293963     0.1342432   0.0010491   0.7007004  -0.0071933  -0.0000038  -0.0000042  -0.9394349   0.2900448
0.1309870     0.1342871   0.0010918   0.7006179  -0.0072270   0.0000004  -0.0000140  -0.9394403   0.2901690
0.1325973     0.1342640   0.0011105   0.7005852  -0.0073854  -0.0000006   0.0000020  -0.9394429   0.2901727
0.1342273     0.1342774   0.0010919   0.7005767  -0.0074528  -0.0000030  -0.0000066  -0.9395119   0.2902830
0.1358774     0.1343128   0.0010730   0.7004868  -0.0075322  -0.0000045   0.0000028  -0.9394840   0.2904587
0.1375478     0.1343416   0.0011933   0.7004193  -0.0076373   0.0000041  -0.0000011  -0.9395102   0.2904983
0.1392387     0.1343075   0.0010514   0.7003051  -0.0076920  -0.0000016  -0.0000030  -0.9394896   0.2906542
0.1409504     0.1343849   0.0011365   0.7001737  -0.0077591  -0.0000098  -0.0000030  -0.9395416   0.2907525
0.1426831     0.1343311   0.0010568   0.7001564  -0.0078641  -0.0000051  -0.0000032  -0.9395182   0.2907696
0.1444371     0.1344141   0.0010834   0.7000488  -0.0079551   0.0000040  -0.0000025  -0.9394529   0.2909111
0.1462127     0.1344950   0.0011706   0.6999524  -0.0080619   0.0000011  -0.0000080  -0.9395321   0.2910522
0.1480102     0.1344053   0.0012038   0.6998767  -0.0081084  -0.0000016  -0.0000117  -0.9394888   0.2911476
0.1498297     0.1344789   0.0011458   0.6997903  -0.0082110  -0.0000046   0.0000006  -0.9394295   0.2911965
0.1516716     0.1345207   0.0011393   0.6998366  -0.0082758  -0.0000031   0.0000037  -0.9394114   0.2913293
0.1535361     0.1344850   0.0011917   0.6996891  -0.0083551  -0.0000056  -0.0000089  -0.9394468   0.2914228
0.1554236     0.1345354   0.0012157   0.6996260  -0.0084375   0.0000006   0.0000022  -0.9394299   0.2915906
0.1573342     0.1345751   0.0011711   0.6996299  -0.0084658  -0.0000109  -0.0000090  -0.9393141   0.2916879
0.1592684     0.1345924   0.0011787   0.6994863  -0.0085763   0.0000048   0.0000032  -0.9394186   0.2917255
0.1612263     0.1345563   0.0012944   0.6994517  -0.0086232   0.0000049  -0.0000010  -0.9393069   0.2918717
0.1632083     0.1345831   0.0012159   0.6993824  -0.0086842   0.0000052  -0.0000046  -0.9393931   0.2919294
0.1652147     0.1346254   0.0012022   0.6992687  -0.0087667  -0.0000054   0.0000015  -0.9392935   0.2920767
0.1672457     0.1346164   0.0011931   0.6992500  -0.0088663   0.0000058  -0.0000092  -0.9392819   0.2921465
0.1693017     0.1346249   0.0012449   0.6992220  -0.0089309  -0.0000093  -0.0000026  -0.9392562   0.2921591
0.1713829     0.1347183   0.0012685   0.6990879  -0.0089945  -0.0000062  -0.0000029  -0.9392212   0.2923577
0.1734898     0.1347461   0.0012777   0.6990411  -0.0090322  -0.0000008   0.0000005  -0.9391912   0.2923584
0.1756225     0.1346894   0.0013059   0.6989713  -0.0091246   0.0000067  -0.0000024  -0.9391699   0.2925539
0.1777815     0.1347981   0.0013473   0.6987932  -0.0091432  -0.0000031  -0.0000086  -0.9390592   0.2925714
0.1799670     0.1347669   0.0013138   0.6988153  -0.0092230  -0.0000053  -0.0000102  -0.9390654   0.2927581
0.1821794     0.1347667   0.0012535   0.6986789  -0.0092782   0.0000027  -0.0000042  -0.9390483   0.2928551
0.1844190     0.1346992   0.0012962   0.6986359  -0.0093435  -0.0000014  -0.0000113  -0.9391059   0.2929285
0.1866861     0.1348194   0.0013253   0.6985993  -0.0094222  -0.0000025  -0.0000085  -0.9389236   0.2930493
0.1889811     0.1348624   0.0013387   0.6985312  -0.0094353  -0.0000052  -0.0000045  -0.9389341   0.2931909
0.1913043     0.1349072   0.0012974   0.6984263  -0.0095107  -0.0000022  -0.0000077  -0.9389398   0.2931881
0.1936560     0.1348206   0.0013355   0.6983970  -0.0095662  -0.0000029   0.0000011  -0.9388743   0.2934055
0.1960367     0.1348060   0.0012742   0.6983951  -0.0096620  -0.0000034  -0.0000113  -0.9388666   0.2935421
0.1984466     0.1348266   0.0013631   0.6983085  -0.0096923  -0.0000069  -0.0000007  -0.9388003   0.2935264
0.2008861     0.1348592   0.0012562   0.6982121  -0.0097206  -0.0000035  -0.0000135  -0.9388468   0.2937072
0.2033557     0.1348455   0.0013492   0.6981034  -0.0097884  -0.0000017  -0.0000072  -0.9388149   0.2937507
0.2058556     0.1349510   0.0012713   0.6980454  -0.0098334   0.0000063  -0.0000012  -0.9386165   0.2938308
0.2083862     0.1349716   0.0013417   0.6979901  -0.0098897  -0.0000007  -0.0000098  -0.9386430   0.2939738
0.2109480     0.1348678   0.0014000   0.6979547  -0.0099428  -0.0000041   0.0000037  -0.9386125   0.2940661
0.2135412     0.1349897   0.0014012   0.6978548  -0.0099748   0.0000026  -0.0000099  -0.9385548   0.2941996
0.2161663     0.1349585   0.0013371   0.6977681  -0.0100225   0.0000069  -0.0000061  -0.9385860   0.2942747
0.2188237     0.1349897   0.0014043   0.6977303  -0.0101069  -0.0000015  -0.0000051  -0.9385893   0.2944157
0.2215137     0.1349588   0.0012834   0.6976594  -0.0101473  -0.0000176  -0.0000081  -0.9384733   0.2944849
0.2242369     0.1349898   0.0014935   0.6976307  -0.0101684  -0.0000093  -0.0000156  -0.9383799   0.2946712
0.2269935     0.1350182   0.0013794   0.6974612  -0.0101880  -0.0000070  -0.0000102  -0.9383557   0.2947396
0.2297839     0.1349969   0.0013652   0.6974207  -0.0102613   0.0000008  -0.0000095  -0.9383288   0.2948782
0.2326087     0.1350217   0.0013276   0.6972655  -0.0102797  -0.0000072  -0.0000042  -0.9383012   0.2949777
0.2354682     0.1351477   0.0013453   0.6972284  -0.0103365   0.0000062  -0.0000025  -0.9382314   0.2950852
0.2383629     0.1352224   0.0013532   0.6971949  -0.0103852   0.0000095  -0.0000077  -0.9382402   0.2951383
0.2412932     0.1350839   0.0013539   0.6971339  -0.0103817  -0.0000204  -0.0000146  -0.9381400   0.2952565
0.2442594     0.1352304   0.0013576   0.6970319  -0.0104579  -0.0000093   0.0000065  -0.9381314   0.2954319
0.2472622     0.1351384   0.0013704   0.6970058  -0.0104597  -0.0000034  -0.0000044  -0.9381191   0.2955686
0.2503018     0.1350969   0.0013668   0.6970062  -0.0105113  -0.0000125  -0.0000093  -0.9379876   0.2957517
0.2533788     0.1352624   0.0013394   0.6968906  -0.0105549  -0.0000040   0.0000031  -0.9379655   0.2957465
0.2564937     0.1352335   0.0014197   0.6968184  -0.0105532  -0.0000017  -0.0000116  -0.9379517   0.2958429
0.2596468     0.1352068   0.0014077   0.6966911  -0.0106169  -0.0000103  -0.0000019  -0.9378675   0.2960615
0.2628387     0.1352294   0.0013822   0.6966568  -0.0106547   0.0000019   0.0000031  -0.9378421   0.2962113
0.2660699     0.1351301   0.0013450   0.6966401  -0.0106865   0.0000030  -0.0000001  -0.9377637   0.2962477
0.2693407     0.1352083   0.0013576   0.6965808  -0.0107365   0.0000029   0.0000017  -0.9376920   0.2964796
0.2726518     0.1353622   0.0013401   0.6964401  -0.0107526   0.0000098  -0.0000065  -0.9376563   0.2965318
0.2760036     0.1352436   0.0013201   0.6964668  -0.0107909  -0.0000009  -0.0000004  -0.9376370   0.2967253
0.2793966     0.1352031   0.0013248   0.6964397  -0.0108100   0.0000015  -0.0000069  -0.9375655   0.2967840
0.2828312     0.1352486   0.0014028   0.6963179  -0.0108284  -0.0000054  -0.0000065  -0.9375553   0.2969881
0.2863082     0.1352676   0.0013884   0.6962916  -0.0108609  -0.0000069  -0.0000156  -0.9374514   0.2970842
0.2898278     0.1353711   0.0013881   0.6960775  -0.0108989   0.0000011  -0.0000148  -0.9373987   0.2972562
0.2933907     0.1353805   0.0013721   0.6960235  -0.0109036  -0.0000071  -0.0000110  -0.9374491   0.2973166
0.2969975     0.1353706   0.0014291   0.6959685  -0.0109384   0.0000025  -0.0000002  -0.9373918   0.2974570
0.3006485     0.1353072   0.0014227   0.6959153  -0.0109811  -0.0000037  -0.0000003  -0.9372446   0.2976492
0.3043445     0.1354086   0.0013271   0.6958623  -0.0110119   0.0000030  -0.0000090  -0.9372233   0.2977212
0.3080858     0.1354051   0.0013141   0.6957799  -0.0110501   0.0000008  -0.0000047  -0.9371217   0.2978439
0.3118732     0.1354417   0.0013954   0.6956560  -0.0110139  -0.0000029  -0.0000037  -0.9370846   0.2981255
0.3157071     0.1354489   0.0014113   0.6956102  -0.0110459   0.0000001  -0.0000051  -0.9369519   0.2981806
0.3195882     0.1354302   0.0014824   0.6955117  -0.0110980  -0.0000056  -0.0000075  -0.9369621   0.2983713
0.3235170     0.1354765   0.0013291   0.6954720  -0.0110970   0.0000005  -0.0000101  -0.9368877   0.2985743
0.3274941     0.1353954   0.0013032   0.6954195  -0.0111483  -0.0000171  -0.0000030  -0.9368245   0.2986018
0.3315200     0.1355160   0.0013708   0.6952746  -0.0111584  -0.0000011  -0.0000002  -0.9366881   0.2987612
0.3355955     0.1355351   0.0014161   0.6952465  -0.0111680   0.0000024  -0.0000098  -0.9367534   0.2988743
0.3397210     0.1354782   0.0013439   0.6951623  -0.0111931  -0.0000033  -0.0000140  -0.9366286   0.2991156
0.3438973     0.1355380   0.0013044   0.6951145  -0.0112206   0.0000025  -0.0000018  -0.9365542   0.2991742
0.3481249     0.1354899   0.0012931   0.6950820  -0.0112460  -0.0000090  -0.0000003  -0.9365513   0.2993079
0.3524045     0.1355580   0.0013221   0.6950300  -0.0112798   0.0000071  -0.0000049  -0.9364981   0.2994654
0.3567367     0.1355129   0.0013821   0.6950478  -0.0112995   0.0000048  -0.0000006  -0.9364733   0.2996630
0.3611221     0.1356163   0.0013626   0.6948970  -0.0113078  -0.0000009  -0.0000053  -0.9363157   0.2998125
0.3655615     0.1354900   0.0013909   0.6948954  -0.0113208   0.0000008   0.0000035  -0.9362350   0.2999891
0.3700554     0.1355609   0.0013316   0.6948301  -0.0113279  -0.0000078   0.0000013  -0.9361766   0.3001423
0.3746046     0.1355898   0.0013402   0.6947641  -0.0113531  -0.0000074   0.0000052  -0.9360952   0.3002810
0.3792097     0.1355971   0.0012688   0.6946674  -0.0113691   0.0000027  -0.0000014  -0.9360310   0.3005167
0.3838714     0.1356502   0.0012853   0.6945589  -0.0113589  -0.0000147   0.0000006  -0.9360487   0.3006684
0.3885905     0.1356382   0.0013511   0.6946164  -0.0113787   0.0000014  -0.0000025  -0.9359445   0.3008066
0.3933675     0.1356140   0.0013162   0.6944246  -0.0114061  -0.0000064  -0.0000079  -0.9358374   0.3010662
0.3982033     0.1355962   0.0013305   0.6944162  -0.0114663   0.0000045  -0.0000028  -0.9357388   0.3011775
0.4030985     0.1355778   0.0013709   0.6943904  -0.0114408  -0.0000013  -0.0000019  -0.9356822   0.3013380
0.4080538     0.1356311   0.0013521   0.6942899  -0.0114452   0.0000088  -0.0000011  -0.9356213   0.3015114
0.4130701     0.1356527   0.0012721   0.6942344  -0.0114782  -0.0000030  -0.0000011  -0.9354990   0.3017008
0.4181481     0.1357251   0.0013625   0.6941273  -0.0114513  -0.0000217  -0.0000123  -0.9354835   0.3019167
0.4232885     0.1356772   0.0013619   0.6940467  -0.0114985   0.0000013  -0.0000042  -0.9353929   0.3020374
0.4284921     0.1356531   0.0012129   0.6940223  -0.0114943   0.0000050  -0.0000019  -0.9353126   0.3021829
0.4337597     0.1357993   0.0012202   0.6940205  -0.0115202  -0.0000025  -0.0000129  -0.9351899   0.3024178
0.4390920     0.1358369   0.0012047   0.6939547  -0.0115442   0.0000014  -0.0000040  -0.9351455   0.3026475
0.4444898     0.1357162   0.0013108   0.6938630  -0.0115537   0.0000003  -0.0000071  -0.9350953   0.3028394
0.4499541     0.1357511   0.0012742   0.6938368  -0.0115587   0.0000018   0.0000071  -0.9349420   0.3029515
0.4554854     0.1357725   0.0012490   0.6936932  -0.0116266  -0.0000024   0.0000004  -0.9349191   0.3031716
0.4610848     0.1358057   0.0012984   0.6936422  -0.0115967   0.0000036  -0.0000010  -0.9347462   0.3034583
0.4667531     0.1358026   0.0012024   0.6935397  -0.0115984  -0.0000048  -0.0000122  -0.9347264   0.3035858
0.4724910     0.1357896   0.0012063   0.6935353  -0.0115983   0.0000114  -0.0000039  -0.9345766   0.3037551
0.4782994     0.1358431   0.0012295   0.6934839  -0.0116098  -0.0000062  -0.0000052  -0.9345650   0.3040264
0.4841793     0.1358137   0.0013154   0.6934279  -0.0116110   0.0000106   0.0000023  -0.9344129   0.3041643
0.4901314     0.1359137   0.0012312   0.6934606  -0.0116466   0.0000062  -0.0000086  -0.9344641   0.3044346
0.4961567     0.1357849   0.0012093   0.6933842  -0.0116425  -0.0000058  -0.0000014  -0.9343045   0.3046205
0.5022561     0.1358786   0.0011886   0.6933281  -0.0116777  -0.0000017  -0.0000053  -0.9341865   0.3048411
0.5084304     0.1358203   0.0012047   0.6932132  -0.0116587  -0.0000013  -0.0000019  -0.9340425   0.3051119
0.5146807     0.1358953   0.0012257   0.6931435  -0.0117072  -0.0000092  -0.0000063  -0.9339961   0.3052493
0.5210078     0.1359480   0.0011811   0.6930419  -0.0117074   0.0000043  -0.0000041  -0.9338725   0.3054744
0.5274126     0.1359334   0.0012217   0.6930091  -0.0117051  -0.0000064  -0.0000075  -0.9338402   0.3057256
0.5338963     0.1359539   0.0012280   0.6929784  -0.0117198   0.0000003   0.0000057  -0.9337405   0.3059158
0.5404596     0.1360146   0.0012072   0.6928438  -0.0117280  -0.0000084   0.0000050  -0.9336710   0.3062319
0.5471036     0.1360011   0.0011964   0.6928006  -0.0117427  -0.0000094  -0.0000065  -0.9335276   0.3063257
0.5538292     0.1359988   0.0010752   0.6927470  -0.0117616   0.0000020  -0.0000054  -0.9334165   0.3066357
0.5606376     0.1360598   0.0011941   0.6927678  -0.0117428  -0.0000026  -0.0000073  -0.9332411   0.3068205
0.5675297     0.1359933   0.0011452   0.6926347  -0.0117538  -0.0000022  -0.0000028  -0.9331879   0.3071370
0.5745064     0.1360144   0.0011654   0.6925854  -0.0117818   0.0000018   0.0000011  -0.9330557   0.3073340
0.5815690     0.1360610   0.0011036   0.6925446  -0.0118082   0.0000020   0.0000047  -0.9330523   0.3075216
0.5887183     0.1360769   0.0011536   0.6923984  -0.0118310  -0.0000109  -0.0000114  -0.9328489   0.3077647
0.5959556     0.1360119   0.0011620   0.6923639  -0.0118303  -0.0000057  -0.0000093  -0.9327533   0.3080503
0.6032818     0.1361445   0.0011949   0.6922693  -0.0118214  -0.0000051  -0.0000031  -0.9326622   0.3083318
0.6106981     0.1361032   0.0011207   0.6922677  -0.0118431   0.0000033  -0.0000101  -0.9325332   0.3086434
0.6182056     0.1360904   0.0010675   0.6921971  -0.0118627   0.0000045  -0.0000047  -0.9324797   0.3087512
0.6258053     0.1361022   0.0011030   0.6921160  -0.0118664  -0.0000036   0.0000009  -0.9323100   0.3090988
0.6334985     0.1361384   0.0011277   0.6920697  -0.0118648   0.0000043  -0.0000057  -0.9322906   0.3093580
0.6412862     0.1361529   0.0012242   0.6920239  -0.0119009  -0.0000087  -0.0000039  -0.9320162   0.3096498
0.6491697     0.1361294   0.0011248   0.6919935  -0.0119129  -0.0000025   0.0000017  -0.9320639   0.3099768
0.6571501     0.1361202   0.0011516   0.6919307  -0.0119323  -0.0000156  -0.0000076  -0.9318527   0.3101546
0.6652286     0.1361947   0.0011053   0.6918656  -0.0119524   0.0000013  -0.0000025  -0.9317385   0.3105023
0.6734064     0.1361313   0.0011290   0.6917878  -0.0119338  -0.0000007  -0.0000128  -0.9316249   0.3107810
0.6816848     0.1361392   0.0010259   0.6917868  -0.0119761  -0.0000108  -0.0000052  -0.9314518   0.3109770
0.6900649     0.1362075   0.0011287   0.6917703  -0.0119862  -0.0000001  -0.0000024  -0.9313558   0.3112493
0.6985480     0.1362028   0.0010950   0.6916692  -0.0120187  -0.0000011  -0.0000022  -0.9312130   0.3116300
0.7071355     0.1361780   0.0010579   0.6915964  -0.0120035   0.0000024  -0.0000047  -0.9311384   0.3119213
0.7158284     0.1361612   0.0011381   0.6916115  -0.0120371   0.0000018  -0.0000044  -0.9310515   0.3121998
0.7246283     0.1362193   0.0010133   0.6914369  -0.0120306  -0.0000065  -0.0000022  -0.9308397   0.3124587
0.7335363     0.1362525   0.0010834   0.6914202  -0.0120343   0.0000072  -0.0000030  -0.9308036   0.3127722
0.7425539     0.1363036   0.0009753   0.6914171  -0.0120684  -0.0000014  -0.0000051  -0.9306783   0.3131388
0.7516822     0.1363120   0.0010073   0.6913839  -0.0120826  -0.0000061   0.0000039  -0.9304417   0.3133883
0.7609229     0.1362252   0.0010011   0.6913396  -0.0120885  -0.0000108  -0.0000073  -0.9302693   0.3136903
0.7702771     0.1363052   0.0010321   0.6912468  -0.0121171   0.0000060  -0.0000118  -0.9301103   0.3139566
0.7797463     0.1362648   0.0009627   0.6912209  -0.0121347  -0.0000053  -0.0000039  -0.9299867   0.3143409
0.7893319     0.1362111   0.0009632   0.6912171  -0.0121379  -0.0000011  -0.0000039  -0.9298566   0.3146606
0.7990353     0.1363313   0.0009386   0.6911746  -0.0121596   0.0000108   0.0000006  -0.9297423   0.3149845
0.8088580     0.1362978   0.0009946   0.6911333  -0.0121888  -0.0000011  -0.0000043  -0.9295781   0.3153214
0.8188015     0.1362291   0.0010112   0.6911214  -0.0122052  -0.0000041  -0.0000032  -0.9294537   0.3156519
0.8288673     0.1362166   0.0009615   0.6910157  -0.0122539  -0.0000032  -0.0000065  -0.9292674   0.3159989
0.8390567     0.1363489   0.0010356   0.6909228  -0.0122564   0.0000029  -0.0000167  -0.9291964   0.3163791
0.8493714     0.1364491   0.0009681   0.6909261  -0.0122618   0.0000081  -0.0000012  -0.9290133   0.3166715
0.8598130     0.1363562   0.0009145   0.6908184  -0.0123090   0.0000073  -0.0000083  -0.9288463   0.3170546
0.8703829     0.1362751   0.0008901   0.6908130  -0.0123099   0.0000037  -0.0000044  -0.9286617   0.3173866
0.8810827     0.1363450   0.0009749   0.6907270  -0.0123398  -0.0000029  -0.0000054  -0.9285109   0.3178376
0.8919140     0.1363805   0.0009781   0.6906681  -0.0123764   0.0000023  -0.0000108  -0.9283561   0.3181357
0.9028786     0.1363352   0.0009179   0.6905840  -0.0123816  -0.0000092   0.0000004  -0.9281942   0.3185210
0.9139779     0.1363587   0.0009004   0.6906115  -0.0124024  -0.0000026  -0.0000067  -0.9280326   0.3189216
0.9252136     0.1362987   0.0009021   0.6905933  -0.0124395  -0.0000001  -0.0000139  -0.9278553   0.3192816
0.9365875     0.1364012   0.0009202   0.6905039  -0.0124820  -0.0000034   0.0000006  -0.9276938   0.3196557
0.9481012     0.1363971   0.0009171   0.6904598  -0.0124750  -0.0000017  -0.0000055  -0.9275186   0.3200543
0.9597564     0.1365179   0.0007955   0.6903933  -0.0125008  -0.0000017  -0.0000023  -0.9273121   0.3204456
0.9715549     0.1363465   0.0008544   0.6903758  -0.0125226  -0.0000036  -0.0000012  -0.9271461   0.3208858
0.9834985     0.1364250   0.0006666   0.6903302  -0.0125556  -0.0000065  -0.0000013  -0.9270109   0.3212321
0.9955889     0.1362561   0.0007893   0.6903103  -0.0125832  -0.0000032  -0.0000050  -0.9268638   0.3216050
1.0078279     0.1363726   0.0008195   0.6902625  -0.0126377   0.0000107  -0.0000079  -0.9265545   0.3220619
1.0202173     0.1364465   0.0008056   0.6901879  -0.0126350   0.0000011  -0.0000053  -0.9264578   0.3224213
1.0327591     0.1364311   0.0007864   0.6901304  -0.0126878  -0.0000039  -0.0000004  -0.9262505   0.3229331
1.0454551     0.1364528   0.0008068   0.6901066  -0.0127039   0.0000008  -0.0000101  -0.9260666   0.3233381
1.0583071     0.1365185   0.0008618   0.6900148  -0.0127421  -0.0000013   0.0000049  -0.9258682   0.3237213
1.0713171     0.1365420   0.0007247   0.6899232  -0.0127320  -0.0000064   0.0000018  -0.9255917   0.3241481
1.0844871     0.1365472   0.0007246   0.6899051  -0.0127698  -0.0000048   0.0000027  -0.9254617   0.3245377
1.0978189     0.1365022   0.0007449   0.6899023  -0.0128115   0.0000007   0.0000068  -0.9252756   0.3250599
1.1113147     0.1365723   0.0007589   0.6897901  -0.0128518  -0.0000006  -0.0000055  -0.9250334   0.3254274
1.1249763     0.1364996   0.0007340   0.6897885  -0.0128533  -0.0000013  -0.0000018  -0.9248774   0.3259905
1.1388059     0.1364877   0.0007357   0.6897325  -0.0129240  -0.0000019  -0.0000060  -0.9247198   0.3264517
1.1528056     0.1365563   0.0007513   0.6896420  -0.0129178  -0.0000044  -0.0000036  -0.9244583   0.3268988
1.1669773     0.1365052   0.0006601   0.6896020  -0.0129850  -0.0000009  -0.0000082  -0.9242727   0.3273953
1.1813232     0.1365781   0.0006424   0.6895022  -0.0129684  -0.0000031  -0.0000048  -0.9240773   0.3278585
1.1958455     0.1365391   0.0006748   0.6894924  -0.0130442   0.0000009   0.0000004  -0.9238039   0.3283554
1.2105463     0.1365706   0.0006648   0.6894147  -0.0130464  -0.0000031  -0.0000085  -0.9236208   0.3288517
1.2254278     0.1365757   0.0005969   0.6893610  -0.0131030  -0.0000064   0.0000002  -0.9233540   0.3293477
1.2404923     0.1365463   0.0007324   0.6893521  -0.0131456   0.0000005  -0.0000006  -0.9232183   0.3298264
1.2557420     0.1366817   0.0007265   0.6893228  -0.0132115   0.0000060  -0.0000034  -0.9229541   0.3303611
1.2711791     0.1365358   0.0006360   0.6893122  -0.0132233   0.0000058   0.0000032  -0.9226769   0.3308420
1.2868060     0.1365680   0.0006008   0.6892341  -0.0132513  -0.0000086   0.0000018  -0.9224299   0.3313969
1.3026251     0.1365817   0.0005783   0.6891832  -0.0133272   0.0000010  -0.0000178  -0.9221532   0.3319239
1.3186385     0.1365777   0.0005518   0.6891773  -0.0133340  -0.0000032  -0.0000001  -0.9219294   0.3324706
1.3348489     0.1366084   0.0006018   0.6890811  -0.0134188  -0.0000022  -0.0000067  -0.9217568   0.3330027
1.3512585     0.1366229   0.0005464   0.6890588  -0.0134056  -0.0000067  -0.0000152  -0.9214508   0.3335168
1.3678698     0.1365688   0.0005738   0.6890313  -0.0134703  -0.0000091  -0.0000157  -0.9212825   0.3340755
1.3846854     0.1366955   0.0005862   0.6889609  -0.0135292   0.0000027  -0.0000135  -0.9210106   0.3347380
1.4017077     0.1366465   0.0005451   0.6888535  -0.0135559   0.0000041   0.0000045  -0.9207423   0.3352204
1.4189392     0.1366884   0.0005031   0.6887822  -0.0136347   0.0000006   0.0000001  -0.9205003   0.3357456
1.4363825     0.1366855   0.0006186   0.6888067  -0.0136517  -0.0000072  -0.0000012  -0.9202484   0.3363581
1.4540403     0.1367206   0.0004820   0.6887620  -0.0137132  -0.0000064  -0.0000011  -0.9199559   0.3369570
1.4719152     0.1366697   0.0004162   0.6886859  -0.0137698   0.0000078   0.0000075  -0.9197156   0.3376479
1.4900098     0.1367682   0.0004629   0.6886083  -0.0137974   0.0000059  -0.0000025  -0.9193985   0.3381595
1.5083269     0.1367092   0.0004726   0.6886166  -0.0138569  -0.0000053   0.0000013  -0.9191216   0.3387463
1.5268691     0.1368195   0.0005092   0.6884725  -0.0138889   0.0000075  -0.0000016  -0.9188447   0.3393919
1.5456392     0.1366605   0.0003788   0.6884609  -0.0139487  -0.0000034  -0.0000016  -0.9186352   0.3399954
1.5646402     0.1367762   0.0004339   0.6884261  -0.0139944   0.0000027  -0.0000022  -0.9183255   0.3407034
1.5838747     0.1366369   0.0004607   0.6883936  -0.0140698  -0.0000058   0.0000018  -0.9180071   0.3413056
1.6033456     0.1367341   0.0004914   0.6883316  -0.0140963  -0.0000038   0.0000005  -0.9178175   0.3419714
1.6230559     0.1366849   0.0004024   0.6882913  -0.0141434   0.0000040  -0.0000088  -0.9174998   0.3426997
1.6430085     0.1367845   0.0004965   0.6882425  -0.0142028  -0.0000092  -0.0000087  -0.9171685   0.3433497
1.6632064     0.1367456   0.0003323   0.6881640  -0.0142820  -0.0000108  -0.0000073  -0.9168588   0.3440620
1.6836526     0.1367938   0.0002920   0.6881183  -0.0143634   0.0000037  -0.0000099  -0.9166106   0.3447857
1.7043502     0.1367991   0.0003320   0.6880260  -0.0143806   0.0000002  -0.0000113  -0.9161800   0.3455200
1.7253021     0.1368484   0.0003907   0.6879814  -0.0144391  -0.0000079  -0.0000040  -0.9159925   0.3461715
1.7465117     0.1368344   0.0002926   0.6879811  -0.0145136   0.0000025  -0.0000055  -0.9157903   0.3469968
1.7679820     0.1368497   0.0003052   0.6879260  -0.0145682  -0.0000045   0.0000031  -0.9154066   0.3477171
1.7897162     0.1368436   0.0003621   0.6878448  -0.0146512  -0.0000016  -0.0000074  -0.9151174   0.3484560
1.8117176     0.1368112   0.0003169   0.6877716  -0.0146797  -0.0000088  -0.0000035  -0.9147761   0.3493066
1.8339895     0.1368225   0.0002264   0.6877722  -0.0147514  -0.0000118  -0.0000034  -0.9144893   0.3500739
1.8565352     0.1367551   0.0003282   0.6877301  -0.0148225  -0.0000061  -0.0000007  -0.9141587   0.3508992
1.8793580     0.1368060   0.0002915   0.6877227  -0.0149028   0.0000050  -0.0000067  -0.9138773   0.3516445
1.9024614     0.1369308   0.0002758   0.6877750  -0.0149687   0.0000034   0.0000019  -0.9136433   0.3524820
1.9258488     0.1368738   0.0002419   0.6875874  -0.0150348  -0.0000040  -0.0000066  -0.9132013   0.3533232
1.9495237     0.1368807   0.0001921   0.6875763  -0.0150935  -0.0000036  -0.0000086  -0.9128573   0.3542622
1.9734897     0.1368588   0.0002119   0.6874860  -0.0151686  -0.0000027  -0.0000027  -0.9124967   0.3551210
1.9977503     0.1368858   0.0002575   0.6874587  -0.0152224  -0.0000022  -0.0000100  -0.9121862   0.3560367
2.0223091     0.1368316   0.0001893   0.6874504  -0.0153010   0.0000036  -0.0000066  -0.9117146   0.3569520
2.0471698     0.1368000   0.0001493   0.6874137  -0.0154243   0.0000021  -0.0000058  -0.9112576   0.3578717
2.0723362     0.1368281   0.0001150   0.6874048  -0.0154495  -0.0000052  -0.0000109  -0.9108508   0.3587810
2.0978119     0.1369188   0.0000857   0.6873196  -0.0155138  -0.0000046  -0.0000081  -0.9103719   0.3597379
2.1236008     0.1369684   0.0001672   0.6872951  -0.0156199  -0.0000093  -0.0000004  -0.9098752   0.3606545
2.1497067     0.1369338   0.0000747   0.6872923  -0.0156688  -0.0000046  -0.0000022  -0.9093895   0.3616367
2.1761336     0.1369965  -0.0000157   0.6872046  -0.0157298  -0.0000068  -0.0000094  -0.9089004   0.3624516
2.2028853     0.1369977   0.0001147   0.6871919  -0.0158203  -0.0000069  -0.0000036  -0.9082573   0.3634525
2.2299659     0.1369812   0.0000749   0.6871915  -0.0159040  -0.0000041  -0.0000103  -0.9079217   0.3643863
2.2573794     0.1369929   0.0000128   0.6870965  -0.0159897  -0.0000005   0.0000045  -0.9073349   0.3653268
2.2851299     0.1370012  -0.0000398   0.6870177  -0.0160975  -0.0000203  -0.0000078  -0.9067572   0.3662666
2.3132216     0.1370573  -0.0000145   0.6870514  -0.0161893  -0.0000061  -0.0000051  -0.9062437   0.3671181
2.3416586     0.1369642  -0.0000328   0.6869829  -0.0162403   0.0000013  -0.0000147  -0.9056892   0.3680784
2.3704451     0.1370142  -0.0000618   0.6869176  -0.0163576  -0.0000051  -0.0000091  -0.9051684   0.3691096
2.3995856     0.1369771  -0.0001080   0.6869520  -0.0164119  -0.0000066  -0.0000082  -0.9045189   0.3700807
2.4290843     0.1369737  -0.0000574   0.6868777  -0.0165091  -0.0000003  -0.0000136  -0.9041214   0.3709168
2.4589456     0.1370046  -0.0000837   0.6868557  -0.0166066  -0.0000015  -0.0000055  -0.9035454   0.3719175
2.4891740     0.1370422  -0.0001466   0.6868075  -0.0166965   0.0000065   0.0000046  -0.9030067   0.3729132
2.5197740     0.1369918  -0.0000673   0.6867972  -0.0167898  -0.0000101  -0.0000049  -0.9025121   0.3739415
2.5507502     0.1370138  -0.0001437   0.6867692  -0.0169085  -0.0000041   0.0000006  -0.9019500   0.3748543
2.5821072     0.1370682  -0.0001173   0.6867306  -0.0169285   0.0000005  -0.0000009  -0.9013914   0.3758758
2.6138496     0.1370455  -0.0002021   0.6866787  -0.0170636  -0.0000073  -0.0000027  -0.9007222   0.3768633
2.6459823     0.1370236  -0.0001629   0.6866356  -0.0171684  -0.0000029   0.0000048  -0.9001987   0.3779199
2.6785100     0.1369764  -0.0001329   0.6865863  -0.0172504  -0.0000082  -0.0000121  -0.8996597   0.3790409
2.7114376     0.1370838  -0.0002534   0.6865623  -0.0173227  -0.0000063  -0.0000062  -0.8990225   0.3800620
2.7447699     0.1369634  -0.0002632   0.6864770  -0.0174478   0.0000017  -0.0000063  -0.8984440   0.3810689
2.7785120     0.1370269  -0.0003081   0.6864982  -0.0175303  -0.0000026  -0.0000068  -0.8978285   0.3821643
2.8126689     0.1370355  -0.0002011   0.6864551  -0.0176706  -0.0000122   0.0000035  -0.8973122   0.3833147
2.8472457     0.1371328  -0.0004420   0.6864429  -0.0177960  -0.0000035  -0.0000070  -0.8967607   0.3844286
2.8822476     0.1371386  -0.0003744   0.6863975  -0.0178646   0.0000060   0.0000022  -0.8961782   0.3855124
2.9176798     0.1370865  -0.0003364   0.6863620  -0.0179564  -0.0000007  -0.0000141  -0.8955195   0.3866086
2.9535475     0.1370979  -0.0003441   0.6863383  -0.0180615  -0.0000058  -0.0000054  -0.8949483   0.3878070
2.9898562     0.1370886  -0.0004272   0.6862791  -0.0182074  -0.0000028  -0.0000049  -0.8942470   0.3890268
3.0266112     0.1371011  -0.0003930   0.6861873  -0.0183071  -0.0000014  -0.0000102  -0.8936296   0.3901293
3.0638180     0.1370921  -0.0005392   0.6861271  -0.0184350  -0.0000027  -0.0000106  -0.8929854   0.3913348
3.1014823     0.1371362  -0.0003718   0.6861164  -0.0185470   0.0000122   0.0000001  -0.8923790   0.3926033
3.1396096     0.1371412  -0.0005291   0.6860780  -0.0186518   0.0000007  -0.0000151  -0.8916534   0.3937399
3.1782055     0.1371249  -0.0005004   0.6860379  -0.0187632  -0.0000052  -0.0000060  -0.8910269   0.3950064
3.2172760     0.1371899  -0.0004843   0.6860095  -0.0188815  -0.0000021  -0.0000025  -0.8903442   0.3962763
3.2568267     0.1372574  -0.0005768   0.6859548  -0.0190009   0.0000000   0.0000010  -0.8897056   0.3975141
3.2968637     0.1371564  -0.0005554   0.6859253  -0.0191305   0.0000079  -0.0000071  -0.8889123   0.3988380
3.3373928     0.1371478  -0.0005811   0.6859075  -0.0192615  -0.0000055  -0.0000043  -0.8882090   0.4000991
3.3784202     0.1371200  -0.0005686   0.6858719  -0.0193538   0.0000017  -0.0000115  -0.8874257   0.4014749
3.4199519     0.1371536  -0.0006542   0.6858324  -0.0195284  -0.0000018  -0.0000072  -0.8867184   0.4027799
3.4619942     0.1371936  -0.0006600   0.6857438  -0.0196728   0.0000094  -0.0000015  -0.8859021   0.4040620
3.5045533     0.1372023  -0.0006879   0.6857394  -0.0197651  -0.0000130  -0.0000043  -0.8851955   0.4055343
3.5476356     0.1371843  -0.0006824   0.6856292  -0.0199036  -0.0000032  -0.0000072  -0.8844131   0.4068135
3.5912475     0.1372392  -0.0007614   0.6856889  -0.0200485   0.0000050  -0.0000068  -0.8835820   0.4081858
3.6353956     0.1371126  -0.0007629   0.6855903  -0.0202016  -0.0000033   0.0000033  -0.8828196   0.4096963
3.6800864     0.1371741  -0.0008062   0.6855739  -0.0203184  -0.0000019  -0.0000012  -0.8820544   0.4111741
3.7253266     0.1372413  -0.0007744   0.6855628  -0.0204517  -0.0000012   0.0000029  -0.8812237   0.4125975
3.7711229     0.1372376  -0.0008726   0.6855176  -0.0206242   0.0000036  -0.0000073  -0.8804596   0.4140384
3.8174822     0.1372117  -0.0009469   0.6854234  -0.0207546   0.0000054  -0.0000037  -0.8795996   0.4154965
3.8644115     0.1372244  -0.0009587   0.6853910  -0.0208840  -0.0000027  -0.0000005  -0.8788628   0.4170898
3.9119176     0.1373295  -0.0008505   0.6853344  -0.0210431   0.0000050  -0.0000047  -0.8780034   0.4186069
3.9600077     0.1372771  -0.0009265   0.6853310  -0.0211962  -0.0000003  -0.0000106  -0.8772529   0.4201030
4.0086890     0.1373175  -0.0009748   0.6852778  -0.0212981  -0.0000001  -0.0000011  -0.8762245   0.4216955
4.0579688     0.1373117  -0.0009699   0.6851984  -0.0215082   0.0000105  -0.0000087  -0.8753939   0.4232443
4.1078544     0.1372365  -0.0010391   0.6851920  -0.0216224   0.0000009  -0.0000062  -0.8745147   0.4247613
4.1583532     0.1372928  -0.0010230   0.6851516  -0.0218104  -0.0000076  -0.0000134  -0.8735491   0.4263804
4.2094729     0.1373683  -0.0011197   0.6850269  -0.0219446  -0.0000130  -0.0000085  -0.8727399   0.4279787
4.2612209     0.1372670  -0.0010517   0.6850400  -0.0221295   0.0000049  -0.0000003  -0.8717528   0.4295703
4.3136051     0.1372109  -0.0011112   0.6850438  -0.0223044   0.0000094  -0.0000038  -0.8707551   0.4312195
4.3666333     0.1372967  -0.0011814   0.6849761  -0.0224402  -0.0000042  -0.0000094  -0.8698497   0.4329018
4.4203134     0.1373876  -0.0012579   0.6848799  -0.0226387  -0.0000094  -0.0000055  -0.8687537   0.4345216
4.4746534     0.1373703  -0.0012311   0.6849079  -0.0228170  -0.0000100  -0.0000040  -0.8676684   0.4362446
4.5296613     0.1373302  -0.0012344   0.6848429  -0.0229569  -0.0000140  -0.0000062  -0.8666960   0.4379928
4.5853455     0.1373721  -0.0012699   0.6847924  -0.0231627   0.0000126  -0.0000056  -0.8655878   0.4397037
4.6417143     0.1373638  -0.0014184   0.6847451  -0.0233317   0.0000038  -0.0000010  -0.8644354   0.4412928
4.6987760     0.1373435  -0.0013093   0.6847908  -0.0235417  -0.0000146  -0.0000077  -0.8633619   0.4429503
4.7565392     0.1374428  -0.0014425   0.6846937  -0.0236692  -0.0000048  -0.0000118  -0.8622112   0.4446939
4.8150125     0.1373707  -0.0014412   0.6846472  -0.0238344   0.0000012  -0.0000054  -0.8610678   0.4463435
4.8742045     0.1374166  -0.0014836   0.6846224  -0.0240729   0.0000013  -0.0000100  -0.8598778   0.4479819
4.9341243     0.1373451  -0.0014470   0.6845798  -0.0242200  -0.0000079  -0.0000109  -0.8588102   0.4494953
4.9947807     0.1373584  -0.0015697   0.6845634  -0.0244165  -0.0000006  -0.0000013  -0.8578174   0.4510817
5.0561827     0.1374078  -0.0015635   0.6845531  -0.0246274  -0.0000007  -0.0000055  -0.8568059   0.4527803
5.1183396     0.1373341  -0.0015520   0.6845031  -0.0248196   0.0000014  -0.0000067  -0.8558557   0.4544847
5.1812606     0.1373580  -0.0016906   0.6844969  -0.0249931   0.0000041   0.0000007  -0.8549632   0.4562606
5.2449550     0.1374170  -0.0015992   0.6844514  -0.0251780  -0.0000038  -0.0000165  -0.8540537   0.4582926
5.3094325     0.1374487  -0.0016906   0.6843806  -0.0253832  -0.0000002  -0.0000129  -0.8530595   0.4601084
5.3747026     0.1373522  -0.0016998   0.6843440  -0.0255564  -0.0000032  -0.0000010  -0.8520304   0.4623129
5.4407751     0.1373752  -0.0017297   0.6842347  -0.0257885   0.0000050  -0.0000045  -0.8508710   0.4642557
5.5076599     0.1374473  -0.0018242   0.6842409  -0.0260247  -0.0000117  -0.0000096  -0.8497691   0.4663224
5.5753669     0.1374364  -0.0018777   0.6841720  -0.0262253   0.0000046  -0.0000046  -0.8485973   0.4684798
5.6439062     0.1373905  -0.0018348   0.6842304  -0.0264287   0.0000020  -0.0000020  -0.8474325   0.4705647
5.7132881     0.1374742  -0.0019101   0.6840875  -0.0266742  -0.0000053  -0.0000021  -0.8461542   0.4727491
5.7835229     0.1373818  -0.0019558   0.6840642  -0.0268771   0.0000120  -0.0000015  -0.8448744   0.4749231
5.8546211     0.1373976  -0.0020533   0.6840258  -0.0270986   0.0000019  -0.0000059  -0.8436650   0.4771559
5.9265934     0.1374998  -0.0020935   0.6838924  -0.0273211   0.0000031  -0.0000032  -0.8422969   0.4793258
5.9994504     0.1374482  -0.0021248   0.6839118  -0.0275607  -0.0000047  -0.0000054  -0.8409209   0.4814409
6.0732031     0.1374310  -0.0021696   0.6839486  -0.0278073  -0.0000113  -0.0000100  -0.8395623   0.4836481
6.1478624     0.1375691  -0.0021643   0.6838343  -0.0280625   0.0000063  -0.0000045  -0.8381859   0.4858738
6.2234396     0.1374241  -0.0022379   0.6837603  -0.0282814  -0.0000013  -0.0000036  -0.8366054   0.4881844
6.2999458     0.1375214  -0.0022773   0.6836718  -0.0285094  -0.0000015  -0.0000074  -0.8352632   0.4904485
6.3773925     0.1375555  -0.0022795   0.6836067  -0.0287748  -0.0000065  -0.0000109  -0.8337530   0.4927246
6.4557914     0.1374882  -0.0023026   0.6836151  -0.0290197   0.0000019  -0.0000044  -0.8322471   0.4949631
6.5351539     0.1375704  -0.0023908   0.6835100  -0.0292605  -0.0000016   0.0000001  -0.8307492   0.4973691
6.6154922     0.1375621  -0.0025047   0.6835426  -0.0294954   0.0000017  -0.0000067  -0.8291662   0.4997310
6.6968180     0.1375429  -0.0024847   0.6834786  -0.0297858  -0.0000013  -0.0000054  -0.8275994   0.5021189
6.7791436     0.1375616  -0.0024743   0.6834749  -0.0300706  -0.0000036  -0.0000061  -0.8260330   0.5044637
6.8624812     0.1375382  -0.0025700   0.6833594  -0.0302843  -0.0000017  -0.0000108  -0.8244187   0.5069328
6.9468433     0.1375715  -0.0026178   0.6832934  -0.0305498  -0.0000075   0.0000006  -0.8228260   0.5093485
7.0322425     0.1374746  -0.0026226   0.6831651  -0.0307993  -0.0000001  -0.0000017  -0.8211146   0.5118158
7.1186916     0.1376036  -0.0027201   0.6832366  -0.0310719   0.0000055  -0.0000068  -0.8194095   0.5143454
7.2062034     0.1375529  -0.0027726   0.6831468  -0.0314060  -0.0000054  -0.0000028  -0.8176992   0.5169044
7.2947909     0.1375054  -0.0027819   0.6830943  -0.0316096  -0.0000060  -0.0000003  -0.8159561   0.5194736
7.3844675     0.1376193  -0.0029016   0.6831178  -0.0319400  -0.0000109  -0.0000018  -0.8142863   0.5220747
7.4752466     0.1374688  -0.0028982   0.6830727  -0.0322177   0.0000062  -0.0000064  -0.8124937   0.5246904
7.5671416     0.1375081  -0.0030559   0.6829576  -0.0325097  -0.0000101   0.0000033  -0.8107805   0.5273408
7.6601662     0.1376173  -0.0029668   0.6828699  -0.0328008  -0.0000032  -0.0000058  -0.8089321   0.5300260
7.7543345     0.1375592  -0.0029890   0.6828499  -0.0331431  -0.0000011  -0.0000027  -0.8070409   0.5328550
7.8496604     0.1375597  -0.0030986   0.6827492  -0.0333968  -0.0000081  -0.0000079  -0.8052010   0.5356596
7.9461581     0.1376505  -0.0032262   0.6827233  -0.0337084  -0.0000041  -0.0000001  -0.8031845   0.5385086
8.0438422     0.1376475  -0.0032205   0.6826070  -0.0340220  -0.0000019   0.0000034  -0.8012046   0.5413537
8.1427270     0.1376425  -0.0033724   0.6825888  -0.0343088   0.0000042   0.0000010  -0.7990345   0.5443276
8.2428275     0.1376350  -0.0033111   0.6825472  -0.0346447   0.0000016   0.0000028  -0.7968067   0.5471867
8.3441586     0.1376887  -0.0033527   0.6825389  -0.0349624  -0.0000017   0.0000017  -0.7946318   0.5499687
8.4467353     0.1376491  -0.0034459   0.6825401  -0.0353228   0.0000085  -0.0000037  -0.7923743   0.5529673
8.5505731     0.1376161  -0.0035060   0.6825594  -0.0356389   0.0000036  -0.0000037  -0.7900742   0.5557386
8.6556873     0.1376063  -0.0035891   0.6825410  -0.0359738   0.0000022  -0.0000069  -0.7877981   0.5586649
8.7620937     0.1376371  -0.0036611   0.6825705  -0.0363217  -0.0000146  -0.0000022  -0.7855033   0.5615264
8.8698082     0.1376239  -0.0036278   0.6824622  -0.0366713   0.0000006  -0.0000076  -0.7831491   0.5644380
8.9788469     0.1375488  -0.0037902   0.6823943  -0.0369744   0.0000057  -0.0000060  -0.7808526   0.5673655
9.0892260     0.1375637  -0.0038322   0.6824099  -0.0373925  -0.0000017  -0.0000065  -0.7784899   0.5703176
9.2009621     0.1375959  -0.0038495   0.6823790  -0.0377268  -0.0000012  -0.0000011  -0.7759998   0.5733714
9.3140717     0.1376372  -0.0039280   0.6823373  -0.0380903   0.0000038   0.0000058  -0.7735743   0.5763568
9.4285718     0.1376900  -0.0039935   0.6822522  -0.0384343  -0.0000053  -0.0000121  -0.7711036   0.5794398
9.5444795     0.1376479  -0.0040811   0.6821961  -0.0387900  -0.0000082   0.0000062  -0.7685506   0.5825374
9.6618121     0.1376882  -0.0041037   0.6821191  -0.0391613   0.0000018  -0.0000043  -0.7660223   0.5856292
9.7805870     0.1376499  -0.0041469   0.6820857  -0.0395006   0.0000009   0.0000032  -0.7634060   0.5888029
9.9008221     0.1375262  -0.0042331   0.6820701  -0.0398802   0.0000039  -0.0000012  -0.7607542   0.5920226
10.0225353    0.1377141  -0.0043574   0.6820089  -0.0402849  -0.0000049  -0.0000083  -0.7581033   0.5951324
10.1457447    0.1376201  -0.0043960   0.6818899  -0.0406920  -0.0000039  -0.0000058  -0.7553612   0.5984296
10.2704688    0.1376672  -0.0044676   0.6818707  -0.0410911  -0.0000041  -0.0000085  -0.7526769   0.6017045
10.3967261    0.1376682  -0.0045343   0.6818803  -0.0414714  -0.0000061  -0.0000066  -0.7498397   0.6050384
10.5245356    0.1376478  -0.0045955   0.6818564  -0.0418645  -0.0000079  -0.0000076  -0.7469667   0.6082174
10.6539162    0.1375925  -0.0046318   0.6817435  -0.0422973   0.0000029   0.0000029  -0.7440703   0.6115378
10.7848873    0.1376341  -0.0048425   0.6816755  -0.0426807   0.0000005  -0.0000063  -0.7411368   0.6149778
10.9174685    0.1376438  -0.0048140   0.6816154  -0.0430910  -0.0000070  -0.0000035  -0.7381281   0.6183689
11.0516796    0.1376013  -0.0049981   0.6816457  -0.0435579  -0.0000045   0.0000037  -0.7349763   0.6217995
11.1875405    0.1375597  -0.0050414   0.6815665  -0.0439581   0.0000009  -0.0000076  -0.7319551   0.6253218
11.3250716    0.1375789  -0.0050234   0.6815050  -0.0444026  -0.0000013  -0.0000002  -0.7288001   0.6287838
11.4642934    0.1376593  -0.0051227   0.6814685  -0.0448476  -0.0000070  -0.0000020  -0.7255736   0.6322627
11.6052267    0.1376841  -0.0052434   0.6813506  -0.0453237  -0.0000104  -0.0000051  -0.7223402   0.6358978
11.7478926    0.1376287  -0.0053325   0.6813027  -0.0457670  -0.0000036   0.0000009  -0.7190147   0.6394037
11.8923122    0.1376303  -0.0053758   0.6812372  -0.0462210   0.0000007   0.0000002  -0.7156511   0.6429700
12.0385073    0.1376016  -0.0054779   0.6811788  -0.0466817  -0.0000075  -0.0000003  -0.7121713   0.6466395
12.1864995    0.1376526  -0.0055654   0.6811441  -0.0471901  -0.0000044  -0.0000095  -0.7086981   0.6502674
12.3363111    0.1376088  -0.0056163   0.6811165  -0.0476525  -0.0000098  -0.0000015  -0.7052440   0.6539590
12.4879643    0.1376740  -0.0057391   0.6810383  -0.0481669  -0.0000047  -0.0000026  -0.7015574   0.6576797
12.6414818    0.1376379  -0.0057686   0.6810117  -0.0486677   0.0000050  -0.0000068  -0.6978449   0.6613944
12.7968866    0.1375925  -0.0058169   0.6808849  -0.0491383   0.0000019  -0.0000131  -0.6941116   0.6651428
12.9542018    0.1376516  -0.0059030   0.6808778  -0.0496434   0.0000027   0.0000004  -0.6903715   0.6689079
13.1134509    0.1376733  -0.0060383   0.6808730  -0.0501870  -0.0000100  -0.0000035  -0.6864955   0.6727020
13.2746577    0.1376560  -0.0062009   0.6807427  -0.0506690  -0.0000033  -0.0000037  -0.6825288   0.6765492
13.4378462    0.1377197  -0.0061777   0.6806977  -0.0511924   0.0000116  -0.0000093  -0.6785797   0.6805044
13.6030409    0.1375657  -0.0063507   0.6806720  -0.0517165   0.0000024  -0.0000091  -0.6744924   0.6843455
13.7702663    0.1377406  -0.0064267   0.6805758  -0.0522666  -0.0000078   0.0000053  -0.6703140   0.6882447
13.9395475    0.1376231  -0.0064788   0.6805396  -0.0528284  -0.0000009  -0.0000010  -0.6661352   0.6921232
14.1109097    0.1376924  -0.0065797   0.6804025  -0.0533593  -0.0000038  -0.0000051  -0.6618006   0.6961022
14.2843785    0.1376626  -0.0066962   0.6803112  -0.0539157   0.0000052   0.0000030  -0.6574447   0.7000021
14.4599797    0.1376511  -0.0067748   0.6802239  -0.0545011   0.0000036  -0.0000067  -0.6530176   0.7040575
14.6377397    0.1376512  -0.0067828   0.6801870  -0.0550718  -0.0000093  -0.0000076  -0.6485291   0.7080584
14.8176850    0.1376269  -0.0070214   0.6801693  -0.0556749  -0.0000131   0.0000027  -0.6439510   0.7120446
14.9998423    0.1376368  -0.0070554   0.6800784  -0.0562507  -0.0000022  -0.0000131  -0.6392536   0.7161155
15.1842390    0.1376466  -0.0071725   0.6799837  -0.0568434  -0.0000130   0.0000049  -0.6344815   0.7202062
15.3709024    0.1376766  -0.0072358   0.6799735  -0.0574663  -0.0000048   0.0000017  -0.6297241   0.7242485
15.5598606    0.1376263  -0.0073186   0.6798809  -0.0580740  -0.0000054  -0.0000108  -0.6248621   0.7283607
15.7511417    0.1376743  -0.0074767   0.6797736  -0.0586803   0.0000019  -0.0000063  -0.6198680   0.7325479
15.9447743    0.1375633  -0.0074872   0.6796815  -0.0593203   0.0000020  -0.0000005  -0.6148227   0.7366409
16.1407872    0.1375828  -0.0076540   0.6796688  -0.0599532  -0.0000153  -0.0000110  -0.6095775   0.7408179
16.3392097    0.1376386  -0.0077962   0.6795166  -0.0605836  -0.0000056   0.0000011  -0.6043237   0.7450111
16.5400716    0.1376479  -0.0079451   0.6794916  -0.0612451  -0.0000077   0.0000002  -0.5990279   0.7492048
16.7434026    0.1375721  -0.0079936   0.6794534  -0.0618991  -0.0000112  -0.0000024  -0.5935454   0.7533613
16.9492333    0.1375266  -0.0081447   0.6793924  -0.0625798   0.0000049   0.0000022  -0.5880423   0.7577115
17.1575942    0.1375470  -0.0082361   0.6793170  -0.0632206  -0.0000039   0.0000064  -0.5824226   0.7618352
17.3685166    0.1375327  -0.0083198   0.6792184  -0.0638949  -0.0000002   0.0000013  -0.5767305   0.7661086
17.5820320    0.1374699  -0.0085027   0.6790741  -0.0646138  -0.0000036  -0.0000010  -0.5708657   0.7702965
17.7981721    0.1376191  -0.0084913   0.6790771  -0.0652977  -0.0000008  -0.0000063  -0.5649477   0.7746078
18.0169693    0.1374805  -0.0086714   0.6789583  -0.0660383  -0.0000148   0.0000015  -0.5589829   0.7788677
18.2384562    0.1375842  -0.0087760   0.6788886  -0.0667389  -0.0000088  -0.0000066  -0.5528978   0.7832294
18.4626659    0.1374978  -0.0089456   0.6787726  -0.0674605   0.0000017  -0.0000043  -0.5466180   0.7874117
18.6896319    0.1374901  -0.0090345   0.6787734  -0.0682041  -0.0000066   0.0000047  -0.5403799   0.7916946
18.9193880    0.1375381  -0.0090969   0.6786251  -0.0689253  -0.0000040  -0.0000020  -0.5338648   0.7960754
19.1519686    0.1374603  -0.0093101   0.6785844  -0.0697078   0.0000009  -0.0000067  -0.5272533   0.8003731
19.3874083    0.1374561  -0.0095007   0.6785064  -0.0704855  -0.0000090  -0.0000072  -0.5205907   0.8046701
19.6257423    0.1374307  -0.0095863   0.6784218  -0.0712414  -0.0000034  -0.0000054  -0.5139282   0.8090026
19.8670063    0.1374701  -0.0096833   0.6783522  -0.0720607  -0.0000003  -0.0000053  -0.5070653   0.8132444
20.1112361    0.1375414  -0.0098268   0.6781887  -0.0728368   0.0000014   0.0000039  -0.5000667   0.8175503
20.3584684    0.1374479  -0.0099354   0.6780818  -0.0736624  -0.0000109  -0.0000031  -0.4928451   0.8218131
20.6087399    0.1373851  -0.0100927   0.6780267  -0.0744840   0.0000064  -0.0000074  -0.4856078   0.8260492
20.8620881    0.1374875  -0.0101897   0.6779134  -0.0752724  -0.0000070   0.0000015  -0.4781752   0.8303917
21.1185507    0.1374271  -0.0103155   0.6778102  -0.0761133  -0.0000055   0.0000029  -0.4706816   0.8346281
21.3781661    0.1374022  -0.0104682   0.6776093  -0.0769396  -0.0000035  -0.0000010  -0.4630449   0.8387695
21.6409730    0.1373891  -0.0105923   0.6775008  -0.0778027  -0.0000039  -0.0000078  -0.4552968   0.8429882
21.9070107    0.1374708  -0.0107184   0.6773915  -0.0786931  -0.0000070   0.0000040  -0.4474480   0.8472129
22.1763188    0.1373905  -0.0109227   0.6773081  -0.0795413  -0.0000040   0.0000040  -0.4393970   0.8514093
22.4489376    0.1373691  -0.0109855   0.6771540  -0.0804508  -0.0000043  -0.0000038  -0.4312338   0.8556008
22.7249077    0.1372566  -0.0112997   0.6770865  -0.0813771  -0.0000006  -0.0000028  -0.4229033   0.8597198
23.0042705    0.1373586  -0.0113333   0.6768829  -0.0822669  -0.0000025   0.0000032  -0.4144679   0.8638397
23.2870675    0.1373774  -0.0114981   0.6767959  -0.0832081  -0.0000063   0.0000051  -0.4059703   0.8679089
23.5733409    0.1372661  -0.0115395   0.6765990  -0.0841385  -0.0000101  -0.0000119  -0.3971808   0.8719871
23.8631337    0.1373331  -0.0117851   0.6765253  -0.0850820  -0.0000095   0.0000009  -0.3882574   0.8759217
24.1564889    0.1373197  -0.0120404   0.6764697  -0.0860696  -0.0000145   0.0000020  -0.3793041   0.8799030
24.4534504    0.1372571  -0.0121093   0.6762959  -0.0870139  -0.0000039  -0.0000033  -0.3701540   0.8837846
24.7540625    0.1372661  -0.0123073   0.6761245  -0.0879909  -0.0000011  -0.0000056  -0.3608652   0.8877116
25.0583701    0.1372315  -0.0125037   0.6760205  -0.0889879   0.0000015  -0.0000007  -0.3513553   0.8915770
25.3664186    0.1372119  -0.0125745   0.6758368  -0.0899872  -0.0000058  -0.0000061  -0.3416299   0.8953736
25.6782541    0.1371877  -0.0126721   0.6756736  -0.0910035   0.0000039  -0.0000031  -0.3318719   0.8991532
25.9939230    0.1371114  -0.0129404   0.6755399  -0.0920584  -0.0000041  -0.0000050  -0.3219447   0.9027781
26.3134725    0.1370683  -0.0131172   0.6754455  -0.0931098   0.0000036  -0.0000035  -0.3118192   0.9063520
26.6369503    0.1371055  -0.0131798   0.6752709  -0.0941521  -0.0000030  -0.0000139  -0.3015927   0.9099376
26.9644047    0.1370425  -0.0134427   0.6751644  -0.0952384   0.0000019   0.0000037  -0.2911556   0.9134289
27.2958846    0.1369803  -0.0136008   0.6750078  -0.0963177  -0.0000076   0.0000021  -0.2805167   0.9167797
27.6314394    0.1371033  -0.0137268   0.6747379  -0.0974371  -0.0000017  -0.0000051  -0.2698048   0.9201340
27.9711193    0.1370451  -0.0139431   0.6746582  -0.0985460   0.0000071  -0.0000031  -0.2588429   0.9232956
28.3149750    0.1369707  -0.0141753   0.6744846  -0.0996481   0.0000039  -0.0000051  -0.2477763   0.9264440
28.6630578    0.1369472  -0.0142906   0.6743337  -0.1008034  -0.0000087  -0.0000003  -0.2365017   0.9294491
29.0154196    0.1369675  -0.0144775   0.6741336  -0.1019614  -0.0000064  -0.0000030  -0.2250419   0.9323611
29.3721131    0.1370428  -0.0146383   0.6739625  -0.1031349   0.0000014  -0.0000039  -0.2134533   0.9351741
29.7331915    0.1368750  -0.0147859   0.6737805  -0.1043077  -0.0000054  -0.0000036  -0.2016027   0.9379710
30.0987087    0.1370279  -0.0150550   0.6735439  -0.1055109  -0.0000033   0.0000123  -0.1897006   0.9405994
30.4687194    0.1368360  -0.0151928   0.6732883  -0.1066962  -0.0000021  -0.0000058  -0.1775500   0.9431766
30.8432786    0.1367848  -0.0154561   0.6731439  -0.1079624  -0.0000102   0.0000030  -0.1652043   0.9454509
31.2224424    0.1368297  -0.0156450   0.6729176  -0.1091963   0.0000061   0.0000027  -0.1527992   0.9476807
31.6062674    0.1367333  -0.0158620   0.6727234  -0.1104355  -0.0000091  -0.0000072  -0.1400337   0.9498177
31.9948108    0.1367280  -0.0160086   0.6725303  -0.1117292   0.0000000   0.0000043  -0.1271896   0.9518871
32.3881306    0.1366803  -0.0163082   0.6723063  -0.1130185  -0.0000007  -0.0000042  -0.1141830   0.9537462
32.7862857    0.1366759  -0.0164157   0.6720372  -0.1142935  -0.0000070  -0.0000062  -0.1009629   0.9553778
33.1893353    0.1367060  -0.0166277   0.6718559  -0.1156263  -0.0000018  -0.0000006  -0.0875903   0.9570247
33.5973398    0.1366042  -0.0168428   0.6716180  -0.1169531   0.0000037  -0.0000116  -0.0740442   0.9583378
34.0103599    0.1365385  -0.0170212   0.6712901  -0.1183287  -0.0000011   0.0000036  -0.0602129   0.9594876
34.4284574    0.1364984  -0.0172071   0.6712074  -0.1197144  -0.0000075  -0.0000028  -0.0465159   0.9606917
34.8516946    0.1364725  -0.0174406   0.6709420  -0.1210684  -0.0000053   0.0000028  -0.0322434   0.9616950
35.2801349    0.1364993  -0.0177858   0.6706406  -0.1225000  -0.0000032  -0.0000036  -0.0177784   0.9624635
35.7138420    0.1364088  -0.0178784   0.6704159  -0.1239357  -0.0000069  -0.0000060  -0.0032039   0.9628964
36.1528808    0.1363951  -0.0180630   0.6702007  -0.1253714  -0.0000086  -0.0000063   0.0115347   0.9632563
36.5973168    0.1363909  -0.0183425   0.6698634  -0.1268089   0.0000000  -0.0000055   0.0264333   0.9633738
37.0472164    0.1362823  -0.0185601   0.6696091  -0.1282885  -0.0000010  -0.0000025   0.0415912   0.9631242
37.5026467    0.1362810  -0.0188924   0.6693175  -0.1297956   0.0000005  -0.0000051   0.0569194   0.9628974
37.9636757    0.1362401  -0.0190558   0.6688533  -0.1312881  -0.0000025  -0.0000048   0.0726387   0.9619464
38.4303722    0.1362150  -0.0192779   0.6685785  -0.1327838   0.0000012  -0.0000023   0.0881824   0.9611452
38.9028060    0.1361196  -0.0195047   0.6683132  -0.1343653   0.0000032   0.0000041   0.1040381   0.9599848
39.3810475    0.1361838  -0.0197529   0.6680001  -0.1359051  -0.0000019   0.0000034   0.1201362   0.9586652
39.8651681    0.1360436  -0.0200462   0.6676627  -0.1374898  -0.0000008   0.0000047   0.1362896   0.9569852
40.3552402    0.1360206  -0.0202589   0.6673726  -0.1391231   0.0000052   0.0000025   0.1527017   0.9550329
40.8513368    0.1359423  -0.0205235   0.6670348  -0.1407042  -0.0000009  -0.0000083   0.1693457   0.9526915
41.3535320    0.1359453  -0.0207497   0.6666571  -0.1423641  -0.0000069  -0.0000035   0.1860114   0.9501695
41.8619009    0.1358470  -0.0209996   0.6662927  -0.1440314  -0.0000012   0.0000013   0.2030277   0.9472720
42.3765193    0.1358747  -0.0212159   0.6659137  -0.1456915   0.0000010  -0.0000008   0.2201222   0.9440599
42.8974639    0.1357298  -0.0215466   0.6655653  -0.1474175  -0.0000026   0.0000052   0.2373514   0.9404513
43.4248127    0.1356882  -0.0217960   0.6651348  -0.1490999   0.0000010  -0.0000060   0.2547651   0.9366341
43.9586443    0.1356798  -0.0220466   0.6647547  -0.1508667   0.0000045  -0.0000092   0.2723270   0.9323410
44.4990385    0.1356101  -0.0223055   0.6643839  -0.1526473  -0.0000060   0.0000010   0.2900678   0.9276746
45.0460758    0.1355420  -0.0225966   0.6639546  -0.1544154   0.0000030   0.0000042   0.3079234   0.9226692
45.5998380    0.1354670  -0.0228150   0.6635209  -0.1562379  -0.0000014  -0.0000026   0.3258964   0.9172927
46.1604077    0.1355613  -0.0231637   0.6630834  -0.1580266  -0.0000057  -0.0000096   0.3439905   0.9114112
46.7278686    0.1353928  -0.0234469   0.6626575  -0.1598727  -0.0000078  -0.0000061   0.3622095   0.9051561
47.3023055    0.1353771  -0.0237126   0.6621880  -0.1617692  -0.0000035   0.0000063   0.3805383   0.8984954
47.8838040    0.1352069  -0.0240077   0.6617785  -0.1636426   0.0000035  -0.0000116   0.3990787   0.8913030
48.4724511    0.1352811  -0.0242893   0.6612848  -0.1655609  -0.0000043   0.0000037   0.4175483   0.8837820
49.0683345    0.1351919  -0.0245688   0.6608801  -0.1675086  -0.0000065   0.0000016   0.4362200   0.8757527
49.6715433    0.1350263  -0.0248419   0.6603625  -0.1694738  -0.0000056  -0.0000091   0.4548566   0.8672616
50.2821675    0.1350239  -0.0252351   0.6598515  -0.1714563  -0.0000049  -0.0000026   0.4737366   0.8581977
50.9002982    0.1348800  -0.0254581   0.6593400  -0.1734731  -0.0000001  -0.0000023   0.4925113   0.8486204
51.5260277    0.1348735  -0.0257852   0.6588305  -0.1755195   0.0000016  -0.0000145   0.5114078   0.8386844
52.1594495    0.1347226  -0.0261211   0.6583025  -0.1775567   0.0000007  -0.0000111   0.5302185   0.8281260
52.8006581    0.1347423  -0.0265066   0.6577468  -0.1796684   0.0000019  -0.0000070   0.5491565   0.8169084
53.4497492    0.1346590  -0.0267173   0.6572183  -0.1816947   0.0000038  -0.0000035   0.5682259   0.8053365
54.1068198    0.1344824  -0.0270891   0.6566377  -0.1838702   0.0000014  -0.0000070   0.5870810   0.7931806
54.7719678    0.1344446  -0.0273933   0.6559867  -0.1860031  -0.0000080  -0.0000108   0.6059003   0.7804755
55.4452927    0.1343780  -0.0276964   0.6553945  -0.1882179  -0.0000031   0.0000036   0.6248029   0.7668483
56.1268950    0.1342444  -0.0280418   0.6547890  -0.1904076  -0.0000012  -0.0000006   0.6436129   0.7528409
56.8168763    0.1342189  -0.0283674   0.6541257  -0.1926227  -0.0000113  -0.0000002   0.6623330   0.7382715
57.5153398    0.1342389  -0.0286873   0.6534468  -0.1948670  -0.0000006  -0.0000099   0.6809259   0.7230836
58.2223896    0.1340443  -0.0290637   0.6528316  -0.1971762   0.0000062  -0.0000063   0.6993919   0.7071741
58.9381314    0.1338842  -0.0294008   0.6521613  -0.1994796   0.0000077  -0.0000018   0.7177304   0.6906869
59.6626719    0.1337899  -0.0297932   0.6514518  -0.2018159   0.0000018  -0.0000044   0.7358872   0.6734457
60.3961194    0.1337020  -0.0300904   0.6508181  -0.2042078  -0.0000076  -0.0000076   0.7539451   0.6555725
61.1385834    0.1336731  -0.0304269   0.6500762  -0.2066157   0.0000077  -0.0000151   0.7717916   0.6369847
61.8901746    0.1335541  -0.0308448   0.6492722  -0.2089904  -0.0000007  -0.0000055   0.7892939   0.6177425
62.6510053    0.1334500  -0.0312001   0.6485387  -0.2114330  -0.0000042  -0.0000129   0.8065969   0.5978861
63.4211891    0.1333151  -0.0315935   0.6477620  -0.2139074  -0.0000005   0.0000010   0.8236544   0.5771804
64.2008409    0.1332678  -0.0319451   0.6469103  -0.2164226  -0.0000013  -0.0000071   0.8403290   0.5559154
64.9900772    0.1331085  -0.0323057   0.6460565  -0.2189372   0.0000060  -0.0000039   0.8567017   0.5338548
65.7890158    0.1329402  -0.0326737   0.6452650  -0.2214717   0.0000066  -0.0000067   0.8726612   0.5111127
66.5977759    0.1329190  -0.0331113   0.6443854  -0.2240608  -0.0000110   0.0000004   0.8881822   0.4875516
67.4164783    0.1328459  -0.0335030   0.6434613  -0.2266925   0.0000024  -0.0000098   0.9034119   0.4632958
68.2452452    0.1327495  -0.0338874   0.6425664  -0.2293306  -0.0000016  -0.0000030   0.9180764   0.4384124
69.0842003    0.1325849  -0.0342757   0.6416841  -0.2319789  -0.0000021  -0.0000152   0.9322427   0.4127304
69.9334689    0.1323913  -0.0346857   0.6407715  -0.2346948  -0.0000106  -0.0000085   0.9455765   0.3863505
70.7931778    0.1321955  -0.0351824   0.6394371  -0.2374042   0.0000082  -0.0000021   0.9591080   0.3591561
71.6634552    0.1321388  -0.0356168   0.6386141  -0.2401340  -0.0000035  -0.0000070   0.9716677   0.3310241
72.5444312    0.1320739  -0.0359161   0.6375756  -0.2429034   0.0000123   0.0000005   0.9836817   0.3023485
73.4362373    0.1318741  -0.0364078   0.6366430  -0.2457430  -0.0000012  -0.0000107   0.9948434   0.2729349
74.3390065    0.1317455  -0.0367011   0.6357601  -0.2486931   0.0000080  -0.0000129   1.0046945   0.2431284
75.2528737    0.1316137  -0.0371968   0.6344987  -0.2515386  -0.0000040  -0.0000102   1.0143737   0.2123149
76.1779753    0.1314921  -0.0376093   0.6333321  -0.2544207  -0.0000051  -0.0000124   1.0232854   0.1808396
77.1144493    0.1312319  -0.0380685   0.6322180  -0.2573794  -0.0000026  -0.0000045   1.0313023   0.1486103
78.0624357    0.1311764  -0.0385596   0.6309783  -0.2603451  -0.0000029  -0.0000080   1.0384154   0.1157628
79.0220759    0.1310064  -0.0389670   0.6297734  -0.2633469   0.0000002  -0.0000036   1.0445212   0.0821697
79.9935132    0.1308047  -0.0395125   0.6285031  -0.2663737   0.0000041  -0.0000131   1.0496229   0.0480313
80.9768926    0.1306219  -0.0398819   0.6271996  -0.2694514  -0.0000064  -0.0000116   1.0537186   0.0132410
81.9723609    0.1304683  -0.0403566   0.6258577  -0.2725625   0.0000053  -0.0000071   1.0567157  -0.0222640
82.9800667    0.1302870  -0.0408795   0.6245979  -0.2757545  -0.0000016  -0.0000180   1.0586042  -0.0582525
84.0001605    0.1300928  -0.0413421   0.6231591  -0.2788703   0.0000053  -0.0000160   1.0593000  -0.0947391
85.0327946    0.1299171  -0.0418550   0.6216874  -0.2820363   0.0000022  -0.0000081   1.0586965  -0.1319093
86.0781231    0.1297670  -0.0422939   0.6202627  -0.2852612   0.0000029  -0.0000101   1.0568105  -0.1694968
87.1363020    0.1295216  -0.0427707   0.6188530  -0.2885305   0.0000048  -0.0000041   1.0536046  -0.2074041
88.2074894    0.1293765  -0.0432952   0.6172434  -0.2918557  -0.0000051  -0.0000155   1.0489040  -0.2458368
89.2918452    0.1291006  -0.0437236   0.6157527  -0.2951811  -0.0000005  -0.0000021   1.0430306  -0.2849234
90.3895312    0.1289958  -0.0443687   0.6141153  -0.2986113  -0.0000024  -0.0000180   1.0355088  -0.3237174
91.5007114    0.1288086  -0.0448933   0.6123818  -0.3019068  -0.0000084  -0.0000163   1.0264270  -0.3630294
92.6255515    0.1285142  -0.0453633   0.6107026  -0.3053583  -0.0000034  -0.0000041   1.0155656  -0.4024850
93.7642195    0.1283534  -0.0458813   0.6089795  -0.3087940  -0.0000052  -0.0000188   1.0031624  -0.4420937
94.9168855    0.1281202  -0.0464274   0.6071877  -0.3123055  -0.0000125  -0.0000104   0.9892346  -0.4818269
96.0837215    0.1279139  -0.0470036   0.6053279  -0.3157883  -0.0000039  -0.0000178   0.9734644  -0.5215695
97.2649017    0.1276594  -0.0474665   0.6034721  -0.3193843  -0.0000004  -0.0000104   0.9559370  -0.5609835
98.4606024    0.1274195  -0.0480782   0.6015556  -0.3229193  -0.0000038  -0.0000064   0.9365502  -0.6005025
99.6710021    0.1271720  -0.0485225   0.5995507  -0.3265763  -0.0000145  -0.0000062   0.9153443  -0.6396754
100.8962816   0.1269318  -0.0491480   0.5975226  -0.3301484  -0.0000102  -0.0000124   0.8922365  -0.6784421
102.1366237   0.1267054  -0.0497448   0.5954612  -0.3338380   0.0000052  -0.0000179   0.8671283  -0.7166929
103.3922136   0.1264790  -0.0502739   0.5933159  -0.3375449  -0.0000096  -0.0000112   0.8401955  -0.7544722
104.6632389   0.1261514  -0.0507751   0.5912047  -0.3412773  -0.0000105  -0.0000055   0.8113415  -0.7912682
105.9498891   0.1258364  -0.0513638   0.5893309  -0.3447423  -0.0000069  -0.0000089   0.7803574  -0.8250929
107.2523564   0.1256489  -0.0520565   0.5863959  -0.3489628  -0.0000016  -0.0000085   0.7458400  -0.8653272
108.5708353   0.1253360  -0.0526266   0.5841039  -0.3530416  -0.0000106  -0.0000041   0.7121824  -0.8993932
109.9055225   0.1250498  -0.0532874   0.5816573  -0.3564853   0.0000076  -0.0000064   0.6774515  -0.9319120
111.2566174   0.1245590  -0.0538996   0.5795372  -0.3604256  -0.0000017  -0.0000120   0.6366632  -0.9623526
112.6243216   0.1243574  -0.0544246   0.5769591  -0.3644138   0.0000017  -0.0000150   0.5956314  -0.9930429
114.0088393   0.1240462  -0.0549909   0.5744433  -0.3684309  -0.0000127  -0.0000032   0.5528684  -1.0220177
115.4103773   0.1237889  -0.0557126   0.5717822  -0.3723937  -0.0000076  -0.0000214   0.5080600  -1.0493846
116.8291446   0.1233814  -0.0563313   0.5690848  -0.3763889   0.0000125  -0.0000049   0.4616156  -1.0748125
118.2653533   0.1231059  -0.0568514   0.5664162  -0.3805527  -0.0000004  -0.0000118   0.4131618  -1.0983546
119.7192175   0.1227798  -0.0574614   0.5636357  -0.3846127  -0.0000147  -0.0000006   0.3630310  -1.1198741
121.1909545   0.1222524  -0.0581482   0.5606866  -0.3888179  -0.0000096  -0.0000137   0.3112472  -1.1389094
122.6807839   0.1219883  -0.0589118   0.5577090  -0.3928936  -0.0000186  -0.0000183   0.2578829  -1.1556283
124.1889281   0.1216762  -0.0595267   0.5546081  -0.3970284   0.0000025  -0.0000021   0.2030196  -1.1697805
125.7156123   0.1213307  -0.0601021   0.5514568  -0.4010482  -0.0000108  -0.0000053   0.1468018  -1.1813263
127.2610644   0.1209180  -0.0608766   0.5483579  -0.4055312  -0.0000061  -0.0000096   0.0899457  -1.1898236
128.8255151   0.1204394  -0.0615206   0.5450168  -0.4096677  -0.0000125  -0.0000101   0.0310541  -1.1954536
130.4091980   0.1199097  -0.0622731   0.5418280  -0.4139205  -0.0000132  -0.0000125  -0.0282397  -1.1979713
132.0123495   0.1196026  -0.0628364   0.5383760  -0.4182046  -0.0000062  -0.0000027  -0.0885005  -1.1971293
133.6352088   0.1192445  -0.0635068   0.5349143  -0.4225597  -0.0000239  -0.0000059  -0.1491135  -1.1931309
135.2780184   0.1187986  -0.0642002   0.5313711  -0.4269155  -0.0000031  -0.0000057  -0.2103454  -1.1854267
136.9410235   0.1183877  -0.0649642   0.5278549  -0.4313774  -0.0000093  -0.0000137  -0.2717939  -1.1740384
138.6244722   0.1178768  -0.0656543   0.5240437  -0.4357514  -0.0000096  -0.0000023  -0.3330388  -1.1591738
140.3286160   0.1174111  -0.0663371   0.5202297  -0.4401790  -0.0000127  -0.0000127  -0.3943408  -1.1406394
142.0537093   0.1168652  -0.0671256   0.5167037  -0.4447398  -0.0000183  -0.0000196  -0.4577303  -1.1193078
143.8000095   0.1163890  -0.0677554   0.5125042  -0.4492299  -0.0000058   0.0000000  -0.5114804  -1.0920313
145.5677774   0.1159304  -0.0685270   0.5080909  -0.4536619   0.0000058  -0.0000122  -0.5686752  -1.0596310
147.3572769   0.1156608  -0.0692205   0.5041533  -0.4579691  -0.0000021  -0.0000169  -0.6296031  -1.0274029
149.1687752   0.1149939  -0.0699851   0.4998667  -0.4625397   0.0000015  -0.0000091  -0.6842854  -0.9897038
151.0025426   0.1144364  -0.0706894   0.4955419  -0.4670547  -0.0000053  -0.0000193  -0.7376444  -0.9478988
152.8588530   0.1138680  -0.0713741   0.4910948  -0.4715922  -0.0000013  -0.0000092  -0.7884430  -0.9023780
154.7379834   0.1132596  -0.0722276   0.4865688  -0.4761113  -0.0000086  -0.0000110  -0.8368112  -0.8532143
156.6402144   0.1127101  -0.0728534   0.4819298  -0.4806582  -0.0000084  -0.0000061  -0.8822036  -0.8005717
158.5658301   0.1123559  -0.0736321   0.4771576  -0.4852081  -0.0000037   0.0000147  -0.9241073  -0.7445390
160.5151177   0.1114680  -0.0745086   0.4724397  -0.4895672   0.0000014  -0.0000065  -0.9630209  -0.6849737
162.4883685   0.1108517  -0.0752032   0.4670473  -0.4946061   0.0000013  -0.0000028  -0.9967976  -0.6237559
164.4858769   0.1102646  -0.0759235   0.4623133  -0.4988827   0.0000046  -0.0000033  -1.0278789  -0.5582318
166.5079411   0.1097307  -0.0767124   0.4571313  -0.5033970  -0.0000070  -0.0000102  -1.0539276  -0.4910024
168.5548630   0.1090462  -0.0775893   0.4518162  -0.5080083  -0.0000107   0.0000016  -1.0755896  -0.4214285
170.6269483   0.1084867  -0.0782591   0.4463038  -0.5124934  -0.0000006  -0.0000172  -1.0920161  -0.3500769
172.7245062   0.1079249  -0.0791760   0.4409148  -0.5170206   0.0000046  -0.0000030  -1.1035268  -0.2774294
174.8478498   0.1071327  -0.0800626   0.4352223  -0.5214128   0.0000061  -0.0000036  -1.1094082  -0.2032648
176.9972963   0.1063822  -0.0808788   0.4293656  -0.5258609   0.0000235  -0.0000062  -1.1102204  -0.1277967
179.1731664   0.1051250  -0.0822504   0.4211766  -0.5340261  -0.0000187  -0.0000088  -1.1019377  -0.0580540
181.3757850   0.1046607  -0.0824399   0.4166165  -0.5335913  -0.0000020  -0.0000058  -1.0923748   0.0172629
183.6054809   0.1042553  -0.0834380   0.4118097  -0.5392104  -0.0000115  -0.0000014  -1.0773858   0.0954521
185.8625870   0.1033500  -0.0839074   0.4056128  -0.5437603  -0.0000271  -0.0000083  -1.0548059   0.1676861
188.1474402   0.1024570  -0.0848343   0.3994696  -0.5481404  -0.0000045  -0.0000041  -1.0266452   0.2388777
190.4603817   0.1019713  -0.0855816   0.3930153  -0.5525299  -0.0000241  -0.0000166  -0.9928692   0.3077410
192.8017567   0.1009502  -0.0865893   0.3865284  -0.5569575   0.0000113  -0.0000080  -0.9528826   0.3737659
195.1719148   0.0999783  -0.0876730   0.3798348  -0.5612900  -0.0000411   0.0000164  -0.9079903   0.4365081
197.5712099   0.0992179  -0.0882514   0.3726983  -0.5649956   0.0000064  -0.0000064  -0.8584258   0.4960860
200.0000000   0.0983297  -0.0891393   0.3668398  -0.5702305  -0.0000129  -0.0000066  -0.8026131   0.5505821
