! ListType=Log
# MHZ S RI R 50
0.0010000    -0.0004550   0.0000548   0.0589006   0.0707883  -0.0000115  -0.0000299  -0.9088780   0.2599563
0.0010123    -0.0008045   0.0001188   0.0595881   0.0709555   0.0000121  -0.0000287  -0.9094622   0.2603417
0.0010247    -0.0004235  -0.0000515   0.0607150   0.0707051  -0.0000157   0.0000266  -0.9095897   0.2591301
0.0010373    -0.0004422  -0.0000872   0.0616819   0.0708329  -0.0000085  -0.0000056  -0.9097936   0.2598523
0.0010501    -0.0004424   0.0001385   0.0625160   0.0708037  -0.0000136  -0.0000118  -0.9091506   0.2596915
0.0010630    -0.0005996  -0.0000365   0.0633613   0.0706432   0.0000229   0.0000125  -0.9105505   0.2595735
0.0010761    -0.0004105  -0.0000965   0.0642970   0.0705096  -0.0000149   0.0000095  -0.9107037   0.2587981
0.0010893    -0.0007329   0.0000151   0.0651083   0.0703708   0.0000198  -0.0000037  -0.9110865   0.2599258
0.0011027    -0.0003427   0.0000290   0.0659587   0.0702562   0.0000030  -0.0000187  -0.9110775   0.2587990
0.0011162    -0.0004555  -0.0000474   0.0667689   0.0700623  -0.0000056   0.0000030  -0.9120701   0.2584382
0.0011300    -0.0003420   0.0000144   0.0677982   0.0700266  -0.0000259  -0.0000173  -0.9112969   0.2587179
0.0011439    -0.0007729  -0.0002242   0.0684176   0.0697343   0.0000190  -0.0000020  -0.9120502   0.2590832
0.0011579    -0.0003120   0.0000403   0.0692707   0.0695008  -0.0000080   0.0000011  -0.9120575   0.2578675
0.0011721    -0.0005832   0.0001986   0.0701973   0.0693811   0.0000114  -0.0000118  -0.9124015   0.2585311
0.0011866    -0.0002741   0.0001471   0.0710577   0.0692394  -0.0000454  -0.0000152  -0.9122040   0.2582435
0.0012011    -0.0004839   0.0000690   0.0718591   0.0691066  -0.0000151   0.0000003  -0.9128818   0.2582597
0.0012159    -0.0004514  -0.0003785   0.0726223   0.0687744   0.0000208   0.0000031  -0.9136437   0.2584854
0.0012309    -0.0005731  -0.0000464   0.0734069   0.0685786   0.0000094   0.0000109  -0.9137401   0.2577885
0.0012460    -0.0004691  -0.0000154   0.0744105   0.0683448  -0.0000062  -0.0000060  -0.9134154   0.2581256
0.0012613    -0.0006692  -0.0003040   0.0752932   0.0682362   0.0000269  -0.0000021  -0.9147353   0.2579363
0.0012768    -0.0003523   0.0001316   0.0759778   0.0679910  -0.0000207   0.0000053  -0.9141770   0.2576231
0.0012925    -0.0005295  -0.0000815   0.0768445   0.0677736   0.0000140   0.0000076  -0.9151106   0.2580592
0.0013084    -0.0005780   0.0000353   0.0775508   0.0673669  -0.0000049   0.0000097  -0.9149123   0.2575421
0.0013245    -0.0007201  -0.0001173   0.0784042   0.0671743   0.0000181  -0.0000016  -0.9155488   0.2580240
0.0013408    -0.0004164   0.0001679   0.0789847   0.0668744   0.0000024  -0.0000096  -0.9153819   0.2572752
0.0013572    -0.0006350  -0.0000219   0.0799160   0.0666497   0.0000187   0.0000077  -0.9163567   0.2576933
0.0013739    -0.0002307  -0.0000458   0.0806400   0.0662383   0.0000133   0.0000164  -0.9162218   0.2575399
0.0013908    -0.0006790  -0.0000039   0.0814026   0.0660428   0.0000136   0.0000045  -0.9169530   0.2576089
0.0014079    -0.0005157  -0.0000376   0.0822214   0.0657193  -0.0000214  -0.0000005  -0.9167295   0.2573538
0.0014252    -0.0005938  -0.0001094   0.0829114   0.0654520   0.0000186   0.0000247  -0.9176592   0.2572531
0.0014427    -0.0004341   0.0000344   0.0836300   0.0651434  -0.0000097  -0.0000156  -0.9173659   0.2571991
0.0014605    -0.0007088  -0.0001241   0.0844395   0.0647827   0.0000009  -0.0000180  -0.9180822   0.2573986
0.0014784    -0.0003223  -0.0000280   0.0850263   0.0644453  -0.0000049   0.0000082  -0.9178605   0.2569127
0.0014966    -0.0007392   0.0000336   0.0857728   0.0640815   0.0000002  -0.0000287  -0.9186111   0.2574162
0.0015150    -0.0003335  -0.0000760   0.0866395   0.0636923   0.0000270   0.0000241  -0.9189818   0.2573396
0.0015336    -0.0007000   0.0000527   0.0873067   0.0634343  -0.0000074  -0.0000028  -0.9190102   0.2570696
0.0015525    -0.0007061   0.0002502   0.0879153   0.0630827  -0.0000076  -0.0000167  -0.9190290   0.2573496
0.0015716    -0.0004575   0.0000020   0.0886100   0.0627490   0.0000126  -0.0000211  -0.9196280   0.2571869
0.0015909    -0.0007511   0.0000200   0.0892057   0.0623433   0.0000100  -0.0000345  -0.9199847   0.2575694
0.0016104    -0.0004826  -0.0000395   0.0899811   0.0620401  -0.0000243   0.0000094  -0.9203199   0.2569523
0.0016302    -0.0007268   0.0002410   0.0904973   0.0616387   0.0000135  -0.0000063  -0.9203642   0.2573044
0.0016503    -0.0006766  -0.0001356   0.0912089   0.0611981   0.0000088  -0.0000100  -0.9213751   0.2574882
0.0016706    -0.0003942  -0.0002311   0.0919422   0.0608950   0.0000033  -0.0000045  -0.9211996   0.2574022
0.0016911    -0.0003552  -0.0000227   0.0924811   0.0604119  -0.0000210  -0.0000159  -0.9218180   0.2570958
0.0017119    -0.0004617  -0.0000163   0.0932092   0.0600720  -0.0000161  -0.0000298  -0.9218589   0.2574357
0.0017329    -0.0005481   0.0000234   0.0938144   0.0597005  -0.0000031   0.0000134  -0.9220861   0.2573962
0.0017542    -0.0003458  -0.0001368   0.0944404   0.0592949   0.0000071   0.0000175  -0.9225671   0.2571541
0.0017758    -0.0006657   0.0000068   0.0950030   0.0589072  -0.0000018  -0.0000029  -0.9227763   0.2574617
0.0017976    -0.0004058  -0.0000188   0.0955486   0.0585142   0.0000059  -0.0000063  -0.9233452   0.2574793
0.0018197    -0.0005816   0.0000672   0.0962137   0.0580864  -0.0000150  -0.0000040  -0.9231438   0.2573279
0.0018421    -0.0005571  -0.0002571   0.0967281   0.0576642   0.0000151  -0.0000070  -0.9238326   0.2577191
0.0018648    -0.0004789   0.0000081   0.0973536   0.0571870  -0.0000028   0.0000040  -0.9239003   0.2574820
0.0018877    -0.0004186   0.0000580   0.0979094   0.0567992  -0.0000105  -0.0000158  -0.9239804   0.2577066
0.0019109    -0.0005193  -0.0001666   0.0984562   0.0563845  -0.0000036   0.0000066  -0.9248491   0.2579357
0.0019344    -0.0005053  -0.0000188   0.0990480   0.0560026  -0.0000050  -0.0000064  -0.9247153   0.2577397
0.0019582    -0.0004262   0.0000862   0.0995190   0.0556536   0.0000018  -0.0000051  -0.9248236   0.2579512
0.0019822    -0.0006492  -0.0000434   0.1000410   0.0551870   0.0000061   0.0000007  -0.9256894   0.2580907
0.0020066    -0.0005727   0.0000147   0.1005890   0.0547483   0.0000030   0.0000010  -0.9257598   0.2582423
0.0020313    -0.0005371  -0.0002099   0.1011452   0.0544046   0.0000072   0.0000076  -0.9261621   0.2581689
0.0020562    -0.0004320  -0.0000225   0.1016073   0.0538971  -0.0000161  -0.0000018  -0.9265384   0.2580705
0.0020815    -0.0005308   0.0000168   0.1021286   0.0535034   0.0000003  -0.0000015  -0.9265952   0.2584793
0.0021071    -0.0004726  -0.0000086   0.1025852   0.0530697  -0.0000104  -0.0000033  -0.9270215   0.2585237
0.0021330    -0.0006173   0.0001020   0.1030828   0.0526316  -0.0000010  -0.0000229  -0.9272019   0.2587586
0.0021592    -0.0006061   0.0000381   0.1035561   0.0522219  -0.0000025  -0.0000190  -0.9277383   0.2588852
0.0021858    -0.0005121  -0.0000739   0.1040476   0.0517325  -0.0000026  -0.0000044  -0.9279115   0.2586740
0.0022126    -0.0006688   0.0000580   0.1045187   0.0513608  -0.0000054  -0.0000144  -0.9280733   0.2590422
0.0022398    -0.0005346   0.0000289   0.1049369   0.0509199  -0.0000122   0.0000062  -0.9283379   0.2590142
0.0022674    -0.0006468   0.0001304   0.1053693   0.0504311   0.0000047  -0.0000181  -0.9287816   0.2593020
0.0022953    -0.0005176  -0.0001420   0.1058013   0.0500207   0.0000060  -0.0000025  -0.9290308   0.2594769
0.0023235    -0.0005755  -0.0001548   0.1062460   0.0495934  -0.0000061  -0.0000002  -0.9294341   0.2594680
0.0023520    -0.0002632   0.0001074   0.1066485   0.0491279  -0.0000078  -0.0000054  -0.9292532   0.2594361
0.0023809    -0.0006335  -0.0001082   0.1070715   0.0487569  -0.0000079   0.0000077  -0.9299422   0.2596373
0.0024102    -0.0005374   0.0000795   0.1075219   0.0483131   0.0000131   0.0000064  -0.9298942   0.2598229
0.0024398    -0.0005450  -0.0000317   0.1079082   0.0478696   0.0000033   0.0000032  -0.9303333   0.2599209
0.0024698    -0.0005782  -0.0000279   0.1082730   0.0474804   0.0000079  -0.0000170  -0.9305707   0.2602177
0.0025002    -0.0005540   0.0000582   0.1086491   0.0470203  -0.0000013  -0.0000042  -0.9307198   0.2603729
0.0025309    -0.0006257   0.0000336   0.1090478   0.0466009  -0.0000087  -0.0000112  -0.9309336   0.2606611
0.0025621    -0.0005715  -0.0000621   0.1094160   0.0461601   0.0000070  -0.0000087  -0.9313972   0.2606534
0.0025935    -0.0006955  -0.0001527   0.1097521   0.0457751  -0.0000057  -0.0000035  -0.9316742   0.2605261
0.0026254    -0.0004554   0.0000160   0.1101533   0.0453102  -0.0000042  -0.0000026  -0.9317934   0.2605545
0.0026577    -0.0005236   0.0000266   0.1105030   0.0449026  -0.0000107  -0.0000105  -0.9319015   0.2609742
0.0026904    -0.0006279   0.0000020   0.1108458   0.0444746  -0.0000128  -0.0000062  -0.9320964   0.2613407
0.0027235    -0.0006020  -0.0000918   0.1111929   0.0440745  -0.0000013  -0.0000137  -0.9327563   0.2611832
0.0027569    -0.0004257   0.0000712   0.1115404   0.0436411  -0.0000088  -0.0000033  -0.9327095   0.2612955
0.0027908    -0.0005637  -0.0000354   0.1118922   0.0432308   0.0000059  -0.0000083  -0.9327881   0.2617246
0.0028251    -0.0005247  -0.0001095   0.1121658   0.0428069   0.0000069   0.0000018  -0.9332618   0.2618815
0.0028599    -0.0005490  -0.0000979   0.1124784   0.0424054  -0.0000022   0.0000010  -0.9334185   0.2618729
0.0028950    -0.0004638   0.0000436   0.1128105   0.0419703   0.0000031   0.0000025  -0.9336124   0.2618484
0.0029306    -0.0005188   0.0001647   0.1131465   0.0416070  -0.0000042  -0.0000190  -0.9337557   0.2620064
0.0029666    -0.0005542   0.0000241   0.1134286   0.0411737   0.0000131  -0.0000065  -0.9339990   0.2622600
0.0030031    -0.0005978  -0.0000627   0.1137240   0.0407745  -0.0000049   0.0000133  -0.9341076   0.2625548
0.0030400    -0.0005932   0.0000316   0.1139976   0.0403571  -0.0000027  -0.0000165  -0.9343379   0.2628196
0.0030774    -0.0004825   0.0000360   0.1142608   0.0399559  -0.0000097  -0.0000045  -0.9345217   0.2629743
0.0031152    -0.0005243   0.0000120   0.1145570   0.0395574   0.0000102   0.0000018  -0.9348862   0.2629809
0.0031535    -0.0006847  -0.0000347   0.1148161   0.0391679  -0.0000035  -0.0000120  -0.9349260   0.2633534
0.0031923    -0.0006253  -0.0001020   0.1150687   0.0387398   0.0000126  -0.0000124  -0.9353236   0.2634966
0.0032315    -0.0004314  -0.0001586   0.1153378   0.0383671  -0.0000004  -0.0000064  -0.9355121   0.2636469
0.0032713    -0.0005936   0.0000421   0.1155936   0.0379761   0.0000023  -0.0000089  -0.9356770   0.2636865
0.0033115    -0.0003742  -0.0000868   0.1158628   0.0376157   0.0000084  -0.0000006  -0.9357024   0.2639999
0.0033522    -0.0004634   0.0000083   0.1160754   0.0372442  -0.0000109  -0.0000057  -0.9360229   0.2644064
0.0033934    -0.0006797  -0.0000665   0.1163336   0.0368447   0.0000014   0.0000021  -0.9362628   0.2642656
0.0034351    -0.0004357   0.0000664   0.1165682   0.0364838  -0.0000013   0.0000084  -0.9364516   0.2645556
0.0034773    -0.0005313  -0.0000528   0.1168172   0.0360599   0.0000084  -0.0000086  -0.9364323   0.2647053
0.0035201    -0.0005164  -0.0000888   0.1169709   0.0356747   0.0000056  -0.0000029  -0.9367876   0.2648143
0.0035634    -0.0005639   0.0000334   0.1172962   0.0352944   0.0000070  -0.0000048  -0.9368663   0.2649771
0.0036072    -0.0004246   0.0000878   0.1174462   0.0349280  -0.0000008  -0.0000046  -0.9369396   0.2652301
0.0036515    -0.0006317   0.0000409   0.1176901   0.0345684  -0.0000051   0.0000044  -0.9372120   0.2655556
0.0036964    -0.0005940   0.0001855   0.1178898   0.0341941  -0.0000114   0.0000007  -0.9371598   0.2658447
0.0037418    -0.0005111   0.0000138   0.1180948   0.0338292   0.0000014  -0.0000077  -0.9373776   0.2659021
0.0037878    -0.0005972   0.0000397   0.1183216   0.0334745   0.0000009  -0.0000191  -0.9374859   0.2660117
0.0038344    -0.0006585   0.0000419   0.1184743   0.0330954   0.0000059  -0.0000063  -0.9376847   0.2663411
0.0038815    -0.0005554  -0.0000933   0.1186909   0.0327277  -0.0000009   0.0000041  -0.9378065   0.2664228
0.0039293    -0.0004590  -0.0000984   0.1188780   0.0323997   0.0000049  -0.0000071  -0.9379777   0.2663981
0.0039776    -0.0005634   0.0000532   0.1190505   0.0320127  -0.0000018  -0.0000120  -0.9381920   0.2668196
0.0040265    -0.0005692  -0.0000453   0.1192093   0.0316827   0.0000000   0.0000014  -0.9383100   0.2667670
0.0040759    -0.0005958  -0.0000520   0.1194174   0.0313447  -0.0000007   0.0000008  -0.9384242   0.2671272
0.0041261    -0.0005700   0.0000687   0.1195626   0.0309979   0.0000015  -0.0000048  -0.9385339   0.2672093
0.0041768    -0.0006529   0.0000103   0.1197434   0.0306622  -0.0000009   0.0000009  -0.9387328   0.2675105
0.0042281    -0.0005600  -0.0000893   0.1199279   0.0303243   0.0000064  -0.0000054  -0.9388509   0.2677209
0.0042801    -0.0005597   0.0000498   0.1200916   0.0299683   0.0000041  -0.0000002  -0.9389324   0.2679158
0.0043327    -0.0006734   0.0000443   0.1202612   0.0296546  -0.0000035  -0.0000042  -0.9390299   0.2683019
0.0043860    -0.0005693  -0.0000200   0.1204027   0.0292969  -0.0000025   0.0000091  -0.9392749   0.2683077
0.0044399    -0.0005795  -0.0000397   0.1205442   0.0289919   0.0000007  -0.0000043  -0.9393379   0.2684832
0.0044945    -0.0006038   0.0000647   0.1206716   0.0286550  -0.0000065  -0.0000034  -0.9394909   0.2686169
0.0045497    -0.0004844   0.0000472   0.1208624   0.0283485  -0.0000109  -0.0000034  -0.9394766   0.2688047
0.0046057    -0.0006144   0.0000110   0.1209908   0.0280258  -0.0000053   0.0000049  -0.9395575   0.2689400
0.0046623    -0.0006007   0.0001123   0.1211384   0.0277117   0.0000035  -0.0000071  -0.9395089   0.2692334
0.0047196    -0.0006176  -0.0000333   0.1212376   0.0273800  -0.0000083  -0.0000009  -0.9398293   0.2694102
0.0047776    -0.0005202  -0.0001013   0.1214005   0.0270742   0.0000065  -0.0000104  -0.9398891   0.2695281
0.0048363    -0.0005966   0.0000308   0.1215166   0.0267716   0.0000003  -0.0000094  -0.9399332   0.2697804
0.0048958    -0.0005493  -0.0000506   0.1216738   0.0264677  -0.0000047  -0.0000137  -0.9400721   0.2700554
0.0049560    -0.0006757  -0.0000184   0.1217958   0.0261268  -0.0000099  -0.0000067  -0.9402632   0.2701632
0.0050169    -0.0005546   0.0000313   0.1219021   0.0258619  -0.0000178   0.0000051  -0.9403351   0.2701639
0.0050786    -0.0005060   0.0000264   0.1220242   0.0255785   0.0000062   0.0000011  -0.9403187   0.2703988
0.0051410    -0.0005139  -0.0001638   0.1222019   0.0252372  -0.0000039  -0.0000105  -0.9404152   0.2706001
0.0052042    -0.0004715   0.0000049   0.1222634   0.0249457   0.0000035  -0.0000032  -0.9405021   0.2708001
0.0052682    -0.0005814   0.0000708   0.1223636   0.0246782   0.0000060  -0.0000054  -0.9406327   0.2710467
0.0053330    -0.0006121   0.0000394   0.1224604   0.0243916  -0.0000089  -0.0000088  -0.9406896   0.2711812
0.0053985    -0.0006685   0.0000795   0.1225752   0.0241163  -0.0000131  -0.0000073  -0.9407775   0.2713440
0.0054649    -0.0005489  -0.0000501   0.1226684   0.0238231   0.0000164  -0.0000018  -0.9409076   0.2714998
0.0055321    -0.0005143  -0.0000325   0.1227833   0.0235548  -0.0000015  -0.0000112  -0.9409565   0.2716945
0.0056001    -0.0005076   0.0000285   0.1228778   0.0232719   0.0000146   0.0000031  -0.9411138   0.2719386
0.0056689    -0.0004906  -0.0000426   0.1229641   0.0230089  -0.0000082  -0.0000200  -0.9411273   0.2720064
0.0057386    -0.0006272   0.0000291   0.1231228   0.0227446   0.0000036  -0.0000155  -0.9411893   0.2721200
0.0058091    -0.0005839   0.0000375   0.1231741   0.0224694   0.0000022   0.0000047  -0.9411386   0.2723728
0.0058806    -0.0005812  -0.0000304   0.1232400   0.0221777  -0.0000013  -0.0000061  -0.9411190   0.2724188
0.0059529    -0.0005656  -0.0000151   0.1233817   0.0219280  -0.0000054  -0.0000104  -0.9412062   0.2727041
0.0060260    -0.0005791   0.0000008   0.1234311   0.0216807  -0.0000053  -0.0000183  -0.9412507   0.2727098
0.0061001    -0.0006200   0.0000383   0.1235134   0.0214080  -0.0000142  -0.0000055  -0.9413455   0.2729546
0.0061751    -0.0005607   0.0001092   0.1235994   0.0211626   0.0000003   0.0000049  -0.9413314   0.2731470
0.0062510    -0.0006014   0.0000326   0.1236805   0.0208835  -0.0000030  -0.0000002  -0.9415101   0.2732916
0.0063279    -0.0005572   0.0000705   0.1237593   0.0206571  -0.0000043  -0.0000012  -0.9416430   0.2734560
0.0064056    -0.0004416  -0.0001434   0.1238659   0.0204012   0.0000044  -0.0000061  -0.9416371   0.2736081
0.0064844    -0.0005050  -0.0000518   0.1239365   0.0201338   0.0000000  -0.0000076  -0.9416977   0.2736701
0.0065641    -0.0005497   0.0000154   0.1240226   0.0198936  -0.0000063  -0.0000193  -0.9415242   0.2737903
0.0066448    -0.0005010  -0.0001303   0.1240850   0.0196445   0.0000005  -0.0000093  -0.9416728   0.2739591
0.0067265    -0.0005616   0.0000527   0.1241578   0.0193839  -0.0000082   0.0000041  -0.9417777   0.2741424
0.0068092    -0.0004059   0.0000130   0.1242324   0.0191074   0.0000036   0.0000010  -0.9418365   0.2743665
0.0068929    -0.0005069  -0.0000894   0.1242838   0.0189595   0.0000128  -0.0000086  -0.9418909   0.2744498
0.0069776    -0.0006416   0.0000194   0.1243117   0.0187100   0.0000024  -0.0000116  -0.9420478   0.2746782
0.0070634    -0.0005696   0.0000105   0.1243844   0.0184826   0.0000023  -0.0000052  -0.9419420   0.2748400
0.0071502    -0.0006436  -0.0000286   0.1244535   0.0182478   0.0000031  -0.0000154  -0.9419125   0.2748555
0.0072381    -0.0005487   0.0000443   0.1245196   0.0180261  -0.0000033  -0.0000122  -0.9418756   0.2750367
0.0073271    -0.0004866   0.0000446   0.1245907   0.0178223  -0.0000089  -0.0000030  -0.9420109   0.2752536
0.0074172    -0.0005790   0.0000713   0.1246254   0.0175841   0.0000121  -0.0000083  -0.9421284   0.2753567
0.0075084    -0.0005857   0.0000421   0.1246898   0.0173781   0.0000064  -0.0000108  -0.9421577   0.2755385
0.0076007    -0.0006155  -0.0001692   0.1247687   0.0171382   0.0000004  -0.0000116  -0.9421461   0.2756577
0.0076941    -0.0005407  -0.0000708   0.1248147   0.0169493  -0.0000021   0.0000084  -0.9421786   0.2759126
0.0077887    -0.0004994  -0.0000304   0.1248482   0.0167407   0.0000107  -0.0000020  -0.9421820   0.2759312
0.0078844    -0.0005368  -0.0000020   0.1249306   0.0165288  -0.0000035  -0.0000018  -0.9422685   0.2760016
0.0079814    -0.0004308   0.0000056   0.1249278   0.0163141   0.0000006  -0.0000059  -0.9422404   0.2762762
0.0080795    -0.0006292  -0.0000267   0.1249976   0.0161057   0.0000058  -0.0000034  -0.9423989   0.2763341
0.0081788    -0.0006342  -0.0000572   0.1250746   0.0159099  -0.0000045   0.0000043  -0.9422137   0.2765218
0.0082793    -0.0006163   0.0001112   0.1250953   0.0156674  -0.0000005  -0.0000093  -0.9423942   0.2765888
0.0083811    -0.0005482   0.0000172   0.1251654   0.0155197  -0.0000037   0.0000070  -0.9423573   0.2767983
0.0084842    -0.0006088  -0.0000316   0.1252050   0.0153641  -0.0000016   0.0000005  -0.9423313   0.2768930
0.0085885    -0.0005053  -0.0001772   0.1252309   0.0151996   0.0000015  -0.0000070  -0.9424398   0.2769427
0.0086940    -0.0006345   0.0000386   0.1252267   0.0149291   0.0000127  -0.0000141  -0.9423699   0.2771411
0.0088009    -0.0005732   0.0000061   0.1253571   0.0146811   0.0000002   0.0000062  -0.9423860   0.2772914
0.0089091    -0.0005120  -0.0000712   0.1253347   0.0144693   0.0000024  -0.0000112  -0.9423989   0.2774866
0.0090186    -0.0006147  -0.0000546   0.1254088   0.0143462  -0.0000090  -0.0000046  -0.9424998   0.2774735
0.0091295    -0.0005447   0.0001050   0.1254280   0.0141382   0.0000055  -0.0000005  -0.9425199   0.2777457
0.0092417    -0.0006324  -0.0000065   0.1254578   0.0139757   0.0000093  -0.0000054  -0.9424069   0.2777833
0.0093553    -0.0006350   0.0000549   0.1254784   0.0137904   0.0000041  -0.0000095  -0.9424297   0.2779104
0.0094703    -0.0005253   0.0000449   0.1255364   0.0135906   0.0000006   0.0000108  -0.9425230   0.2779699
0.0095868    -0.0005707   0.0001226   0.1255471   0.0134309  -0.0000033  -0.0000074  -0.9424579   0.2781670
0.0097046    -0.0005546   0.0000563   0.1255562   0.0132154  -0.0000017   0.0000127  -0.9425030   0.2781965
0.0098239    -0.0005330   0.0000492   0.1256362   0.0130963  -0.0000008   0.0000001  -0.9425577   0.2783250
0.0099447    -0.0005924   0.0000589   0.1256407   0.0128568  -0.0000004  -0.0000051  -0.9425478   0.2783615
0.0100669    -0.0007169   0.0000408   0.1256848   0.0126870  -0.0000093  -0.0000186  -0.9425242   0.2785836
0.0101907    -0.0006149   0.0000799   0.1256888   0.0126663  -0.0000033  -0.0000092  -0.9425358   0.2786114
0.0103160    -0.0006153  -0.0001118   0.1258210   0.0122742   0.0000116  -0.0000083  -0.9425019   0.2787091
0.0104428    -0.0005804  -0.0000368   0.1256739   0.0120946  -0.0000035   0.0000003  -0.9425838   0.2789201
0.0105712    -0.0005509  -0.0000569   0.1257995   0.0120480   0.0000088   0.0000015  -0.9425830   0.2789347
0.0107011    -0.0005347  -0.0000360   0.1258164   0.0119109   0.0000044  -0.0000051  -0.9426090   0.2791118
0.0108327    -0.0006060   0.0000816   0.1258338   0.0116740   0.0000012  -0.0000062  -0.9425325   0.2791449
0.0109658    -0.0005565  -0.0000395   0.1258245   0.0115786  -0.0000070  -0.0000045  -0.9426464   0.2792784
0.0111006    -0.0006294  -0.0000221   0.1258747   0.0114144  -0.0000041  -0.0000068  -0.9426136   0.2795289
0.0112371    -0.0005812  -0.0000110   0.1258965   0.0112569  -0.0000054   0.0000003  -0.9426557   0.2794251
0.0113752    -0.0006002   0.0000086   0.1259106   0.0111276  -0.0000107   0.0000007  -0.9425597   0.2795968
0.0115151    -0.0005275  -0.0001029   0.1259608   0.0109480   0.0000003  -0.0000004  -0.9427017   0.2798539
0.0116566    -0.0006099   0.0000478   0.1259409   0.0108530  -0.0000025  -0.0000093  -0.9425976   0.2797545
0.0117999    -0.0005897   0.0000027   0.1259719   0.0106770  -0.0000078  -0.0000039  -0.9426702   0.2800117
0.0119450    -0.0007914   0.0002814   0.1252379   0.0111928  -0.0000012   0.0000006  -0.9434624   0.2782170
0.0120918    -0.0004703  -0.0000747   0.1260801   0.0103722   0.0000006  -0.0000104  -0.9426943   0.2801527
0.0122405    -0.0006049   0.0000859   0.1260274   0.0102957  -0.0000107   0.0000039  -0.9427471   0.2801706
0.0123910    -0.0005113  -0.0000048   0.1260929   0.0100219  -0.0000042  -0.0000100  -0.9426088   0.2804391
0.0125433    -0.0006333  -0.0000239   0.1260423   0.0099758  -0.0000016   0.0000043  -0.9427097   0.2803775
0.0126975    -0.0005683  -0.0000648   0.1260979   0.0097956  -0.0000036  -0.0000023  -0.9425424   0.2804387
0.0128536    -0.0005729   0.0000093   0.1261600   0.0096009   0.0000036  -0.0000033  -0.9426407   0.2806492
0.0130116    -0.0005186   0.0000602   0.1260943   0.0094996   0.0000031   0.0000037  -0.9426215   0.2806846
0.0131716    -0.0005833  -0.0000121   0.1261304   0.0094095  -0.0000045   0.0000010  -0.9426642   0.2806807
0.0133335    -0.0006015   0.0000238   0.1261863   0.0092517  -0.0000017  -0.0000095  -0.9425145   0.2809397
0.0134974    -0.0005772  -0.0000470   0.1261376   0.0090944   0.0000014  -0.0000020  -0.9425677   0.2809175
0.0136633    -0.0005986  -0.0000254   0.1263963   0.0090484   0.0000013  -0.0000062  -0.9426221   0.2811150
0.0138313    -0.0005666   0.0000022   0.1261416   0.0088012  -0.0000014  -0.0000050  -0.9425397   0.2811490
0.0140013    -0.0005837  -0.0000047   0.1262074   0.0086870  -0.0000043  -0.0000027  -0.9426175   0.2812854
0.0141734    -0.0005320  -0.0000526   0.1261765   0.0085712  -0.0000133  -0.0000052  -0.9426482   0.2814176
0.0143477    -0.0005603  -0.0000183   0.1262402   0.0084988   0.0000019  -0.0000050  -0.9426134   0.2813920
0.0145240    -0.0005352   0.0000022   0.1262072   0.0083126   0.0000018   0.0000028  -0.9426510   0.2814696
0.0147026    -0.0005642   0.0000756   0.1262325   0.0081805   0.0000098  -0.0000082  -0.9425887   0.2815431
0.0148833    -0.0006196  -0.0000222   0.1262406   0.0080718  -0.0000038  -0.0000085  -0.9425701   0.2817147
0.0150663    -0.0006163  -0.0000769   0.1262575   0.0079587   0.0000025  -0.0000094  -0.9425500   0.2817628
0.0152515    -0.0005775   0.0000597   0.1262612   0.0078316  -0.0000064  -0.0000097  -0.9425577   0.2819218
0.0154390    -0.0005194  -0.0000271   0.1262899   0.0076873  -0.0000151   0.0000062  -0.9425825   0.2819117
0.0156288    -0.0005737   0.0000971   0.1262338   0.0076346  -0.0000092  -0.0000074  -0.9426634   0.2819290
0.0158209    -0.0005647   0.0000415   0.1262493   0.0074814  -0.0000031  -0.0000088  -0.9425187   0.2819562
0.0160154    -0.0005582   0.0001184   0.1262776   0.0073625   0.0000012  -0.0000067  -0.9425096   0.2821765
0.0162123    -0.0006280   0.0000738   0.1262993   0.0072778  -0.0000041  -0.0000005  -0.9424733   0.2823458
0.0164116    -0.0005709  -0.0000348   0.1263005   0.0071522   0.0000020  -0.0000133  -0.9425390   0.2823374
0.0166134    -0.0005872   0.0000289   0.1263124   0.0070376   0.0000025   0.0000024  -0.9424725   0.2825105
0.0168176    -0.0005741   0.0000035   0.1263208   0.0069071   0.0000023  -0.0000011  -0.9425681   0.2824212
0.0170243    -0.0006342  -0.0000199   0.1263091   0.0068187  -0.0000044  -0.0000021  -0.9425075   0.2825839
0.0172336    -0.0005873  -0.0000661   0.1262891   0.0066552   0.0000039  -0.0000065  -0.9424701   0.2825693
0.0174455    -0.0005184  -0.0000174   0.1263366   0.0065993  -0.0000069   0.0000054  -0.9424511   0.2826684
0.0176599    -0.0005795   0.0000413   0.1263019   0.0064881  -0.0000030  -0.0000096  -0.9424459   0.2827776
0.0178770    -0.0005145   0.0000757   0.1262961   0.0064031  -0.0000056   0.0000042  -0.9424224   0.2829245
0.0180968    -0.0005364  -0.0000579   0.1263019   0.0062673  -0.0000086  -0.0000035  -0.9424302   0.2828374
0.0183193    -0.0005403  -0.0000058   0.1263039   0.0062022   0.0000087  -0.0000044  -0.9424509   0.2830002
0.0185445    -0.0005350  -0.0000154   0.1263065   0.0060995   0.0000103  -0.0000060  -0.9424455   0.2830423
0.0187724    -0.0005682  -0.0000701   0.1263306   0.0060288   0.0000036   0.0000011  -0.9423371   0.2830841
0.0190032    -0.0005582  -0.0000222   0.1263139   0.0058795  -0.0000030  -0.0000051  -0.9424280   0.2831313
0.0192368    -0.0005321  -0.0000101   0.1262146   0.0057273   0.0000020   0.0000008  -0.9425254   0.2832695
0.0194733    -0.0005315   0.0000183   0.1262924   0.0057196   0.0000098  -0.0000044  -0.9424154   0.2833488
0.0197127    -0.0005200   0.0001349   0.1263113   0.0055914  -0.0000072  -0.0000149  -0.9423865   0.2834325
0.0199550    -0.0005247  -0.0000183   0.1263107   0.0054997  -0.0000085  -0.0000115  -0.9424142   0.2834576
0.0202003    -0.0005782  -0.0000815   0.1262960   0.0054097  -0.0000027  -0.0000121  -0.9424186   0.2834956
0.0204487    -0.0006330  -0.0000595   0.1262901   0.0053196  -0.0000126  -0.0000027  -0.9423482   0.2836018
0.0207001    -0.0005176   0.0000126   0.1263078   0.0052196  -0.0000050  -0.0000153  -0.9422820   0.2836091
0.0209545    -0.0004635  -0.0000337   0.1263059   0.0051338  -0.0000042  -0.0000062  -0.9422991   0.2836966
0.0212121    -0.0006154   0.0001545   0.1263145   0.0050350   0.0000013   0.0000014  -0.9422630   0.2838958
0.0214729    -0.0004846  -0.0000209   0.1262911   0.0049669  -0.0000082  -0.0000137  -0.9423046   0.2839225
0.0217369    -0.0006141  -0.0000796   0.1262977   0.0048537   0.0000177  -0.0000012  -0.9422967   0.2839207
0.0220041    -0.0005327  -0.0000041   0.1262910   0.0047748  -0.0000034  -0.0000052  -0.9423316   0.2839710
0.0222746    -0.0005764   0.0000168   0.1262698   0.0046799   0.0000044  -0.0000094  -0.9421834   0.2840686
0.0225484    -0.0005271   0.0000935   0.1262811   0.0045761  -0.0000069   0.0000029  -0.9421589   0.2840821
0.0228256    -0.0006337  -0.0000676   0.1262724   0.0044998  -0.0000015   0.0000000  -0.9422130   0.2841121
0.0231062    -0.0005341   0.0001520   0.1262606   0.0044209  -0.0000071  -0.0000067  -0.9422103   0.2841453
0.0233902    -0.0004884   0.0000331   0.1262569   0.0043196  -0.0000062   0.0000041  -0.9421501   0.2842650
0.0236778    -0.0005929   0.0000248   0.1262474   0.0042721   0.0000026  -0.0000065  -0.9421274   0.2843437
0.0239689    -0.0005186   0.0000643   0.1271685   0.0043799  -0.0000034  -0.0000028  -0.9431943   0.2849166
0.0242635    -0.0005770   0.0000303   0.1262335   0.0040817   0.0000020  -0.0000015  -0.9421554   0.2844378
0.0245618    -0.0005376  -0.0000972   0.1262225   0.0040175  -0.0000175  -0.0000006  -0.9420997   0.2845678
0.0248637    -0.0005815   0.0000012   0.1262188   0.0039345  -0.0000010  -0.0000011  -0.9421057   0.2846436
0.0251694    -0.0005325  -0.0000538   0.1262125   0.0038639  -0.0000045  -0.0000092  -0.9421237   0.2846718
0.0254788    -0.0005853   0.0000366   0.1262108   0.0037814  -0.0000051  -0.0000060  -0.9420106   0.2847303
0.0257920    -0.0006175   0.0000850   0.1261943   0.0036960   0.0000011  -0.0000116  -0.9420984   0.2848583
0.0261091    -0.0004880   0.0000131   0.1261938   0.0036324   0.0000032  -0.0000093  -0.9419308   0.2848252
0.0264301    -0.0006824  -0.0000077   0.1261909   0.0035612   0.0000051  -0.0000114  -0.9420806   0.2849199
0.0267550    -0.0006179  -0.0000560   0.1261697   0.0034854  -0.0000017   0.0000036  -0.9419236   0.2849455
0.0270839    -0.0005232  -0.0002199   0.1261292   0.0034216  -0.0000150  -0.0000070  -0.9420152   0.2849370
0.0274168    -0.0006023  -0.0000143   0.1261424   0.0033561  -0.0000071  -0.0000091  -0.9419723   0.2849874
0.0277539    -0.0006417   0.0000982   0.1261577   0.0032888  -0.0000055  -0.0000124  -0.9418585   0.2850718
0.0280951    -0.0005390  -0.0000086   0.1261078   0.0031989  -0.0000084  -0.0000131  -0.9418695   0.2851680
0.0284404    -0.0005086   0.0000885   0.1261194   0.0031251  -0.0000050  -0.0000027  -0.9418926   0.2852433
0.0287901    -0.0005228  -0.0000256   0.1261020   0.0030468  -0.0000104  -0.0000071  -0.9419360   0.2851845
0.0291440    -0.0005949  -0.0000206   0.1260891   0.0030009   0.0000046  -0.0000088  -0.9418947   0.2853351
0.0295023    -0.0005689   0.0000061   0.1260714   0.0029139   0.0000158   0.0000033  -0.9418181   0.2853636
0.0298649    -0.0004762  -0.0000246   0.1260547   0.0028509   0.0000090  -0.0000008  -0.9418149   0.2853996
0.0302321    -0.0005949   0.0000189   0.1260408   0.0027820   0.0000043  -0.0000058  -0.9417208   0.2854923
0.0306037    -0.0007655  -0.0000365   0.1260372   0.0027285  -0.0000045  -0.0000008  -0.9417143   0.2855678
0.0309799    -0.0005085  -0.0000467   0.1260397   0.0026571  -0.0000045   0.0000013  -0.9418265   0.2855831
0.0313608    -0.0006736   0.0000119   0.1260177   0.0025991   0.0000041  -0.0000197  -0.9417779   0.2856653
0.0317463    -0.0006186  -0.0001071   0.1260075   0.0025169  -0.0000047   0.0000050  -0.9416988   0.2857371
0.0321366    -0.0005660   0.0000473   0.1259998   0.0024483   0.0000041  -0.0000031  -0.9417880   0.2857474
0.0325316    -0.0005024   0.0000752   0.1259801   0.0024096   0.0000030  -0.0000159  -0.9416747   0.2858300
0.0329316    -0.0005707   0.0001373   0.1259670   0.0023518   0.0000071  -0.0000175  -0.9416642   0.2859160
0.0333364    -0.0005879  -0.0000359   0.1259527   0.0022902   0.0000033  -0.0000037  -0.9416956   0.2859965
0.0337462    -0.0005009   0.0000505   0.1259435   0.0022048   0.0000003   0.0000066  -0.9415459   0.2858363
0.0341610    -0.0005019  -0.0000433   0.1259397   0.0021679   0.0000031  -0.0000018  -0.9415890   0.2860550
0.0345810    -0.0005513   0.0000551   0.1259343   0.0021000   0.0000025  -0.0000054  -0.9415994   0.2860402
0.0350061    -0.0005358  -0.0000648   0.1258961   0.0020406   0.0000041   0.0000028  -0.9416480   0.2861025
0.0354365    -0.0005444   0.0000244   0.1258781   0.0019671   0.0000008  -0.0000113  -0.9415532   0.2862356
0.0358721    -0.0005821  -0.0001001   0.1258930   0.0019327   0.0000027   0.0000040  -0.9415274   0.2861881
0.0363131    -0.0004925  -0.0000368   0.1258559   0.0018677  -0.0000035  -0.0000022  -0.9415787   0.2862180
0.0367595    -0.0005452  -0.0000187   0.1258805   0.0018011  -0.0000029  -0.0000134  -0.9414277   0.2863980
0.0372114    -0.0006168  -0.0000020   0.1258594   0.0017394   0.0000021  -0.0000147  -0.9414660   0.2864445
0.0376688    -0.0005342  -0.0000322   0.1258445   0.0016946  -0.0000015  -0.0000004  -0.9414265   0.2864517
0.0381319    -0.0005888  -0.0001075   0.1258083   0.0016481  -0.0000009  -0.0000148  -0.9414994   0.2864761
0.0386006    -0.0005306   0.0000587   0.1258126   0.0016147  -0.0000001  -0.0000062  -0.9414738   0.2866139
0.0390752    -0.0005924   0.0000686   0.1257729   0.0015658   0.0000058  -0.0000044  -0.9413666   0.2865701
0.0395555    -0.0005247  -0.0000722   0.1257944   0.0014675  -0.0000018  -0.0000008  -0.9413887   0.2866159
0.0400418    -0.0004752   0.0000587   0.1257571   0.0014204  -0.0000059  -0.0000090  -0.9414225   0.2867169
0.0405340    -0.0005746  -0.0000154   0.1257223   0.0014046   0.0000032  -0.0000083  -0.9413678   0.2866962
0.0410323    -0.0005055  -0.0000302   0.1257072   0.0013337   0.0000113  -0.0000063  -0.9412536   0.2867964
0.0415368    -0.0005815   0.0000320   0.1257096   0.0012947  -0.0000101   0.0000046  -0.9413906   0.2868516
0.0420474    -0.0005735   0.0000801   0.1257008   0.0012445  -0.0000032  -0.0000059  -0.9413047   0.2867908
0.0425643    -0.0005142   0.0000312   0.1256789   0.0011879   0.0000041  -0.0000041  -0.9412317   0.2868349
0.0430875    -0.0006217   0.0000614   0.1256680   0.0011277   0.0000041  -0.0000004  -0.9413051   0.2869693
0.0436172    -0.0005445   0.0000513   0.1256566   0.0010904  -0.0000077  -0.0000074  -0.9412355   0.2870156
0.0441534    -0.0005566   0.0000124   0.1256400   0.0010297   0.0000004  -0.0000073  -0.9411886   0.2871031
0.0446962    -0.0005449  -0.0000074   0.1256003   0.0009903  -0.0000045  -0.0000057  -0.9411981   0.2871376
0.0452457    -0.0006390  -0.0000398   0.1255923   0.0009372   0.0000028  -0.0000074  -0.9411458   0.2871384
0.0458019    -0.0006540  -0.0000133   0.1255696   0.0009121   0.0000017  -0.0000085  -0.9411226   0.2871739
0.0463649    -0.0005856  -0.0000482   0.1255626   0.0008445   0.0000098   0.0000013  -0.9410879   0.2872438
0.0469349    -0.0005246  -0.0000444   0.1255295   0.0008010  -0.0000076  -0.0000056  -0.9410962   0.2873527
0.0475119    -0.0005601   0.0001099   0.1255217   0.0007347   0.0000017  -0.0000071  -0.9410704   0.2873649
0.0480960    -0.0005259  -0.0000636   0.1255318   0.0007404  -0.0000044  -0.0000019  -0.9409973   0.2874680
0.0486872    -0.0006010   0.0000528   0.1254887   0.0006746  -0.0000129  -0.0000110  -0.9409651   0.2874875
0.0492857    -0.0005282   0.0000058   0.1254578   0.0006431  -0.0000002  -0.0000042  -0.9409461   0.2875644
0.0498916    -0.0005827   0.0000243   0.1254520   0.0005974  -0.0000045  -0.0000018  -0.9408737   0.2876173
0.0505050    -0.0005759   0.0000663   0.1254394   0.0005396  -0.0000103  -0.0000166  -0.9409469   0.2876108
0.0511258    -0.0005059   0.0000454   0.1254287   0.0005144  -0.0000017  -0.0000074  -0.9409396   0.2877756
0.0517543    -0.0005998  -0.0001040   0.1254240   0.0004438  -0.0000078  -0.0000062  -0.9409543   0.2877150
0.0523906    -0.0006215   0.0001098   0.1253929   0.0004267   0.0000057  -0.0000072  -0.9408638   0.2877875
0.0530346    -0.0005648   0.0001010   0.1253675   0.0003799   0.0000032  -0.0000115  -0.9408033   0.2878187
0.0536866    -0.0005314  -0.0000247   0.1253641   0.0003401  -0.0000095  -0.0000167  -0.9408350   0.2878571
0.0543466    -0.0006224   0.0000267   0.1253388   0.0003009  -0.0000052  -0.0000006  -0.9407425   0.2878680
0.0550146    -0.0005142   0.0000437   0.1253042   0.0002585  -0.0000055  -0.0000045  -0.9407686   0.2879192
0.0556910    -0.0005576   0.0000242   0.1252817   0.0002198  -0.0000121  -0.0000102  -0.9406990   0.2879734
0.0563756    -0.0004909   0.0000611   0.1252506   0.0001688   0.0000018  -0.0000108  -0.9407175   0.2881117
0.0570686    -0.0005324   0.0000419   0.1252543   0.0001525   0.0000006  -0.0000166  -0.9406780   0.2881488
0.0577702    -0.0006025  -0.0000166   0.1252413   0.0001193  -0.0000013  -0.0000054  -0.9406106   0.2882546
0.0584804    -0.0005201   0.0000620   0.1252094   0.0000681   0.0000011  -0.0000075  -0.9405687   0.2881916
0.0591993    -0.0005201   0.0000065   0.1251892   0.0000479   0.0000087   0.0000003  -0.9405477   0.2882490
0.0599270    -0.0005656   0.0000776   0.1251795  -0.0000065   0.0000084  -0.0000020  -0.9406534   0.2883762
0.0606637    -0.0005714   0.0000259   0.1251714  -0.0000407  -0.0000008  -0.0000084  -0.9404613   0.2883609
0.0614095    -0.0005582   0.0000455   0.1251499  -0.0000802  -0.0000130   0.0000009  -0.9405219   0.2883972
0.0621644    -0.0005928   0.0000197   0.1251197  -0.0001147  -0.0000010  -0.0000074  -0.9405535   0.2885076
0.0629286    -0.0005462   0.0000809   0.1251062  -0.0001363  -0.0000052  -0.0000012  -0.9404398   0.2884878
0.0637022    -0.0005858  -0.0000583   0.1250798  -0.0001718   0.0000020  -0.0000046  -0.9403573   0.2886245
0.0644853    -0.0005688  -0.0000148   0.1250510  -0.0001987  -0.0000014  -0.0000039  -0.9404157   0.2886764
0.0652780    -0.0005694   0.0000098   0.1250310  -0.0002444   0.0000039  -0.0000084  -0.9403190   0.2886986
0.0660805    -0.0005452   0.0000252   0.1250176  -0.0002789  -0.0000050  -0.0000067  -0.9402917   0.2888275
0.0668928    -0.0005843  -0.0000257   0.1250157  -0.0003138  -0.0000128  -0.0000122  -0.9402203   0.2888212
0.0677152    -0.0005726   0.0000459   0.1249834  -0.0003308   0.0000000  -0.0000112  -0.9402024   0.2888230
0.0685476    -0.0006441   0.0000078   0.1249642  -0.0003702  -0.0000072  -0.0000117  -0.9401862   0.2888922
0.0693903    -0.0004530   0.0000574   0.1249317  -0.0004059  -0.0000004  -0.0000041  -0.9401122   0.2890172
0.0702433    -0.0005708  -0.0000130   0.1249369  -0.0004295  -0.0000029   0.0000041  -0.9401311   0.2890242
0.0711068    -0.0005332   0.0000337   0.1249248  -0.0004676   0.0000037  -0.0000059  -0.9400895   0.2890692
0.0719810    -0.0005376   0.0000483   0.1248926  -0.0004817  -0.0000091   0.0000050  -0.9400307   0.2890734
0.0728659    -0.0005559   0.0000794   0.1248429  -0.0005253   0.0000052  -0.0000014  -0.9399982   0.2891921
0.0737616    -0.0005755   0.0000298   0.1248211  -0.0005540  -0.0000012   0.0000004  -0.9399166   0.2892475
0.0746684    -0.0005449   0.0000224   0.1248399  -0.0005948   0.0000073  -0.0000086  -0.9399425   0.2892933
0.0755863    -0.0005657  -0.0000410   0.1247867  -0.0006273  -0.0000051  -0.0000018  -0.9398644   0.2893296
0.0765155    -0.0005146  -0.0000669   0.1247767  -0.0006479  -0.0000040  -0.0000102  -0.9398543   0.2893451
0.0774561    -0.0005354   0.0000206   0.1247493  -0.0006516   0.0000021  -0.0000132  -0.9397228   0.2894283
0.0784083    -0.0005958  -0.0000486   0.1247267  -0.0007127   0.0000033   0.0000006  -0.9396576   0.2894038
0.0793722    -0.0005968   0.0000957   0.1247027  -0.0007280  -0.0000042  -0.0000104  -0.9396161   0.2895158
0.0803479    -0.0005847  -0.0000086   0.1246830  -0.0007846   0.0000014  -0.0000099  -0.9396115   0.2895176
0.0813357    -0.0005403   0.0000969   0.1246812  -0.0007970  -0.0000006  -0.0000007  -0.9394970   0.2895606
0.0823356    -0.0005870  -0.0000130   0.1246488  -0.0008483  -0.0000053  -0.0000076  -0.9394075   0.2896695
0.0833477    -0.0005736   0.0000519   0.1246355  -0.0008253   0.0000061  -0.0000029  -0.9393761   0.2896456
0.0843723    -0.0005445   0.0000091   0.1246038  -0.0008729   0.0000086  -0.0000037  -0.9393115   0.2897923
0.0854095    -0.0005393   0.0000296   0.1245785  -0.0008876  -0.0000026  -0.0000074  -0.9392051   0.2896720
0.0864595    -0.0006163  -0.0000207   0.1245634  -0.0009058  -0.0000029   0.0000073  -0.9391912   0.2898053
0.0875224    -0.0005045   0.0000729   0.1245400  -0.0009547   0.0000034  -0.0000104  -0.9391330   0.2897833
0.0885983    -0.0005287   0.0000460   0.1245214  -0.0009573  -0.0000022  -0.0000038  -0.9390844   0.2898074
0.0896875    -0.0005254  -0.0000273   0.1245012  -0.0009903   0.0000089  -0.0000091  -0.9389901   0.2898603
0.0907900    -0.0004800  -0.0000390   0.1244749  -0.0010216  -0.0000058  -0.0000009  -0.9389029   0.2897670
0.0919061    -0.0006263   0.0000002   0.1244398  -0.0010247   0.0000026   0.0000009  -0.9387465   0.2898359
0.0930359    -0.0005316  -0.0000642   0.1244162  -0.0010689   0.0000012   0.0000016  -0.9387368   0.2897206
0.0941797    -0.0005666   0.0000266   0.1243929  -0.0010770   0.0000025   0.0000095  -0.9386642   0.2897788
0.0953374    -0.0006391  -0.0000187   0.1243931  -0.0011045  -0.0000047   0.0000036  -0.9386589   0.2896874
0.0965094    -0.0005403   0.0001256   0.1243609  -0.0011377   0.0000008  -0.0000022  -0.9385277   0.2897067
0.0976959    -0.0005220  -0.0000922   0.1243461  -0.0011508   0.0000064  -0.0000051  -0.9385353   0.2896980
0.0988969    -0.0006153   0.0000725   0.1243247  -0.0011743  -0.0000068  -0.0000015  -0.9384663   0.2896201
0.1001126    -0.0005115   0.0000512   0.1242963  -0.0011755  -0.0000042  -0.0000113  -0.9384273   0.2896009
0.1013433    -0.0004614  -0.0000120   0.1242611  -0.0012190  -0.0000066  -0.0000005  -0.9384162   0.2895283
0.1025892    -0.0005064   0.0000360   0.1242480  -0.0012512  -0.0000089  -0.0000156  -0.9383242   0.2894642
0.1038503    -0.0006823   0.0000317   0.1242101  -0.0012579  -0.0000061   0.0000026  -0.9383898   0.2893628
0.1051270    -0.0005700   0.0001333   0.1242017  -0.0012824  -0.0000042   0.0000032  -0.9384645   0.2893710
0.1064193    -0.0005808   0.0000727   0.1241783  -0.0012985  -0.0000009  -0.0000043  -0.9385210   0.2892712
0.1077276    -0.0005475   0.0001125   0.1241439  -0.0013270  -0.0000010   0.0000042  -0.9385561   0.2893075
0.1090519    -0.0005559   0.0000116   0.1241314  -0.0013392   0.0000081   0.0000023  -0.9386699   0.2891948
0.1103925    -0.0005916  -0.0000077   0.1240944  -0.0013584  -0.0000053  -0.0000082  -0.9386504   0.2892372
0.1117496    -0.0005936   0.0000164   0.1240749  -0.0013796   0.0000070  -0.0000009  -0.9387449   0.2892651
0.1131233    -0.0005196  -0.0000194   0.1240781  -0.0013922  -0.0000109  -0.0000063  -0.9388706   0.2892237
0.1145140    -0.0006057   0.0000060   0.1240369  -0.0014120  -0.0000020  -0.0000139  -0.9389367   0.2893050
0.1159217    -0.0006179   0.0000348   0.1239995  -0.0014317  -0.0000058  -0.0000006  -0.9389502   0.2893045
0.1173468    -0.0006015   0.0000300   0.1239857  -0.0014454   0.0000043  -0.0000100  -0.9390159   0.2893834
0.1187893    -0.0006281   0.0000667   0.1239760  -0.0014772  -0.0000015  -0.0000112  -0.9391408   0.2894386
0.1202497    -0.0006233  -0.0000074   0.1239479  -0.0014984  -0.0000076  -0.0000202  -0.9391425   0.2894774
0.1217279    -0.0005514  -0.0000213   0.1239354  -0.0015152   0.0000047   0.0000067  -0.9391774   0.2895602
0.1232243    -0.0005689   0.0000395   0.1238970  -0.0015098  -0.0000059  -0.0000097  -0.9393238   0.2897100
0.1247392    -0.0005552   0.0000644   0.1238807  -0.0015361  -0.0000005  -0.0000021  -0.9393441   0.2897610
0.1262726    -0.0006215   0.0000399   0.1238560  -0.0015657  -0.0000082  -0.0000107  -0.9393835   0.2898578
0.1278249    -0.0006234  -0.0000430   0.1238243  -0.0015738  -0.0000011  -0.0000062  -0.9393711   0.2899272
0.1293963    -0.0006069   0.0001040   0.1237923  -0.0016012  -0.0000038  -0.0000042  -0.9394349   0.2900448
0.1309870    -0.0005614  -0.0000325   0.1237720  -0.0016014   0.0000004  -0.0000140  -0.9394403   0.2901690
0.1325973    -0.0006049   0.0000296   0.1237531  -0.0016368  -0.0000006   0.0000020  -0.9394429   0.2901727
0.1342273    -0.0006211   0.0000097   0.1237051  -0.0016444  -0.0000030  -0.0000066  -0.9395119   0.2902830
0.1358774    -0.0004707  -0.0000394   0.1237114  -0.0016594  -0.0000045   0.0000028  -0.9394840   0.2904587
0.1375478    -0.0005201   0.0001030   0.1237039  -0.0016582   0.0000041  -0.0000011  -0.9395102   0.2904983
0.1392387    -0.0006565   0.0000099   0.1236511  -0.0017146  -0.0000016  -0.0000030  -0.9394896   0.2906542
0.1409504    -0.0005670  -0.0000327   0.1236368  -0.0017071  -0.0000098  -0.0000030  -0.9395416   0.2907525
0.1426831    -0.0005666   0.0000226   0.1236190  -0.0016968  -0.0000051  -0.0000032  -0.9395182   0.2907696
0.1444371    -0.0005615  -0.0001027   0.1235878  -0.0017401   0.0000040  -0.0000025  -0.9394529   0.2909111
0.1462127    -0.0005461   0.0000541   0.1235632  -0.0017646   0.0000011  -0.0000080  -0.9395321   0.2910522
0.1480102    -0.0005367   0.0000391   0.1235635  -0.0017634  -0.0000016  -0.0000117  -0.9394888   0.2911476
0.1498297    -0.0004831   0.0000198   0.1235339  -0.0017654  -0.0000046   0.0000006  -0.9394295   0.2911965
0.1516716    -0.0004958   0.0000120   0.1235088  -0.0017938  -0.0000031   0.0000037  -0.9394114   0.2913293
0.1535361    -0.0006587   0.0000780   0.1234804  -0.0017995  -0.0000056  -0.0000089  -0.9394468   0.2914228
0.1554236    -0.0005307   0.0000867   0.1234473  -0.0018067   0.0000006   0.0000022  -0.9394299   0.2915906
0.1573342    -0.0004827  -0.0000260   0.1234115  -0.0018236  -0.0000109  -0.0000090  -0.9393141   0.2916879
0.1592684    -0.0005182   0.0000742   0.1233901  -0.0018351   0.0000048   0.0000032  -0.9394186   0.2917255
0.1612263    -0.0005966   0.0001519   0.1233752  -0.0018270   0.0000049  -0.0000010  -0.9393069   0.2918717
0.1632083    -0.0005386   0.0000189   0.1233532  -0.0018559   0.0000052  -0.0000046  -0.9393931   0.2919294
0.1652147    -0.0005473   0.0000059   0.1233409  -0.0018673  -0.0000054   0.0000015  -0.9392935   0.2920767
0.1672457    -0.0005842   0.0000357   0.1233055  -0.0018812   0.0000058  -0.0000092  -0.9392819   0.2921465
0.1693017    -0.0005615   0.0001096   0.1232948  -0.0018993  -0.0000093  -0.0000026  -0.9392562   0.2921591
0.1713829    -0.0005185  -0.0000177   0.1232482  -0.0019015  -0.0000062  -0.0000029  -0.9392212   0.2923577
0.1734898    -0.0005329   0.0000165   0.1232402  -0.0019249  -0.0000008   0.0000005  -0.9391912   0.2923584
0.1756225    -0.0006060   0.0000082   0.1232061  -0.0019423   0.0000067  -0.0000024  -0.9391699   0.2925539
0.1777815    -0.0004429   0.0000278   0.1231984  -0.0019243  -0.0000031  -0.0000086  -0.9390592   0.2925714
0.1799670    -0.0005481   0.0001190   0.1231458  -0.0019508  -0.0000053  -0.0000102  -0.9390654   0.2927581
0.1821794    -0.0005650  -0.0000020   0.1231412  -0.0019568   0.0000027  -0.0000042  -0.9390483   0.2928551
0.1844190    -0.0005981   0.0000315   0.1231199  -0.0019780  -0.0000014  -0.0000113  -0.9391059   0.2929285
0.1866861    -0.0005545   0.0000500   0.1231090  -0.0019887  -0.0000025  -0.0000085  -0.9389236   0.2930493
0.1889811    -0.0005638   0.0000153   0.1230747  -0.0020037  -0.0000052  -0.0000045  -0.9389341   0.2931909
0.1913043    -0.0005385   0.0000038   0.1230311  -0.0019877  -0.0000022  -0.0000077  -0.9389398   0.2931881
0.1936560    -0.0005891   0.0000693   0.1230239  -0.0020227  -0.0000029   0.0000011  -0.9388743   0.2934055
0.1960367    -0.0005673   0.0000580   0.1229985  -0.0020293  -0.0000034  -0.0000113  -0.9388666   0.2935421
0.1984466    -0.0006498   0.0001566   0.1229917  -0.0020276  -0.0000069  -0.0000007  -0.9388003   0.2935264
0.2008861    -0.0005853  -0.0000013   0.1229522  -0.0020358  -0.0000035  -0.0000135  -0.9388468   0.2937072
0.2033557    -0.0005270  -0.0000339   0.1229133  -0.0020487  -0.0000017  -0.0000072  -0.9388149   0.2937507
0.2058556    -0.0005580   0.0000942   0.1228872  -0.0020467   0.0000063  -0.0000012  -0.9386165   0.2938308
0.2083862    -0.0005125   0.0000793   0.1228803  -0.0020544  -0.0000007  -0.0000098  -0.9386430   0.2939738
0.2109480    -0.0005662   0.0000665   0.1228514  -0.0020775  -0.0000041   0.0000037  -0.9386125   0.2940661
0.2135412    -0.0005771   0.0001173   0.1228069  -0.0020699   0.0000026  -0.0000099  -0.9385548   0.2941996
0.2161663    -0.0005259   0.0001007   0.1227940  -0.0020900   0.0000069  -0.0000061  -0.9385860   0.2942747
0.2188237    -0.0005489   0.0001661   0.1227897  -0.0020958  -0.0000015  -0.0000051  -0.9385893   0.2944157
0.2215137    -0.0004971  -0.0000424   0.1227591  -0.0020977  -0.0000176  -0.0000081  -0.9384733   0.2944849
0.2242369    -0.0005706   0.0001001   0.1227529  -0.0021108  -0.0000093  -0.0000156  -0.9383799   0.2946712
0.2269935    -0.0005705   0.0001079   0.1227174  -0.0021180  -0.0000070  -0.0000102  -0.9383557   0.2947396
0.2297839    -0.0006438   0.0000075   0.1226728  -0.0021121   0.0000008  -0.0000095  -0.9383288   0.2948782
0.2326087    -0.0005718  -0.0000036   0.1226640  -0.0021317  -0.0000072  -0.0000042  -0.9383012   0.2949777
0.2354682    -0.0005418   0.0000141   0.1226619  -0.0021347   0.0000062  -0.0000025  -0.9382314   0.2950852
0.2383629    -0.0004350   0.0000086   0.1226157  -0.0021330   0.0000095  -0.0000077  -0.9382402   0.2951383
0.2412932    -0.0005671  -0.0000103   0.1225943  -0.0021256  -0.0000204  -0.0000146  -0.9381400   0.2952565
0.2442594    -0.0005049   0.0000941   0.1225703  -0.0021307  -0.0000093   0.0000065  -0.9381314   0.2954319
0.2472622    -0.0005246   0.0000343   0.1225509  -0.0021565  -0.0000034  -0.0000044  -0.9381191   0.2955686
0.2503018    -0.0005618   0.0000521   0.1225123  -0.0021625  -0.0000125  -0.0000093  -0.9379876   0.2957517
0.2533788    -0.0005169   0.0000386   0.1225145  -0.0021718  -0.0000040   0.0000031  -0.9379655   0.2957465
0.2564937    -0.0005740   0.0001098   0.1224733  -0.0021761  -0.0000017  -0.0000116  -0.9379517   0.2958429
0.2596468    -0.0005320   0.0000566   0.1224641  -0.0021742  -0.0000103  -0.0000019  -0.9378675   0.2960615
0.2628387    -0.0005073   0.0000129   0.1224208  -0.0021850   0.0000019   0.0000031  -0.9378421   0.2962113
0.2660699    -0.0006062  -0.0000058   0.1223866  -0.0021895   0.0000030  -0.0000001  -0.9377637   0.2962477
0.2693407    -0.0005485  -0.0000232   0.1223796  -0.0021948   0.0000029   0.0000017  -0.9376920   0.2964796
0.2726518    -0.0005342   0.0000055   0.1223456  -0.0022060   0.0000098  -0.0000065  -0.9376563   0.2965318
0.2760036    -0.0005149  -0.0000727   0.1223329  -0.0021988  -0.0000009  -0.0000004  -0.9376370   0.2967253
0.2793966    -0.0005221   0.0000457   0.1223357  -0.0022089   0.0000015  -0.0000069  -0.9375655   0.2967840
0.2828312    -0.0005814  -0.0000120   0.1222968  -0.0022087  -0.0000054  -0.0000065  -0.9375553   0.2969881
0.2863082    -0.0005425   0.0000521   0.1222741  -0.0022153  -0.0000069  -0.0000156  -0.9374514   0.2970842
0.2898278    -0.0005341   0.0000706   0.1222386  -0.0022121   0.0000011  -0.0000148  -0.9373987   0.2972562
0.2933907    -0.0005637   0.0000415   0.1222321  -0.0022180  -0.0000071  -0.0000110  -0.9374491   0.2973166
0.2969975    -0.0006555  -0.0000111   0.1222146  -0.0022324   0.0000025  -0.0000002  -0.9373918   0.2974570
0.3006485    -0.0005447   0.0000957   0.1221915  -0.0022318  -0.0000037  -0.0000003  -0.9372446   0.2976492
0.3043445    -0.0004834   0.0000439   0.1221494  -0.0022291   0.0000030  -0.0000090  -0.9372233   0.2977212
0.3080858    -0.0006071  -0.0000009   0.1221508  -0.0022416   0.0000008  -0.0000047  -0.9371217   0.2978439
0.3118732    -0.0005866   0.0000485   0.1221169  -0.0022375  -0.0000029  -0.0000037  -0.9370846   0.2981255
0.3157071    -0.0005692  -0.0000026   0.1220945  -0.0022487   0.0000001  -0.0000051  -0.9369519   0.2981806
0.3195882    -0.0005864   0.0001075   0.1220848  -0.0022356  -0.0000056  -0.0000075  -0.9369621   0.2983713
0.3235170    -0.0005304   0.0000247   0.1220527  -0.0022539   0.0000005  -0.0000101  -0.9368877   0.2985743
0.3274941    -0.0006576  -0.0000025   0.1220170  -0.0022610  -0.0000171  -0.0000030  -0.9368245   0.2986018
0.3315200    -0.0005644   0.0000686   0.1219938  -0.0022584  -0.0000011  -0.0000002  -0.9366881   0.2987612
0.3355955    -0.0005123  -0.0000145   0.1219873  -0.0022629   0.0000024  -0.0000098  -0.9367534   0.2988743
0.3397210    -0.0005953   0.0000214   0.1219434  -0.0022571  -0.0000033  -0.0000140  -0.9366286   0.2991156
0.3438973    -0.0005532   0.0001184   0.1219542  -0.0022549   0.0000025  -0.0000018  -0.9365542   0.2991742
0.3481249    -0.0005840   0.0000162   0.1219248  -0.0022574  -0.0000090  -0.0000003  -0.9365513   0.2993079
0.3524045    -0.0005545   0.0000399   0.1219040  -0.0022785   0.0000071  -0.0000049  -0.9364981   0.2994654
0.3567367    -0.0005303   0.0000612   0.1218877  -0.0022562   0.0000048  -0.0000006  -0.9364733   0.2996630
0.3611221    -0.0005421   0.0000499   0.1218576  -0.0022785  -0.0000009  -0.0000053  -0.9363157   0.2998125
0.3655615    -0.0005470   0.0000728   0.1218365  -0.0022945   0.0000008   0.0000035  -0.9362350   0.2999891
0.3700554    -0.0004901   0.0000380   0.1218419  -0.0022781  -0.0000078   0.0000013  -0.9361766   0.3001423
0.3746046    -0.0005842   0.0000899   0.1218129  -0.0022702  -0.0000074   0.0000052  -0.9360952   0.3002810
0.3792097    -0.0005081  -0.0000143   0.1217722  -0.0022973   0.0000027  -0.0000014  -0.9360310   0.3005167
0.3838714    -0.0005900   0.0000713   0.1217678  -0.0022759  -0.0000147   0.0000006  -0.9360487   0.3006684
0.3885905    -0.0005799  -0.0000203   0.1217578  -0.0022722   0.0000014  -0.0000025  -0.9359445   0.3008066
0.3933675    -0.0005714   0.0000252   0.1217101  -0.0022983  -0.0000064  -0.0000079  -0.9358374   0.3010662
0.3982033    -0.0005286   0.0001596   0.1217107  -0.0023079   0.0000045  -0.0000028  -0.9357388   0.3011775
0.4030985    -0.0005893   0.0000067   0.1216796  -0.0022894  -0.0000013  -0.0000019  -0.9356822   0.3013380
0.4080538    -0.0006350   0.0001595   0.1216566  -0.0022929   0.0000088  -0.0000011  -0.9356213   0.3015114
0.4130701    -0.0005541  -0.0000159   0.1216411  -0.0023170  -0.0000030  -0.0000011  -0.9354990   0.3017008
0.4181481    -0.0005311   0.0001157   0.1216385  -0.0022987  -0.0000217  -0.0000123  -0.9354835   0.3019167
0.4232885    -0.0005622   0.0001503   0.1216007  -0.0022914   0.0000013  -0.0000042  -0.9353929   0.3020374
0.4284921    -0.0006154  -0.0000015   0.1215941  -0.0022990   0.0000050  -0.0000019  -0.9353126   0.3021829
0.4337597    -0.0005213   0.0000122   0.1215811  -0.0023071  -0.0000025  -0.0000129  -0.9351899   0.3024178
0.4390920    -0.0005106  -0.0000897   0.1215487  -0.0023117   0.0000014  -0.0000040  -0.9351455   0.3026475
0.4444898    -0.0005536   0.0001333   0.1215294  -0.0023248   0.0000003  -0.0000071  -0.9350953   0.3028394
0.4499541    -0.0005378   0.0000585   0.1215201  -0.0023101   0.0000018   0.0000071  -0.9349420   0.3029515
0.4554854    -0.0005453   0.0000428   0.1214857  -0.0023234  -0.0000024   0.0000004  -0.9349191   0.3031716
0.4610848    -0.0005045   0.0000574   0.1214668  -0.0023242   0.0000036  -0.0000010  -0.9347462   0.3034583
0.4667531    -0.0005564  -0.0000341   0.1214570  -0.0023311  -0.0000048  -0.0000122  -0.9347264   0.3035858
0.4724910    -0.0006570   0.0000304   0.1214342  -0.0023276   0.0000114  -0.0000039  -0.9345766   0.3037551
0.4782994    -0.0005748   0.0000781   0.1214164  -0.0023100  -0.0000062  -0.0000052  -0.9345650   0.3040264
0.4841793    -0.0005876   0.0001183   0.1213976  -0.0023241   0.0000106   0.0000023  -0.9344129   0.3041643
0.4901314    -0.0005832   0.0001648   0.1213699  -0.0023263   0.0000062  -0.0000086  -0.9344641   0.3044346
0.4961567    -0.0005573  -0.0000045   0.1213471  -0.0023224  -0.0000058  -0.0000014  -0.9343045   0.3046205
0.5022561    -0.0005574  -0.0000029   0.1213221  -0.0023241  -0.0000017  -0.0000053  -0.9341865   0.3048411
0.5084304    -0.0005800   0.0001389   0.1213275  -0.0023121  -0.0000013  -0.0000019  -0.9340425   0.3051119
0.5146807    -0.0006292   0.0001656   0.1213083  -0.0023294  -0.0000092  -0.0000063  -0.9339961   0.3052493
0.5210078    -0.0005941   0.0000323   0.1212742  -0.0023294   0.0000043  -0.0000041  -0.9338725   0.3054744
0.5274126    -0.0005382   0.0000130   0.1212778  -0.0023248  -0.0000064  -0.0000075  -0.9338402   0.3057256
0.5338963    -0.0005233   0.0000447   0.1212473  -0.0023250   0.0000003   0.0000057  -0.9337405   0.3059158
0.5404596    -0.0004608   0.0000476   0.1212382  -0.0023191  -0.0000084   0.0000050  -0.9336710   0.3062319
0.5471036    -0.0005621   0.0000767   0.1212151  -0.0023370  -0.0000094  -0.0000065  -0.9335276   0.3063257
0.5538292    -0.0006187  -0.0000019   0.1212109  -0.0023127   0.0000020  -0.0000054  -0.9334165   0.3066357
0.5606376    -0.0005067   0.0000808   0.1211818  -0.0023411  -0.0000026  -0.0000073  -0.9332411   0.3068205
0.5675297    -0.0005288   0.0000697   0.1211631  -0.0023470  -0.0000022  -0.0000028  -0.9331879   0.3071370
0.5745064    -0.0005171   0.0001365   0.1211295  -0.0023359   0.0000018   0.0000011  -0.9330557   0.3073340
0.5815690    -0.0005046   0.0000592   0.1211332  -0.0023426   0.0000020   0.0000047  -0.9330523   0.3075216
0.5887183    -0.0005883   0.0001015   0.1211048  -0.0023270  -0.0000109  -0.0000114  -0.9328489   0.3077647
0.5959556    -0.0006035   0.0000872   0.1210813  -0.0023396  -0.0000057  -0.0000093  -0.9327533   0.3080503
0.6032818    -0.0006092   0.0001237   0.1210757  -0.0023526  -0.0000051  -0.0000031  -0.9326622   0.3083318
0.6106981    -0.0004788   0.0000937   0.1210625  -0.0023290   0.0000033  -0.0000101  -0.9325332   0.3086434
0.6182056    -0.0005083   0.0001360   0.1210394  -0.0023492   0.0000045  -0.0000047  -0.9324797   0.3087512
0.6258053    -0.0005397   0.0000691   0.1210351  -0.0023412  -0.0000036   0.0000009  -0.9323100   0.3090988
0.6334985    -0.0005913   0.0001079   0.1210016  -0.0023267   0.0000043  -0.0000057  -0.9322906   0.3093580
0.6412862    -0.0005663   0.0001860   0.1209828  -0.0023553  -0.0000087  -0.0000039  -0.9320162   0.3096498
0.6491697    -0.0004855   0.0000938   0.1209667  -0.0023443  -0.0000025   0.0000017  -0.9320639   0.3099768
0.6571501    -0.0005088   0.0001254   0.1209570  -0.0023564  -0.0000156  -0.0000076  -0.9318527   0.3101546
0.6652286    -0.0005167   0.0001150   0.1209256  -0.0023562   0.0000013  -0.0000025  -0.9317385   0.3105023
0.6734064    -0.0005529   0.0001040   0.1209207  -0.0023734  -0.0000007  -0.0000128  -0.9316249   0.3107810
0.6816848    -0.0005495   0.0000987   0.1209210  -0.0023598  -0.0000108  -0.0000052  -0.9314518   0.3109770
0.6900649    -0.0005632   0.0000495   0.1208994  -0.0023472  -0.0000001  -0.0000024  -0.9313558   0.3112493
0.6985480    -0.0005775   0.0001378   0.1208953  -0.0023778  -0.0000011  -0.0000022  -0.9312130   0.3116300
0.7071355    -0.0006517   0.0001489   0.1208520  -0.0023756   0.0000024  -0.0000047  -0.9311384   0.3119213
0.7158284    -0.0005905   0.0002125   0.1208639  -0.0023711   0.0000018  -0.0000044  -0.9310515   0.3121998
0.7246283    -0.0005337   0.0000250   0.1208211  -0.0023762  -0.0000065  -0.0000022  -0.9308397   0.3124587
0.7335363    -0.0005756   0.0001158   0.1208125  -0.0023670   0.0000072  -0.0000030  -0.9308036   0.3127722
0.7425539    -0.0005417   0.0000925   0.1207887  -0.0023693  -0.0000014  -0.0000051  -0.9306783   0.3131388
0.7516822    -0.0005287   0.0001379   0.1207930  -0.0023717  -0.0000061   0.0000039  -0.9304417   0.3133883
0.7609229    -0.0005905  -0.0000315   0.1207766  -0.0023759  -0.0000108  -0.0000073  -0.9302693   0.3136903
0.7702771    -0.0004820   0.0001194   0.1207342  -0.0023959   0.0000060  -0.0000118  -0.9301103   0.3139566
0.7797463    -0.0004897   0.0000461   0.1207412  -0.0023785  -0.0000053  -0.0000039  -0.9299867   0.3143409
0.7893319    -0.0005537   0.0000461   0.1207243  -0.0023897  -0.0000011  -0.0000039  -0.9298566   0.3146606
0.7990353    -0.0004743   0.0000478   0.1207092  -0.0024003   0.0000108   0.0000006  -0.9297423   0.3149845
0.8088580    -0.0004626   0.0001629   0.1207020  -0.0023861  -0.0000011  -0.0000043  -0.9295781   0.3153214
0.8188015    -0.0006554   0.0001173   0.1206851  -0.0023921  -0.0000041  -0.0000032  -0.9294537   0.3156519
0.8288673    -0.0006240   0.0000056   0.1206669  -0.0024184  -0.0000032  -0.0000065  -0.9292674   0.3159989
0.8390567    -0.0005658   0.0001461   0.1206484  -0.0023945   0.0000029  -0.0000167  -0.9291964   0.3163791
0.8493714    -0.0004649   0.0001316   0.1206194  -0.0024015   0.0000081  -0.0000012  -0.9290133   0.3166715
0.8598130    -0.0005133   0.0000801   0.1205980  -0.0024005   0.0000073  -0.0000083  -0.9288463   0.3170546
0.8703829    -0.0005429   0.0001605   0.1205828  -0.0024082   0.0000037  -0.0000044  -0.9286617   0.3173866
0.8810827    -0.0005010   0.0001774   0.1205708  -0.0024215  -0.0000029  -0.0000054  -0.9285109   0.3178376
0.8919140    -0.0006349   0.0001484   0.1205514  -0.0024467   0.0000023  -0.0000108  -0.9283561   0.3181357
0.9028786    -0.0004634   0.0001427   0.1205505  -0.0024184  -0.0000092   0.0000004  -0.9281942   0.3185210
0.9139779    -0.0004355   0.0001362   0.1205261  -0.0024402  -0.0000026  -0.0000067  -0.9280326   0.3189216
0.9252136    -0.0005361   0.0001272   0.1205036  -0.0024387  -0.0000001  -0.0000139  -0.9278553   0.3192816
0.9365875    -0.0005503   0.0001316   0.1204976  -0.0024448  -0.0000034   0.0000006  -0.9276938   0.3196557
0.9481012    -0.0005220   0.0001176   0.1204813  -0.0024500  -0.0000017  -0.0000055  -0.9275186   0.3200543
0.9597564    -0.0005368   0.0000901   0.1204556  -0.0024539  -0.0000017  -0.0000023  -0.9273121   0.3204456
0.9715549    -0.0004956   0.0001860   0.1204458  -0.0024669  -0.0000036  -0.0000012  -0.9271461   0.3208858
0.9834985    -0.0004895   0.0000693   0.1204520  -0.0024397  -0.0000065  -0.0000013  -0.9270109   0.3212321
0.9955889    -0.0006270   0.0001168   0.1204259  -0.0024571  -0.0000032  -0.0000050  -0.9268638   0.3216050
1.0078279    -0.0005323   0.0000838   0.1204268  -0.0024759   0.0000107  -0.0000079  -0.9265545   0.3220619
1.0202173    -0.0005330   0.0000525   0.1203918  -0.0024753   0.0000011  -0.0000053  -0.9264578   0.3224213
1.0327591    -0.0005545   0.0000536   0.1203857  -0.0024904  -0.0000039  -0.0000004  -0.9262505   0.3229331
1.0454551    -0.0005075   0.0001424   0.1203696  -0.0024883   0.0000008  -0.0000101  -0.9260666   0.3233381
1.0583071    -0.0004110   0.0001745   0.1203752  -0.0024864  -0.0000013   0.0000049  -0.9258682   0.3237213
1.0713171    -0.0005316   0.0001814   0.1203500  -0.0024852  -0.0000064   0.0000018  -0.9255917   0.3241481
1.0844871    -0.0005216   0.0001507   0.1203451  -0.0025012  -0.0000048   0.0000027  -0.9254617   0.3245377
1.0978189    -0.0005111   0.0002228   0.1203160  -0.0025038   0.0000007   0.0000068  -0.9252756   0.3250599
1.1113147    -0.0004837   0.0001174   0.1203124  -0.0025077  -0.0000006  -0.0000055  -0.9250334   0.3254274
1.1249763    -0.0005786   0.0000243   0.1202912  -0.0025235  -0.0000013  -0.0000018  -0.9248774   0.3259905
1.1388059    -0.0005923   0.0001737   0.1202743  -0.0025159  -0.0000019  -0.0000060  -0.9247198   0.3264517
1.1528056    -0.0005814   0.0000481   0.1202416  -0.0025164  -0.0000044  -0.0000036  -0.9244583   0.3268988
1.1669773    -0.0006042   0.0001245   0.1202566  -0.0025300  -0.0000009  -0.0000082  -0.9242727   0.3273953
1.1813232    -0.0005503   0.0001241   0.1202215  -0.0025459  -0.0000031  -0.0000048  -0.9240773   0.3278585
1.1958455    -0.0005167   0.0001142   0.1202128  -0.0025501   0.0000009   0.0000004  -0.9238039   0.3283554
1.2105463    -0.0004752   0.0001294   0.1201969  -0.0025507  -0.0000031  -0.0000085  -0.9236208   0.3288517
1.2254278    -0.0006272   0.0001069   0.1201898  -0.0025562  -0.0000064   0.0000002  -0.9233540   0.3293477
1.2404923    -0.0005952   0.0001341   0.1201713  -0.0025727   0.0000005  -0.0000006  -0.9232183   0.3298264
1.2557420    -0.0005274   0.0001285   0.1201634  -0.0025783   0.0000060  -0.0000034  -0.9229541   0.3303611
1.2711791    -0.0005513   0.0001852   0.1201517  -0.0025819   0.0000058   0.0000032  -0.9226769   0.3308420
1.2868060    -0.0005724   0.0001001   0.1201433  -0.0026020  -0.0000086   0.0000018  -0.9224299   0.3313969
1.3026251    -0.0005093   0.0001969   0.1201077  -0.0026031   0.0000010  -0.0000178  -0.9221532   0.3319239
1.3186385    -0.0005980   0.0001407   0.1201218  -0.0026011  -0.0000032  -0.0000001  -0.9219294   0.3324706
1.3348489    -0.0005110   0.0001652   0.1200976  -0.0026090  -0.0000022  -0.0000067  -0.9217568   0.3330027
1.3512585    -0.0006063   0.0000400   0.1200855  -0.0026142  -0.0000067  -0.0000152  -0.9214508   0.3335168
1.3678698    -0.0005615   0.0001001   0.1200567  -0.0026266  -0.0000091  -0.0000157  -0.9212825   0.3340755
1.3846854    -0.0005181   0.0000522   0.1200375  -0.0026331   0.0000027  -0.0000135  -0.9210106   0.3347380
1.4017077    -0.0005128   0.0001945   0.1200428  -0.0026321   0.0000041   0.0000045  -0.9207423   0.3352204
1.4189392    -0.0005361   0.0001882   0.1200137  -0.0026660   0.0000006   0.0000001  -0.9205003   0.3357456
1.4363825    -0.0004776   0.0002698   0.1200135  -0.0026668  -0.0000072  -0.0000012  -0.9202484   0.3363581
1.4540403    -0.0004581   0.0002641   0.1199872  -0.0026708  -0.0000064  -0.0000011  -0.9199559   0.3369570
1.4719152    -0.0005194   0.0001991   0.1199863  -0.0026893   0.0000078   0.0000075  -0.9197156   0.3376479
1.4900098    -0.0005053   0.0001225   0.1199870  -0.0026809   0.0000059  -0.0000025  -0.9193985   0.3381595
1.5083269    -0.0005410   0.0001540   0.1199520  -0.0027012  -0.0000053   0.0000013  -0.9191216   0.3387463
1.5268691    -0.0004541   0.0002173   0.1199594  -0.0027090   0.0000075  -0.0000016  -0.9188447   0.3393919
1.5456392    -0.0005368   0.0001603   0.1199264  -0.0027145  -0.0000034  -0.0000016  -0.9186352   0.3399954
1.5646402    -0.0005617   0.0001365   0.1199175  -0.0027296   0.0000027  -0.0000022  -0.9183255   0.3407034
1.5838747    -0.0006367   0.0002046   0.1199008  -0.0027403  -0.0000058   0.0000018  -0.9180071   0.3413056
1.6033456    -0.0005116   0.0002010   0.1198914  -0.0027457  -0.0000038   0.0000005  -0.9178175   0.3419714
1.6230559    -0.0005818   0.0002084   0.1198624  -0.0027598   0.0000040  -0.0000088  -0.9174998   0.3426997
1.6430085    -0.0005348   0.0001860   0.1198698  -0.0027727  -0.0000092  -0.0000087  -0.9171685   0.3433497
1.6632064    -0.0005967   0.0001250   0.1198650  -0.0027561  -0.0000108  -0.0000073  -0.9168588   0.3440620
1.6836526    -0.0005948   0.0001178   0.1198343  -0.0027921   0.0000037  -0.0000099  -0.9166106   0.3447857
1.7043502    -0.0005608   0.0002199   0.1198216  -0.0028023   0.0000002  -0.0000113  -0.9161800   0.3455200
1.7253021    -0.0005542   0.0002784   0.1197997  -0.0027959  -0.0000079  -0.0000040  -0.9159925   0.3461715
1.7465117    -0.0005256   0.0001308   0.1198091  -0.0028346   0.0000025  -0.0000055  -0.9157903   0.3469968
1.7679820    -0.0004484   0.0001782   0.1197821  -0.0028413  -0.0000045   0.0000031  -0.9154066   0.3477171
1.7897162    -0.0004922   0.0001841   0.1197665  -0.0028408  -0.0000016  -0.0000074  -0.9151174   0.3484560
1.8117176    -0.0005904   0.0001801   0.1197766  -0.0028450  -0.0000088  -0.0000035  -0.9147761   0.3493066
1.8339895    -0.0004482   0.0001146   0.1197413  -0.0028754  -0.0000118  -0.0000034  -0.9144893   0.3500739
1.8565352    -0.0005331   0.0001973   0.1197495  -0.0028753  -0.0000061  -0.0000007  -0.9141587   0.3508992
1.8793580    -0.0005760   0.0002236   0.1197212  -0.0028956   0.0000050  -0.0000067  -0.9138773   0.3516445
1.9024614    -0.0005345   0.0002649   0.1197154  -0.0029062   0.0000034   0.0000019  -0.9136433   0.3524820
1.9258488    -0.0005475   0.0001700   0.1196804  -0.0029028  -0.0000040  -0.0000066  -0.9132013   0.3533232
1.9495237    -0.0006048   0.0001351   0.1196830  -0.0029478  -0.0000036  -0.0000086  -0.9128573   0.3542622
1.9734897    -0.0005364   0.0002182   0.1196566  -0.0029369  -0.0000027  -0.0000027  -0.9124967   0.3551210
1.9977503    -0.0005031   0.0002858   0.1196373  -0.0029527  -0.0000022  -0.0000100  -0.9121862   0.3560367
2.0223091    -0.0005386   0.0002260   0.1196356  -0.0029772   0.0000036  -0.0000066  -0.9117146   0.3569520
2.0471698    -0.0005709   0.0002732   0.1196090  -0.0029840   0.0000021  -0.0000058  -0.9112576   0.3578717
2.0723362    -0.0005996   0.0001426   0.1196205  -0.0029876  -0.0000052  -0.0000109  -0.9108508   0.3587810
2.0978119    -0.0005646   0.0001984   0.1195967  -0.0030124  -0.0000046  -0.0000081  -0.9103719   0.3597379
2.1236008    -0.0005424   0.0002991   0.1195783  -0.0030340  -0.0000093  -0.0000004  -0.9098752   0.3606545
2.1497067    -0.0004828   0.0001894   0.1195524  -0.0030358  -0.0000046  -0.0000022  -0.9093895   0.3616367
2.1761336    -0.0005131   0.0002509   0.1195521  -0.0030608  -0.0000068  -0.0000094  -0.9089004   0.3624516
2.2028853    -0.0005053   0.0002645   0.1195350  -0.0030688  -0.0000069  -0.0000036  -0.9082573   0.3634525
2.2299659    -0.0004873   0.0002712   0.1195183  -0.0030907  -0.0000041  -0.0000103  -0.9079217   0.3643863
2.2573794    -0.0005086   0.0002246   0.1194963  -0.0031136  -0.0000005   0.0000045  -0.9073349   0.3653268
2.2851299    -0.0005780   0.0002413   0.1194946  -0.0031211  -0.0000203  -0.0000078  -0.9067572   0.3662666
2.3132216    -0.0004436   0.0002412   0.1194828  -0.0031310  -0.0000061  -0.0000051  -0.9062437   0.3671181
2.3416586    -0.0004485   0.0001514   0.1194684  -0.0031556   0.0000013  -0.0000147  -0.9056892   0.3680784
2.3704451    -0.0005286   0.0002253   0.1194570  -0.0031731  -0.0000051  -0.0000091  -0.9051684   0.3691096
2.3995856    -0.0005718   0.0002294   0.1194649  -0.0031820  -0.0000066  -0.0000082  -0.9045189   0.3700807
2.4290843    -0.0005795   0.0002505   0.1194266  -0.0031927  -0.0000003  -0.0000136  -0.9041214   0.3709168
2.4589456    -0.0004651   0.0003240   0.1194190  -0.0032267  -0.0000015  -0.0000055  -0.9035454   0.3719175
2.4891740    -0.0004408   0.0002806   0.1194059  -0.0032253   0.0000065   0.0000046  -0.9030067   0.3729132
2.5197740    -0.0005896   0.0002743   0.1193725  -0.0032520  -0.0000101  -0.0000049  -0.9025121   0.3739415
2.5507502    -0.0005900   0.0002862   0.1193754  -0.0032602  -0.0000041   0.0000006  -0.9019500   0.3748543
2.5821072    -0.0004542   0.0002370   0.1193862  -0.0032706   0.0000005  -0.0000009  -0.9013914   0.3758758
2.6138496    -0.0004705   0.0002973   0.1193398  -0.0032822  -0.0000073  -0.0000027  -0.9007222   0.3768633
2.6459823    -0.0005492   0.0002636   0.1193189  -0.0033395  -0.0000029   0.0000048  -0.9001987   0.3779199
2.6785100    -0.0005432   0.0002741   0.1193222  -0.0033291  -0.0000082  -0.0000121  -0.8996597   0.3790409
2.7114376    -0.0004806   0.0003517   0.1193093  -0.0033508  -0.0000063  -0.0000062  -0.8990225   0.3800620
2.7447699    -0.0005878   0.0002907   0.1192964  -0.0033672   0.0000017  -0.0000063  -0.8984440   0.3810689
2.7785120    -0.0005185   0.0003783   0.1192856  -0.0033934  -0.0000026  -0.0000068  -0.8978285   0.3821643
2.8126689    -0.0005683   0.0003398   0.1192677  -0.0034003  -0.0000122   0.0000035  -0.8973122   0.3833147
2.8472457    -0.0004837   0.0002859   0.1192488  -0.0034333  -0.0000035  -0.0000070  -0.8967607   0.3844286
2.8822476    -0.0004965   0.0002411   0.1192421  -0.0034508   0.0000060   0.0000022  -0.8961782   0.3855124
2.9176798    -0.0004854   0.0002791   0.1192167  -0.0034654  -0.0000007  -0.0000141  -0.8955195   0.3866086
2.9535475    -0.0005120   0.0003148   0.1192158  -0.0034862  -0.0000058  -0.0000054  -0.8949483   0.3878070
2.9898562    -0.0005020   0.0002354   0.1191857  -0.0035111  -0.0000028  -0.0000049  -0.8942470   0.3890268
3.0266112    -0.0004896   0.0003157   0.1191873  -0.0035399  -0.0000014  -0.0000102  -0.8936296   0.3901293
3.0638180    -0.0005221   0.0002470   0.1191670  -0.0035557  -0.0000027  -0.0000106  -0.8929854   0.3913348
3.1014823    -0.0004815   0.0004159   0.1191712  -0.0035739   0.0000122   0.0000001  -0.8923790   0.3926033
3.1396096    -0.0004730   0.0002781   0.1191496  -0.0035883   0.0000007  -0.0000151  -0.8916534   0.3937399
3.1782055    -0.0006060   0.0003390   0.1191346  -0.0036201  -0.0000052  -0.0000060  -0.8910269   0.3950064
3.2172760    -0.0005486   0.0003657   0.1191224  -0.0036284  -0.0000021  -0.0000025  -0.8903442   0.3962763
3.2568267    -0.0004402   0.0003178   0.1191025  -0.0036759   0.0000000   0.0000010  -0.8897056   0.3975141
3.2968637    -0.0004879   0.0003475   0.1190729  -0.0036872   0.0000079  -0.0000071  -0.8889123   0.3988380
3.3373928    -0.0004701   0.0004578   0.1190850  -0.0037102  -0.0000055  -0.0000043  -0.8882090   0.4000991
3.3784202    -0.0005245   0.0002568   0.1190818  -0.0037290   0.0000017  -0.0000115  -0.8874257   0.4014749
3.4199519    -0.0004839   0.0002806   0.1190639  -0.0037720  -0.0000018  -0.0000072  -0.8867184   0.4027799
3.4619942    -0.0004653   0.0003042   0.1190495  -0.0037951   0.0000094  -0.0000015  -0.8859021   0.4040620
3.5045533    -0.0005085   0.0004050   0.1190197  -0.0038149  -0.0000130  -0.0000043  -0.8851955   0.4055343
3.5476356    -0.0004901   0.0003343   0.1190036  -0.0038305  -0.0000032  -0.0000072  -0.8844131   0.4068135
3.5912475    -0.0004860   0.0004173   0.1189970  -0.0038642   0.0000050  -0.0000068  -0.8835820   0.4081858
3.6353956    -0.0005163   0.0003477   0.1189922  -0.0038926  -0.0000033   0.0000033  -0.8828196   0.4096963
3.6800864    -0.0005854   0.0003826   0.1189542  -0.0038963  -0.0000019  -0.0000012  -0.8820544   0.4111741
3.7253266    -0.0004156   0.0004311   0.1189471  -0.0039413  -0.0000012   0.0000029  -0.8812237   0.4125975
3.7711229    -0.0004753   0.0003969   0.1189573  -0.0039604   0.0000036  -0.0000073  -0.8804596   0.4140384
3.8174822    -0.0005452   0.0003201   0.1189378  -0.0039914   0.0000054  -0.0000037  -0.8795996   0.4154965
3.8644115    -0.0004704   0.0003581   0.1189133  -0.0040355  -0.0000027  -0.0000005  -0.8788628   0.4170898
3.9119176    -0.0004788   0.0004199   0.1189046  -0.0040538   0.0000050  -0.0000047  -0.8780034   0.4186069
3.9600077    -0.0005715   0.0003611   0.1188881  -0.0040854  -0.0000003  -0.0000106  -0.8772529   0.4201030
4.0086890    -0.0005271   0.0003766   0.1188681  -0.0040979  -0.0000001  -0.0000011  -0.8762245   0.4216955
4.0579688    -0.0004477   0.0004549   0.1188499  -0.0041487   0.0000105  -0.0000087  -0.8753939   0.4232443
4.1078544    -0.0004987   0.0003989   0.1188358  -0.0041562   0.0000009  -0.0000062  -0.8745147   0.4247613
4.1583532    -0.0005204   0.0003581   0.1188377  -0.0041985  -0.0000076  -0.0000134  -0.8735491   0.4263804
4.2094729    -0.0004969   0.0004168   0.1188230  -0.0042242  -0.0000130  -0.0000085  -0.8727399   0.4279787
4.2612209    -0.0005076   0.0004100   0.1188108  -0.0042587   0.0000049  -0.0000003  -0.8717528   0.4295703
4.3136051    -0.0005401   0.0004646   0.1188032  -0.0042920   0.0000094  -0.0000038  -0.8707551   0.4312195
4.3666333    -0.0004391   0.0004662   0.1187869  -0.0042990  -0.0000042  -0.0000094  -0.8698497   0.4329018
4.4203134    -0.0005025   0.0004439   0.1187717  -0.0043373  -0.0000094  -0.0000055  -0.8687537   0.4345216
4.4746534    -0.0004972   0.0004672   0.1187492  -0.0043700  -0.0000100  -0.0000040  -0.8676684   0.4362446
4.5296613    -0.0005726   0.0005088   0.1187559  -0.0044043  -0.0000140  -0.0000062  -0.8666960   0.4379928
4.5853455    -0.0005127   0.0005635   0.1187209  -0.0044440   0.0000126  -0.0000056  -0.8655878   0.4397037
4.6417143    -0.0004595   0.0004543   0.1187082  -0.0044727   0.0000038  -0.0000010  -0.8644354   0.4412928
4.6987760    -0.0004821   0.0005143   0.1187002  -0.0045050  -0.0000146  -0.0000077  -0.8633619   0.4429503
4.7565392    -0.0003937   0.0004489   0.1186947  -0.0045389  -0.0000048  -0.0000118  -0.8622112   0.4446939
4.8150125    -0.0004864   0.0004311   0.1186587  -0.0045696   0.0000012  -0.0000054  -0.8610678   0.4463435
4.8742045    -0.0004780   0.0005192   0.1186677  -0.0046213   0.0000013  -0.0000100  -0.8598778   0.4479819
4.9341243    -0.0004651   0.0005856   0.1186635  -0.0046467  -0.0000079  -0.0000109  -0.8588102   0.4494953
4.9947807    -0.0003790   0.0004648   0.1186411  -0.0046754  -0.0000006  -0.0000013  -0.8578174   0.4510817
5.0561827    -0.0004947   0.0005183   0.1186469  -0.0047108  -0.0000007  -0.0000055  -0.8568059   0.4527803
5.1183396    -0.0005235   0.0005591   0.1186167  -0.0047623   0.0000014  -0.0000067  -0.8558557   0.4544847
5.1812606    -0.0004316   0.0005202   0.1186168  -0.0047859   0.0000041   0.0000007  -0.8549632   0.4562606
5.2449550    -0.0004820   0.0005389   0.1186068  -0.0048201  -0.0000038  -0.0000165  -0.8540537   0.4582926
5.3094325    -0.0004549   0.0005415   0.1185839  -0.0048718  -0.0000002  -0.0000129  -0.8530595   0.4601084
5.3747026    -0.0005229   0.0005599   0.1185502  -0.0049123  -0.0000032  -0.0000010  -0.8520304   0.4623129
5.4407751    -0.0005398   0.0006931   0.1185359  -0.0049470   0.0000050  -0.0000045  -0.8508710   0.4642557
5.5076599    -0.0004261   0.0005537   0.1185470  -0.0049811  -0.0000117  -0.0000096  -0.8497691   0.4663224
5.5753669    -0.0005131   0.0005303   0.1185120  -0.0050369   0.0000046  -0.0000046  -0.8485973   0.4684798
5.6439062    -0.0004927   0.0006443   0.1185063  -0.0050610   0.0000020  -0.0000020  -0.8474325   0.4705647
5.7132881    -0.0004300   0.0005483   0.1184867  -0.0051082  -0.0000053  -0.0000021  -0.8461542   0.4727491
5.7835229    -0.0005188   0.0005535   0.1184804  -0.0051509   0.0000120  -0.0000015  -0.8448744   0.4749231
5.8546211    -0.0005323   0.0005833   0.1184643  -0.0051854   0.0000019  -0.0000059  -0.8436650   0.4771559
5.9265934    -0.0004333   0.0005263   0.1184609  -0.0052421   0.0000031  -0.0000032  -0.8422969   0.4793258
5.9994504    -0.0005105   0.0005851   0.1184366  -0.0052611  -0.0000047  -0.0000054  -0.8409209   0.4814409
6.0732031    -0.0004898   0.0005659   0.1184208  -0.0053175  -0.0000113  -0.0000100  -0.8395623   0.4836481
6.1478624    -0.0003073   0.0006574   0.1184086  -0.0053666   0.0000063  -0.0000045  -0.8381859   0.4858738
6.2234396    -0.0004211   0.0005921   0.1184020  -0.0054009  -0.0000013  -0.0000036  -0.8366054   0.4881844
6.2999458    -0.0004121   0.0006214   0.1183981  -0.0054582  -0.0000015  -0.0000074  -0.8352632   0.4904485
6.3773925    -0.0004601   0.0007511   0.1183603  -0.0054918  -0.0000065  -0.0000109  -0.8337530   0.4927246
6.4557914    -0.0004788   0.0006621   0.1183622  -0.0055391   0.0000019  -0.0000044  -0.8322471   0.4949631
6.5351539    -0.0004574   0.0006859   0.1183433  -0.0055929  -0.0000016   0.0000001  -0.8307492   0.4973691
6.6154922    -0.0004671   0.0005956   0.1183182  -0.0056389   0.0000017  -0.0000067  -0.8291662   0.4997310
6.6968180    -0.0004463   0.0005669   0.1183011  -0.0056859  -0.0000013  -0.0000054  -0.8275994   0.5021189
6.7791436    -0.0003687   0.0006897   0.1182939  -0.0057395  -0.0000036  -0.0000061  -0.8260330   0.5044637
6.8624812    -0.0004634   0.0006725   0.1182695  -0.0057881  -0.0000017  -0.0000108  -0.8244187   0.5069328
6.9468433    -0.0005204   0.0006989   0.1182681  -0.0058371  -0.0000075   0.0000006  -0.8228260   0.5093485
7.0322425    -0.0005688   0.0007025   0.1182471  -0.0058938  -0.0000001  -0.0000017  -0.8211146   0.5118158
7.1186916    -0.0004453   0.0007119   0.1182347  -0.0059335   0.0000055  -0.0000068  -0.8194095   0.5143454
7.2062034    -0.0005650   0.0006739   0.1182152  -0.0059964  -0.0000054  -0.0000028  -0.8176992   0.5169044
7.2947909    -0.0005392   0.0007493   0.1182259  -0.0060438  -0.0000060  -0.0000003  -0.8159561   0.5194736
7.3844675    -0.0003926   0.0007769   0.1181882  -0.0060985  -0.0000109  -0.0000018  -0.8142863   0.5220747
7.4752466    -0.0004818   0.0007636   0.1181914  -0.0061565   0.0000062  -0.0000064  -0.8124937   0.5246904
7.5671416    -0.0005018   0.0006414   0.1181917  -0.0061968  -0.0000101   0.0000033  -0.8107805   0.5273408
7.6601662    -0.0004775   0.0008330   0.1181534  -0.0062451  -0.0000032  -0.0000058  -0.8089321   0.5300260
7.7543345    -0.0004659   0.0007897   0.1181511  -0.0063219  -0.0000011  -0.0000027  -0.8070409   0.5328550
7.8496604    -0.0004734   0.0007750   0.1181339  -0.0063662  -0.0000081  -0.0000079  -0.8052010   0.5356596
7.9461581    -0.0005157   0.0007625   0.1181149  -0.0064267  -0.0000041  -0.0000001  -0.8031845   0.5385086
8.0438422    -0.0004628   0.0008322   0.1181119  -0.0065055  -0.0000019   0.0000034  -0.8012046   0.5413537
8.1427270    -0.0004487   0.0006952   0.1180994  -0.0065426   0.0000042   0.0000010  -0.7990345   0.5443276
8.2428275    -0.0004285   0.0007889   0.1180620  -0.0066022   0.0000016   0.0000028  -0.7968067   0.5471867
8.3441586    -0.0003742   0.0008928   0.1180677  -0.0066688  -0.0000017   0.0000017  -0.7946318   0.5499687
8.4467353    -0.0004608   0.0008145   0.1180425  -0.0067389   0.0000085  -0.0000037  -0.7923743   0.5529673
8.5505731    -0.0004017   0.0009152   0.1180496  -0.0068142   0.0000036  -0.0000037  -0.7900742   0.5557386
8.6556873    -0.0004378   0.0008646   0.1180141  -0.0068533   0.0000022  -0.0000069  -0.7877981   0.5586649
8.7620937    -0.0004130   0.0007617   0.1179984  -0.0069245  -0.0000146  -0.0000022  -0.7855033   0.5615264
8.8698082    -0.0004519   0.0008807   0.1179888  -0.0069898   0.0000006  -0.0000076  -0.7831491   0.5644380
8.9788469    -0.0004686   0.0008741   0.1179679  -0.0070474   0.0000057  -0.0000060  -0.7808526   0.5673655
9.0892260    -0.0004673   0.0008220   0.1179555  -0.0071263  -0.0000017  -0.0000065  -0.7784899   0.5703176
9.2009621    -0.0003796   0.0009656   0.1179361  -0.0071904  -0.0000012  -0.0000011  -0.7759998   0.5733714
9.3140717    -0.0003852   0.0009350   0.1179280  -0.0072357   0.0000038   0.0000058  -0.7735743   0.5763568
9.4285718    -0.0003574   0.0008914   0.1179150  -0.0073169  -0.0000053  -0.0000121  -0.7711036   0.5794398
9.5444795    -0.0003829   0.0008784   0.1178972  -0.0073851  -0.0000082   0.0000062  -0.7685506   0.5825374
9.6618121    -0.0005266   0.0009537   0.1178629  -0.0074522   0.0000018  -0.0000043  -0.7660223   0.5856292
9.7805870    -0.0004982   0.0009621   0.1178550  -0.0075295   0.0000009   0.0000032  -0.7634060   0.5888029
9.9008221    -0.0004997   0.0009788   0.1178529  -0.0075999   0.0000039  -0.0000012  -0.7607542   0.5920226
10.0225353   -0.0004025   0.0010625   0.1178462  -0.0076570  -0.0000049  -0.0000083  -0.7581033   0.5951324
10.1457447   -0.0004391   0.0009394   0.1178274  -0.0077365  -0.0000039  -0.0000058  -0.7553612   0.5984296
10.2704688   -0.0004220   0.0010615   0.1177961  -0.0078100  -0.0000041  -0.0000085  -0.7526769   0.6017045
10.3967261   -0.0003886   0.0009983   0.1178024  -0.0078857  -0.0000061  -0.0000066  -0.7498397   0.6050384
10.5245356   -0.0003845   0.0010702   0.1177775  -0.0079563  -0.0000079  -0.0000076  -0.7469667   0.6082174
10.6539162   -0.0003989   0.0010847   0.1177626  -0.0080408   0.0000029   0.0000029  -0.7440703   0.6115378
10.7848873   -0.0004316   0.0010415   0.1177542  -0.0081227   0.0000005  -0.0000063  -0.7411368   0.6149778
10.9174685   -0.0004183   0.0010580   0.1177356  -0.0081928  -0.0000070  -0.0000035  -0.7381281   0.6183689
11.0516796   -0.0004829   0.0010059   0.1177185  -0.0082913  -0.0000045   0.0000037  -0.7349763   0.6217995
11.1875405   -0.0004621   0.0010929   0.1177073  -0.0083640   0.0000009  -0.0000076  -0.7319551   0.6253218
11.3250716   -0.0004450   0.0011432   0.1176793  -0.0084521  -0.0000013  -0.0000002  -0.7288001   0.6287838
11.4642934   -0.0003667   0.0011683   0.1176798  -0.0085211  -0.0000070  -0.0000020  -0.7255736   0.6322627
11.6052267   -0.0004176   0.0011076   0.1176659  -0.0086227  -0.0000104  -0.0000051  -0.7223402   0.6358978
11.7478926   -0.0003891   0.0010787   0.1176500  -0.0087084  -0.0000036   0.0000009  -0.7190147   0.6394037
11.8923122   -0.0004496   0.0012349   0.1176300  -0.0088031   0.0000007   0.0000002  -0.7156511   0.6429700
12.0385073   -0.0003904   0.0010933   0.1176118  -0.0088604  -0.0000075  -0.0000003  -0.7121713   0.6466395
12.1864995   -0.0004630   0.0011834   0.1176021  -0.0089797  -0.0000044  -0.0000095  -0.7086981   0.6502674
12.3363111   -0.0004131   0.0011421   0.1176117  -0.0090608  -0.0000098  -0.0000015  -0.7052440   0.6539590
12.4879643   -0.0004579   0.0012048   0.1175716  -0.0091520  -0.0000047  -0.0000026  -0.7015574   0.6576797
12.6414818   -0.0003689   0.0012005   0.1175738  -0.0092525   0.0000050  -0.0000068  -0.6978449   0.6613944
12.7968866   -0.0004352   0.0012279   0.1175451  -0.0093382   0.0000019  -0.0000131  -0.6941116   0.6651428
12.9542018   -0.0003387   0.0012344   0.1175305  -0.0094409   0.0000027   0.0000004  -0.6903715   0.6689079
13.1134509   -0.0003195   0.0012391   0.1175079  -0.0095276  -0.0000100  -0.0000035  -0.6864955   0.6727020
13.2746577   -0.0004431   0.0012298   0.1175215  -0.0096452  -0.0000033  -0.0000037  -0.6825288   0.6765492
13.4378462   -0.0003641   0.0013328   0.1174928  -0.0097314   0.0000116  -0.0000093  -0.6785797   0.6805044
13.6030409   -0.0003782   0.0012643   0.1174856  -0.0098408   0.0000024  -0.0000091  -0.6744924   0.6843455
13.7702663   -0.0003269   0.0012908   0.1174469  -0.0099357  -0.0000078   0.0000053  -0.6703140   0.6882447
13.9395475   -0.0004030   0.0012900   0.1174226  -0.0100314  -0.0000009  -0.0000010  -0.6661352   0.6921232
14.1109097   -0.0002839   0.0013176   0.1173971  -0.0101464  -0.0000038  -0.0000051  -0.6618006   0.6961022
14.2843785   -0.0003606   0.0013378   0.1173948  -0.0102379   0.0000052   0.0000030  -0.6574447   0.7000021
14.4599797   -0.0003653   0.0013615   0.1173991  -0.0103503   0.0000036  -0.0000067  -0.6530176   0.7040575
14.6377397   -0.0003111   0.0014359   0.1173692  -0.0104747  -0.0000093  -0.0000076  -0.6485291   0.7080584
14.8176850   -0.0003538   0.0013524   0.1173424  -0.0105639  -0.0000131   0.0000027  -0.6439510   0.7120446
14.9998423   -0.0004005   0.0014555   0.1173255  -0.0107003  -0.0000022  -0.0000131  -0.6392536   0.7161155
15.1842390   -0.0003498   0.0014287   0.1173185  -0.0108074  -0.0000130   0.0000049  -0.6344815   0.7202062
15.3709024   -0.0003748   0.0015403   0.1172853  -0.0109106  -0.0000048   0.0000017  -0.6297241   0.7242485
15.5598606   -0.0003760   0.0014426   0.1172771  -0.0110306  -0.0000054  -0.0000108  -0.6248621   0.7283607
15.7511417   -0.0002801   0.0014884   0.1172483  -0.0111352   0.0000019  -0.0000063  -0.6198680   0.7325479
15.9447743   -0.0003596   0.0015021   0.1172440  -0.0112607   0.0000020  -0.0000005  -0.6148227   0.7366409
16.1407872   -0.0003930   0.0015295   0.1172438  -0.0113829  -0.0000153  -0.0000110  -0.6095775   0.7408179
16.3392097   -0.0003251   0.0015323   0.1172089  -0.0114967  -0.0000056   0.0000011  -0.6043237   0.7450111
16.5400716   -0.0003963   0.0015963   0.1171842  -0.0116091  -0.0000077   0.0000002  -0.5990279   0.7492048
16.7434026   -0.0003340   0.0016243   0.1171734  -0.0117554  -0.0000112  -0.0000024  -0.5935454   0.7533613
16.9492333   -0.0003363   0.0015425   0.1171418  -0.0118751   0.0000049   0.0000022  -0.5880423   0.7577115
17.1575942   -0.0003087   0.0015864   0.1171309  -0.0120023  -0.0000039   0.0000064  -0.5824226   0.7618352
17.3685166   -0.0004002   0.0016017   0.1171077  -0.0121192  -0.0000002   0.0000013  -0.5767305   0.7661086
17.5820320   -0.0003149   0.0015998   0.1170943  -0.0122647  -0.0000036  -0.0000010  -0.5708657   0.7702965
17.7981721   -0.0002549   0.0017344   0.1170858  -0.0124071  -0.0000008  -0.0000063  -0.5649477   0.7746078
18.0169693   -0.0003289   0.0016629   0.1170687  -0.0125164  -0.0000148   0.0000015  -0.5589829   0.7788677
18.2384562   -0.0002888   0.0017767   0.1170492  -0.0126607  -0.0000088  -0.0000066  -0.5528978   0.7832294
18.4626659   -0.0003885   0.0016921   0.1170124  -0.0128166   0.0000017  -0.0000043  -0.5466180   0.7874117
18.6896319   -0.0003260   0.0017527   0.1169988  -0.0129581  -0.0000066   0.0000047  -0.5403799   0.7916946
18.9193880   -0.0003233   0.0018359   0.1169643  -0.0130807  -0.0000040  -0.0000020  -0.5338648   0.7960754
19.1519686   -0.0003801   0.0017408   0.1169509  -0.0132275   0.0000009  -0.0000067  -0.5272533   0.8003731
19.3874083   -0.0003285   0.0017412   0.1169213  -0.0133617  -0.0000090  -0.0000072  -0.5205907   0.8046701
19.6257423   -0.0003248   0.0017294   0.1169112  -0.0135217  -0.0000034  -0.0000054  -0.5139282   0.8090026
19.8670063   -0.0003027   0.0019138   0.1168939  -0.0136676  -0.0000003  -0.0000053  -0.5070653   0.8132444
20.1112361   -0.0002567   0.0018272   0.1168638  -0.0138230   0.0000014   0.0000039  -0.5000667   0.8175503
20.3584684   -0.0002852   0.0019839   0.1168417  -0.0139749  -0.0000109  -0.0000031  -0.4928451   0.8218131
20.6087399   -0.0003477   0.0018663   0.1168140  -0.0141226   0.0000064  -0.0000074  -0.4856078   0.8260492
20.8620881   -0.0002547   0.0019275   0.1167804  -0.0142733  -0.0000070   0.0000015  -0.4781752   0.8303917
21.1185507   -0.0002328   0.0020047   0.1167736  -0.0144471  -0.0000055   0.0000029  -0.4706816   0.8346281
21.3781661   -0.0003600   0.0019637   0.1167516  -0.0146044  -0.0000035  -0.0000010  -0.4630449   0.8387695
21.6409730   -0.0002252   0.0020175   0.1167303  -0.0147668  -0.0000039  -0.0000078  -0.4552968   0.8429882
21.9070107   -0.0002349   0.0020752   0.1166908  -0.0149245  -0.0000070   0.0000040  -0.4474480   0.8472129
22.1763188   -0.0001996   0.0020581   0.1166465  -0.0150931  -0.0000040   0.0000040  -0.4393970   0.8514093
22.4489376   -0.0002155   0.0020964   0.1166373  -0.0152602  -0.0000043  -0.0000038  -0.4312338   0.8556008
22.7249077   -0.0002538   0.0019870   0.1166006  -0.0154326  -0.0000006  -0.0000028  -0.4229033   0.8597198
23.0042705   -0.0002356   0.0021331   0.1165893  -0.0156083  -0.0000025   0.0000032  -0.4144679   0.8638397
23.2870675   -0.0002698   0.0022004   0.1165591  -0.0157878  -0.0000063   0.0000051  -0.4059703   0.8679089
23.5733409   -0.0002318   0.0022123   0.1165322  -0.0159716  -0.0000101  -0.0000119  -0.3971808   0.8719871
23.8631337   -0.0002421   0.0022211   0.1165024  -0.0161433  -0.0000095   0.0000009  -0.3882574   0.8759217
24.1564889   -0.0001196   0.0022292   0.1164640  -0.0163240  -0.0000145   0.0000020  -0.3793041   0.8799030
24.4534504   -0.0002648   0.0022332   0.1164396  -0.0164931  -0.0000039  -0.0000033  -0.3701540   0.8837846
24.7540625   -0.0001986   0.0023079   0.1164209  -0.0166964  -0.0000011  -0.0000056  -0.3608652   0.8877116
25.0583701   -0.0002524   0.0022736   0.1163728  -0.0168793   0.0000015  -0.0000007  -0.3513553   0.8915770
25.3664186   -0.0002095   0.0023201   0.1163490  -0.0170665  -0.0000058  -0.0000061  -0.3416299   0.8953736
25.6782541   -0.0001751   0.0024468   0.1163066  -0.0172645   0.0000039  -0.0000031  -0.3318719   0.8991532
25.9939230   -0.0002678   0.0023502   0.1162766  -0.0174466  -0.0000041  -0.0000050  -0.3219447   0.9027781
26.3134725   -0.0001615   0.0024185   0.1162595  -0.0176702   0.0000036  -0.0000035  -0.3118192   0.9063520
26.6369503   -0.0001972   0.0024672   0.1162161  -0.0178648  -0.0000030  -0.0000139  -0.3015927   0.9099376
26.9644047   -0.0001973   0.0024079   0.1161977  -0.0180749   0.0000019   0.0000037  -0.2911556   0.9134289
27.2958846   -0.0001675   0.0024504   0.1161646  -0.0182556  -0.0000076   0.0000021  -0.2805167   0.9167797
27.6314394   -0.0001778   0.0025252   0.1161277  -0.0184878  -0.0000017  -0.0000051  -0.2698048   0.9201340
27.9711193   -0.0000819   0.0025494   0.1160774  -0.0186958   0.0000071  -0.0000031  -0.2588429   0.9232956
28.3149750   -0.0001630   0.0025900   0.1160366  -0.0189116   0.0000039  -0.0000051  -0.2477763   0.9264440
28.6630578   -0.0001609   0.0025773   0.1160236  -0.0191231  -0.0000087  -0.0000003  -0.2365017   0.9294491
29.0154196   -0.0000736   0.0026385   0.1159873  -0.0193583  -0.0000064  -0.0000030  -0.2250419   0.9323611
29.3721131   -0.0000921   0.0026447   0.1159388  -0.0195737   0.0000014  -0.0000039  -0.2134533   0.9351741
29.7331915   -0.0000817   0.0026752   0.1158941  -0.0197866  -0.0000054  -0.0000036  -0.2016027   0.9379710
30.0987087   -0.0000611   0.0027793   0.1158625  -0.0200129  -0.0000033   0.0000123  -0.1897006   0.9405994
30.4687194   -0.0001648   0.0027897   0.1158211  -0.0202550  -0.0000021  -0.0000058  -0.1775500   0.9431766
30.8432786   -0.0001055   0.0028682   0.1157743  -0.0204827  -0.0000102   0.0000030  -0.1652043   0.9454509
31.2224424   -0.0000241   0.0028059   0.1157474  -0.0207190   0.0000061   0.0000027  -0.1527992   0.9476807
31.6062674   -0.0001549   0.0027926   0.1156901  -0.0209621  -0.0000091  -0.0000072  -0.1400337   0.9498177
31.9948108   -0.0001373   0.0028686   0.1156506  -0.0212210   0.0000000   0.0000043  -0.1271896   0.9518871
32.3881306   -0.0001346   0.0028766   0.1156115  -0.0214609  -0.0000007  -0.0000042  -0.1141830   0.9537462
32.7862857   -0.0001127   0.0029449   0.1155421  -0.0216965  -0.0000070  -0.0000062  -0.1009629   0.9553778
33.1893353   -0.0000483   0.0029991   0.1154832  -0.0219550  -0.0000018  -0.0000006  -0.0875903   0.9570247
33.5973398   -0.0000496   0.0030355   0.1154402  -0.0221993   0.0000037  -0.0000116  -0.0740442   0.9583378
34.0103599   -0.0001405   0.0030473   0.1154017  -0.0224537  -0.0000011   0.0000036  -0.0602129   0.9594876
34.4284574   -0.0001357   0.0030891   0.1153773  -0.0227143  -0.0000075  -0.0000028  -0.0465159   0.9606917
34.8516946   -0.0000988   0.0030774   0.1153210  -0.0229819  -0.0000053   0.0000028  -0.0322434   0.9616950
35.2801349   -0.0000655   0.0031613   0.1152660  -0.0232576  -0.0000032  -0.0000036  -0.0177784   0.9624635
35.7138420   -0.0000560   0.0032058   0.1152068  -0.0235370  -0.0000069  -0.0000060  -0.0032039   0.9628964
36.1528808    0.0000044   0.0032673   0.1151599  -0.0238133  -0.0000086  -0.0000063   0.0115347   0.9632563
36.5973168   -0.0000207   0.0032824   0.1151134  -0.0240663   0.0000000  -0.0000055   0.0264333   0.9633738
37.0472164   -0.0000571   0.0033241   0.1150425  -0.0243561  -0.0000010  -0.0000025   0.0415912   0.9631242
37.5026467   -0.0000232   0.0033204   0.1149808  -0.0246549   0.0000005  -0.0000051   0.0569194   0.9628974
37.9636757    0.0000278   0.0034619   0.1149057  -0.0249441  -0.0000025  -0.0000048   0.0726387   0.9619464
38.4303722   -0.0000426   0.0034658   0.1148507  -0.0252306   0.0000012  -0.0000023   0.0881824   0.9611452
38.9028060   -0.0000315   0.0034352   0.1147885  -0.0255230   0.0000032   0.0000041   0.1040381   0.9599848
39.3810475    0.0000362   0.0035317   0.1147200  -0.0258234  -0.0000019   0.0000034   0.1201362   0.9586652
39.8651681    0.0000039   0.0035208   0.1146505  -0.0261241  -0.0000008   0.0000047   0.1362896   0.9569852
40.3552402    0.0000259   0.0035821   0.1145827  -0.0264432   0.0000052   0.0000025   0.1527017   0.9550329
40.8513368    0.0000641   0.0036536   0.1145450  -0.0267481  -0.0000009  -0.0000083   0.1693457   0.9526915
41.3535320    0.0000191   0.0036868   0.1144536  -0.0270711  -0.0000069  -0.0000035   0.1860114   0.9501695
41.8619009    0.0000306   0.0037943   0.1143781  -0.0273790  -0.0000012   0.0000013   0.2030277   0.9472720
42.3765193    0.0000921   0.0037603   0.1142971  -0.0276958   0.0000010  -0.0000008   0.2201222   0.9440599
42.8974639    0.0000882   0.0037834   0.1142325  -0.0280372  -0.0000026   0.0000052   0.2373514   0.9404513
43.4248127    0.0000750   0.0037779   0.1141728  -0.0283696   0.0000010  -0.0000060   0.2547651   0.9366341
43.9586443    0.0001021   0.0038870   0.1140735  -0.0286864   0.0000045  -0.0000092   0.2723270   0.9323410
44.4990385    0.0000945   0.0039028   0.1139987  -0.0290475  -0.0000060   0.0000010   0.2900678   0.9276746
45.0460758    0.0001789   0.0039582   0.1139102  -0.0293759   0.0000030   0.0000042   0.3079234   0.9226692
45.5998380    0.0001067   0.0041061   0.1138184  -0.0297230  -0.0000014  -0.0000026   0.3258964   0.9172927
46.1604077    0.0001975   0.0039832   0.1137177  -0.0300711  -0.0000057  -0.0000096   0.3439905   0.9114112
46.7278686    0.0001261   0.0040856   0.1136723  -0.0304234  -0.0000078  -0.0000061   0.3622095   0.9051561
47.3023055    0.0001705   0.0041866   0.1135509  -0.0307934  -0.0000035   0.0000063   0.3805383   0.8984954
47.8838040    0.0002393   0.0041814   0.1134599  -0.0311375   0.0000035  -0.0000116   0.3990787   0.8913030
48.4724511    0.0002677   0.0043531   0.1133729  -0.0315103  -0.0000043   0.0000037   0.4175483   0.8837820
49.0683345    0.0002402   0.0043464   0.1132658  -0.0318984  -0.0000065   0.0000016   0.4362200   0.8757527
49.6715433    0.0001541   0.0044871   0.1131832  -0.0322536  -0.0000056  -0.0000091   0.4548566   0.8672616
50.2821675    0.0002666   0.0043568   0.1130752  -0.0326492  -0.0000049  -0.0000026   0.4737366   0.8581977
50.9002982    0.0001989   0.0045043   0.1129657  -0.0330317  -0.0000001  -0.0000023   0.4925113   0.8486204
51.5260277    0.0002638   0.0045380   0.1128552  -0.0334155   0.0000016  -0.0000145   0.5114078   0.8386844
52.1594495    0.0002615   0.0044952   0.1127405  -0.0338116   0.0000007  -0.0000111   0.5302185   0.8281260
52.8006581    0.0003126   0.0045568   0.1126434  -0.0342411   0.0000019  -0.0000070   0.5491565   0.8169084
53.4497492    0.0003352   0.0046609   0.1125294  -0.0346298   0.0000038  -0.0000035   0.5682259   0.8053365
54.1068198    0.0003316   0.0046897   0.1123720  -0.0350342   0.0000014  -0.0000070   0.5870810   0.7931806
54.7719678    0.0003382   0.0047555   0.1122712  -0.0354554  -0.0000080  -0.0000108   0.6059003   0.7804755
55.4452927    0.0003320   0.0048400   0.1121404  -0.0358646  -0.0000031   0.0000036   0.6248029   0.7668483
56.1268950    0.0002885   0.0048977   0.1120128  -0.0363152  -0.0000012  -0.0000006   0.6436129   0.7528409
56.8168763    0.0003552   0.0049900   0.1119064  -0.0367384  -0.0000113  -0.0000002   0.6623330   0.7382715
57.5153398    0.0004358   0.0050033   0.1117548  -0.0371916  -0.0000006  -0.0000099   0.6809259   0.7230836
58.2223896    0.0004349   0.0050646   0.1116173  -0.0376230   0.0000062  -0.0000063   0.6993919   0.7071741
58.9381314    0.0003923   0.0050673   0.1114721  -0.0380652   0.0000077  -0.0000018   0.7177304   0.6906869
59.6626719    0.0003648   0.0051581   0.1113164  -0.0384891   0.0000018  -0.0000044   0.7358872   0.6734457
60.3961194    0.0004833   0.0052492   0.1111903  -0.0389538  -0.0000076  -0.0000076   0.7539451   0.6555725
61.1385834    0.0005219   0.0052567   0.1110316  -0.0394291   0.0000077  -0.0000151   0.7717916   0.6369847
61.8901746    0.0004999   0.0053409   0.1108908  -0.0398837  -0.0000007  -0.0000055   0.7892939   0.6177425
62.6510053    0.0005172   0.0053329   0.1107157  -0.0403463  -0.0000042  -0.0000129   0.8065969   0.5978861
63.4211891    0.0005433   0.0054571   0.1105603  -0.0408500  -0.0000005   0.0000010   0.8236544   0.5771804
64.2008409    0.0005423   0.0055940   0.1103920  -0.0413101  -0.0000013  -0.0000071   0.8403290   0.5559154
64.9900772    0.0005285   0.0055655   0.1102347  -0.0418181   0.0000060  -0.0000039   0.8567017   0.5338548
65.7890158    0.0005715   0.0056328   0.1100574  -0.0423048   0.0000066  -0.0000067   0.8726612   0.5111127
66.5977759    0.0006507   0.0056909   0.1098596  -0.0427978  -0.0000110   0.0000004   0.8881822   0.4875516
67.4164783    0.0006195   0.0057308   0.1096803  -0.0433153   0.0000024  -0.0000098   0.9034119   0.4632958
68.2452452    0.0006725   0.0058333   0.1094983  -0.0438262  -0.0000016  -0.0000030   0.9180764   0.4384124
69.0842003    0.0007022   0.0059299   0.1093260  -0.0443593  -0.0000021  -0.0000152   0.9322427   0.4127304
69.9334689    0.0006442   0.0060172   0.1090828  -0.0448692  -0.0000106  -0.0000085   0.9455765   0.3863505
70.7931778    0.0006834   0.0061139   0.1088400  -0.0453767   0.0000082  -0.0000021   0.9591080   0.3591561
71.6634552    0.0007101   0.0060524   0.1086738  -0.0459132  -0.0000035  -0.0000070   0.9716677   0.3310241
72.5444312    0.0007345   0.0062603   0.1084351  -0.0464359   0.0000123   0.0000005   0.9836817   0.3023485
73.4362373    0.0007398   0.0062372   0.1082374  -0.0469992  -0.0000012  -0.0000107   0.9948434   0.2729349
74.3390065    0.0009157   0.0064158   0.1080378  -0.0475719   0.0000080  -0.0000129   1.0046945   0.2431284
75.2528737    0.0008521   0.0064260   0.1077763  -0.0481282  -0.0000040  -0.0000102   1.0143737   0.2123149
76.1779753    0.0008646   0.0064714   0.1075381  -0.0486947  -0.0000051  -0.0000124   1.0232854   0.1808396
77.1144493    0.0008577   0.0065719   0.1072837  -0.0492604  -0.0000026  -0.0000045   1.0313023   0.1486103
78.0624357    0.0008794   0.0065606   0.1070518  -0.0498507  -0.0000029  -0.0000080   1.0384154   0.1157628
79.0220759    0.0009078   0.0067470   0.1068097  -0.0504577   0.0000002  -0.0000036   1.0445212   0.0821697
79.9935132    0.0009554   0.0068121   0.1065485  -0.0510363   0.0000041  -0.0000131   1.0496229   0.0480313
80.9768926    0.0010179   0.0068454   0.1062916  -0.0516366  -0.0000064  -0.0000116   1.0537186   0.0132410
81.9723609    0.0009729   0.0068739   0.1059939  -0.0522509   0.0000053  -0.0000071   1.0567157  -0.0222640
82.9800667    0.0010155   0.0069268   0.1056928  -0.0528620  -0.0000016  -0.0000180   1.0586042  -0.0582525
84.0001605    0.0010760   0.0070360   0.1054276  -0.0534838   0.0000053  -0.0000160   1.0593000  -0.0947391
85.0327946    0.0011294   0.0072156   0.1050930  -0.0541169   0.0000022  -0.0000081   1.0586965  -0.1319093
86.0781231    0.0011363   0.0072164   0.1047926  -0.0547398   0.0000029  -0.0000101   1.0568105  -0.1694968
87.1363020    0.0011415   0.0074101   0.1045095  -0.0553869   0.0000048  -0.0000041   1.0536046  -0.2074041
88.2074894    0.0012274   0.0074950   0.1041722  -0.0560298  -0.0000051  -0.0000155   1.0489040  -0.2458368
89.2918452    0.0011979   0.0075390   0.1038437  -0.0566403  -0.0000005  -0.0000021   1.0430306  -0.2849234
90.3895312    0.0011884   0.0075489   0.1034978  -0.0573309  -0.0000024  -0.0000180   1.0355088  -0.3237174
91.5007114    0.0013293   0.0076085   0.1031466  -0.0580085  -0.0000084  -0.0000163   1.0264270  -0.3630294
92.6255515    0.0013231   0.0076484   0.1027641  -0.0586738  -0.0000034  -0.0000041   1.0155656  -0.4024850
93.7642195    0.0013703   0.0077900   0.1024129  -0.0593378  -0.0000052  -0.0000188   1.0031624  -0.4420937
94.9168855    0.0014163   0.0079209   0.1020307  -0.0600094  -0.0000125  -0.0000104   0.9892346  -0.4818269
96.0837215    0.0014361   0.0079946   0.1016138  -0.0607193  -0.0000039  -0.0000178   0.9734644  -0.5215695
97.2649017    0.0014653   0.0081051   0.1012072  -0.0614002  -0.0000004  -0.0000104   0.9559370  -0.5609835
98.4606024    0.0014545   0.0081038   0.1008084  -0.0621078  -0.0000038  -0.0000064   0.9365502  -0.6005025
99.6710021    0.0014694   0.0082534   0.1003925  -0.0628279  -0.0000145  -0.0000062   0.9153443  -0.6396754
100.8962816   0.0015405   0.0083492   0.0999662  -0.0635441  -0.0000102  -0.0000124   0.8922365  -0.6784421
102.1366237   0.0016169   0.0084840   0.0994816  -0.0642701   0.0000052  -0.0000179   0.8671283  -0.7166929
103.3922136   0.0016284   0.0085761   0.0990374  -0.0649816  -0.0000096  -0.0000112   0.8401955  -0.7544722
104.6632389   0.0016372   0.0087357   0.0985627  -0.0657384  -0.0000105  -0.0000055   0.8113415  -0.7912682
105.9498891   0.0016912   0.0087459   0.0981010  -0.0664411  -0.0000069  -0.0000089   0.7803574  -0.8250929
107.2523564   0.0018729   0.0088358   0.0975444  -0.0672117  -0.0000016  -0.0000085   0.7458400  -0.8653272
108.5708353   0.0018554   0.0089750   0.0970443  -0.0679536  -0.0000106  -0.0000041   0.7121824  -0.8993932
109.9055225   0.0018382   0.0090954   0.0965473  -0.0686284   0.0000076  -0.0000064   0.6774515  -0.9319120
111.2566174   0.0018261   0.0090748   0.0960234  -0.0693949  -0.0000017  -0.0000120   0.6366632  -0.9623526
112.6243216   0.0019410   0.0092914   0.0954996  -0.0702030   0.0000017  -0.0000150   0.5956314  -0.9930429
114.0088393   0.0020076   0.0093829   0.0949118  -0.0709625  -0.0000127  -0.0000032   0.5528684  -1.0220177
115.4103773   0.0021316   0.0094991   0.0943197  -0.0717255  -0.0000076  -0.0000214   0.5080600  -1.0493846
116.8291446   0.0021585   0.0095081   0.0937157  -0.0725007   0.0000125  -0.0000049   0.4616156  -1.0748125
118.2653533   0.0022094   0.0097188   0.0931368  -0.0732825  -0.0000004  -0.0000118   0.4131618  -1.0983546
119.7192175   0.0022600   0.0098020   0.0925094  -0.0740867  -0.0000147  -0.0000006   0.3630310  -1.1198741
121.1909545   0.0022025   0.0098699   0.0918598  -0.0748620  -0.0000096  -0.0000137   0.3112472  -1.1389094
122.6807839   0.0023502   0.0098766   0.0912042  -0.0756533  -0.0000186  -0.0000183   0.2578829  -1.1556283
124.1889281   0.0024140   0.0100707   0.0905470  -0.0764463   0.0000025  -0.0000021   0.2030196  -1.1697805
125.7156123   0.0024784   0.0102468   0.0898632  -0.0772000  -0.0000108  -0.0000053   0.1468018  -1.1813263
127.2610644   0.0024887   0.0102238   0.0891922  -0.0780270  -0.0000061  -0.0000096   0.0899457  -1.1898236
128.8255151   0.0025597   0.0104028   0.0884859  -0.0788157  -0.0000125  -0.0000101   0.0310541  -1.1954536
130.4091980   0.0026417   0.0104664   0.0877578  -0.0796243  -0.0000132  -0.0000125  -0.0282397  -1.1979713
132.0123495   0.0026089   0.0106011   0.0870254  -0.0804628  -0.0000062  -0.0000027  -0.0885005  -1.1971293
133.6352088   0.0028613   0.0108206   0.0862303  -0.0812809  -0.0000239  -0.0000059  -0.1491135  -1.1931309
135.2780184   0.0027878   0.0109278   0.0854772  -0.0821030  -0.0000031  -0.0000057  -0.2103454  -1.1854267
136.9410235   0.0028760   0.0109431   0.0846480  -0.0829391  -0.0000093  -0.0000137  -0.2717939  -1.1740384
138.6244722   0.0029450   0.0110376   0.0837995  -0.0837534  -0.0000096  -0.0000023  -0.3330388  -1.1591738
140.3286160   0.0029889   0.0113189   0.0829610  -0.0845855  -0.0000127  -0.0000127  -0.3943408  -1.1406394
142.0537093   0.0030303   0.0113010   0.0821757  -0.0853739  -0.0000183  -0.0000196  -0.4577303  -1.1193078
143.8000095   0.0030797   0.0115207   0.0812170  -0.0862533  -0.0000058   0.0000000  -0.5114804  -1.0920313
145.5677774   0.0031429   0.0116122   0.0802566  -0.0871368   0.0000058  -0.0000122  -0.5686752  -1.0596310
147.3572769   0.0034904   0.0116339   0.0793815  -0.0878598  -0.0000021  -0.0000169  -0.6296031  -1.0274029
149.1687752   0.0033984   0.0118058   0.0784378  -0.0886787   0.0000015  -0.0000091  -0.6842854  -0.9897038
151.0025426   0.0035724   0.0119761   0.0774335  -0.0895182  -0.0000053  -0.0000193  -0.7376444  -0.9478988
152.8588530   0.0035112   0.0121836   0.0764385  -0.0902921  -0.0000013  -0.0000092  -0.7884430  -0.9023780
154.7379834   0.0036076   0.0121966   0.0754319  -0.0911400  -0.0000086  -0.0000110  -0.8368112  -0.8532143
156.6402144   0.0036092   0.0123391   0.0744348  -0.0919368  -0.0000084  -0.0000061  -0.8822036  -0.8005717
158.5658301   0.0038545   0.0125006   0.0733609  -0.0927066  -0.0000037   0.0000147  -0.9241073  -0.7445390
160.5151177   0.0037920   0.0126672   0.0723088  -0.0934720   0.0000014  -0.0000065  -0.9630209  -0.6849737
162.4883685   0.0039862   0.0127658   0.0710684  -0.0943696   0.0000013  -0.0000028  -0.9967976  -0.6237559
164.4858769   0.0039919   0.0130534   0.0700037  -0.0950947   0.0000046  -0.0000033  -1.0278789  -0.5582318
166.5079411   0.0041216   0.0130699   0.0688536  -0.0959263  -0.0000070  -0.0000102  -1.0539276  -0.4910024
168.5548630   0.0041556   0.0131900   0.0676544  -0.0966446  -0.0000107   0.0000016  -1.0755896  -0.4214285
170.6269483   0.0043869   0.0133434   0.0664402  -0.0974556  -0.0000006  -0.0000172  -1.0920161  -0.3500769
172.7245062   0.0045132   0.0134186   0.0652201  -0.0982095   0.0000046  -0.0000030  -1.1035268  -0.2774294
174.8478498   0.0043942   0.0134620   0.0640124  -0.0989059   0.0000061  -0.0000036  -1.1094082  -0.2032648
176.9972963   0.0045515   0.0137805   0.0627079  -0.0996949   0.0000235  -0.0000062  -1.1102204  -0.1277967
179.1731664   0.0047139   0.0138942   0.0609572  -0.1011461  -0.0000187  -0.0000088  -1.1019377  -0.0580540
181.3757850   0.0046527   0.0138136   0.0597881  -0.1009416  -0.0000020  -0.0000058  -1.0923748   0.0172629
183.6054809   0.0048204   0.0140757   0.0587223  -0.1018226  -0.0000115  -0.0000014  -1.0773858   0.0954521
185.8625870   0.0049495   0.0144074   0.0573319  -0.1024790  -0.0000271  -0.0000083  -1.0548059   0.1676861
188.1474402   0.0050652   0.0143243   0.0559037  -0.1032167  -0.0000045  -0.0000041  -1.0266452   0.2388777
190.4603817   0.0055488   0.0145172   0.0544668  -0.1038509  -0.0000241  -0.0000166  -0.9928692   0.3077410
192.8017567   0.0052801   0.0145619   0.0530759  -0.1045192   0.0000113  -0.0000080  -0.9528826   0.3737659
195.1719148   0.0050213   0.0147971   0.0516601  -0.1051571  -0.0000411   0.0000164  -0.9079903   0.4365081
197.5712099   0.0055391   0.0147107   0.0499833  -0.1056299   0.0000064  -0.0000064  -0.8584258   0.4960860
200.0000000   0.0054599   0.0151046   0.0485051  -0.1063679  -0.0000129  -0.0000066  -0.8026131   0.5505821
