! ListType=Log
# MHZ S RI R 50
0.0010000    -0.0008432   0.0002909   0.0034200   0.0000125  -0.0000115  -0.0000299  -0.9088780   0.2599563
0.0010123    -0.0005239  -0.0011299   0.0034022  -0.0000585   0.0000121  -0.0000287  -0.9094622   0.2603417
0.0010247    -0.0002479   0.0012600   0.0034634   0.0000460  -0.0000157   0.0000266  -0.9095897   0.2591301
0.0010373    -0.0004606  -0.0001956   0.0034421  -0.0000112  -0.0000085  -0.0000056  -0.9097936   0.2598523
0.0010501    -0.0019367   0.0001015   0.0033952   0.0000254  -0.0000136  -0.0000118  -0.9091506   0.2596915
0.0010630    -0.0005081  -0.0008117   0.0033950  -0.0000229   0.0000229   0.0000125  -0.9105505   0.2595735
0.0010761    -0.0002187   0.0006168   0.0034542   0.0000389  -0.0000149   0.0000095  -0.9107037   0.2587981
0.0010893    -0.0007152  -0.0013646   0.0033896  -0.0000166   0.0000198  -0.0000037  -0.9110865   0.2599258
0.0011027    -0.0002125  -0.0001110   0.0034077   0.0000073   0.0000030  -0.0000187  -0.9110775   0.2587990
0.0011162     0.0007707   0.0007079   0.0034442  -0.0000150  -0.0000056   0.0000030  -0.9120701   0.2584382
0.0011300    -0.0009402   0.0005544   0.0034203   0.0000217  -0.0000259  -0.0000173  -0.9112969   0.2587179
0.0011439    -0.0005458  -0.0009112   0.0033624  -0.0000399   0.0000190  -0.0000020  -0.9120502   0.2590832
0.0011579    -0.0004982   0.0011974   0.0034315   0.0000126  -0.0000080   0.0000011  -0.9120575   0.2578675
0.0011721    -0.0005179  -0.0002262   0.0034186  -0.0000293   0.0000114  -0.0000118  -0.9124015   0.2585311
0.0011866    -0.0015543   0.0004622   0.0034276   0.0000048  -0.0000454  -0.0000152  -0.9122040   0.2582435
0.0012011    -0.0006051  -0.0001751   0.0034164   0.0000169  -0.0000151   0.0000003  -0.9128818   0.2582597
0.0012159     0.0004377  -0.0010479   0.0034037  -0.0000440   0.0000208   0.0000031  -0.9136437   0.2584854
0.0012309    -0.0003117   0.0006150   0.0034498   0.0000027   0.0000094   0.0000109  -0.9137401   0.2577885
0.0012460    -0.0013677   0.0000630   0.0033989   0.0000027  -0.0000062  -0.0000060  -0.9134154   0.2581256
0.0012613     0.0001662  -0.0007716   0.0034368  -0.0000242   0.0000269  -0.0000021  -0.9147353   0.2579363
0.0012768    -0.0008097   0.0006723   0.0034172   0.0000059  -0.0000207   0.0000053  -0.9141770   0.2576231
0.0012925    -0.0002631  -0.0005891   0.0034228  -0.0000278   0.0000140   0.0000076  -0.9151106   0.2580592
0.0013084    -0.0007516   0.0003899   0.0034232  -0.0000088  -0.0000049   0.0000097  -0.9149123   0.2575421
0.0013245    -0.0001575  -0.0007913   0.0034060  -0.0000206   0.0000181  -0.0000016  -0.9155488   0.2580240
0.0013408    -0.0004955   0.0003085   0.0034074   0.0000093   0.0000024  -0.0000096  -0.9153819   0.2572752
0.0013572     0.0000356  -0.0005746   0.0034183  -0.0000300   0.0000187   0.0000077  -0.9163567   0.2576933
0.0013739    -0.0006314   0.0001418   0.0034199  -0.0000166   0.0000133   0.0000164  -0.9162218   0.2575399
0.0013908     0.0003421  -0.0001974   0.0034003  -0.0000290   0.0000136   0.0000045  -0.9169530   0.2576089
0.0014079    -0.0009388   0.0000668   0.0034273   0.0000173  -0.0000214  -0.0000005  -0.9167295   0.2573538
0.0014252     0.0002766  -0.0001234   0.0034303  -0.0000417   0.0000186   0.0000247  -0.9176592   0.2572531
0.0014427    -0.0010024   0.0002266   0.0034293   0.0000029  -0.0000097  -0.0000156  -0.9173659   0.2571991
0.0014605     0.0000285  -0.0005991   0.0034080  -0.0000322   0.0000009  -0.0000180  -0.9180822   0.2573986
0.0014784    -0.0006206   0.0004581   0.0034257   0.0000419  -0.0000049   0.0000082  -0.9178605   0.2569127
0.0014966    -0.0005201  -0.0005028   0.0033909   0.0000083   0.0000002  -0.0000287  -0.9186111   0.2574162
0.0015150     0.0001275   0.0000457   0.0034532  -0.0000283   0.0000270   0.0000241  -0.9189818   0.2573396
0.0015336    -0.0008821   0.0004020   0.0034389   0.0000260  -0.0000074  -0.0000028  -0.9190102   0.2570696
0.0015525    -0.0014492   0.0000796   0.0034003   0.0000107  -0.0000076  -0.0000167  -0.9190290   0.2573496
0.0015716    -0.0004481  -0.0000179   0.0034199  -0.0000061   0.0000126  -0.0000211  -0.9196280   0.2571869
0.0015909    -0.0007662  -0.0007933   0.0034018   0.0000031   0.0000100  -0.0000345  -0.9199847   0.2575694
0.0016104    -0.0004681   0.0003304   0.0034260   0.0000011  -0.0000243   0.0000094  -0.9203199   0.2569523
0.0016302    -0.0010250  -0.0003166   0.0033898   0.0000055   0.0000135  -0.0000063  -0.9203642   0.2573044
0.0016503    -0.0000693  -0.0006678   0.0034240  -0.0000112   0.0000088  -0.0000100  -0.9213751   0.2574882
0.0016706    -0.0004367  -0.0001426   0.0034250  -0.0000080   0.0000033  -0.0000045  -0.9211996   0.2574022
0.0016911     0.0000647   0.0005679   0.0034273   0.0000070  -0.0000210  -0.0000159  -0.9218180   0.2570958
0.0017119    -0.0008567  -0.0003057   0.0034187  -0.0000100  -0.0000161  -0.0000298  -0.9218589   0.2574357
0.0017329    -0.0002970  -0.0000080   0.0034177  -0.0000108  -0.0000031   0.0000134  -0.9220861   0.2573962
0.0017542    -0.0001042   0.0003850   0.0034522  -0.0000062   0.0000071   0.0000175  -0.9225671   0.2571541
0.0017758    -0.0006540  -0.0000754   0.0034070   0.0000016  -0.0000018  -0.0000029  -0.9227763   0.2574617
0.0017976    -0.0001151   0.0001925   0.0034453  -0.0000070   0.0000059  -0.0000063  -0.9233452   0.2574793
0.0018197    -0.0008249   0.0007435   0.0034372   0.0000284  -0.0000150  -0.0000040  -0.9231438   0.2573279
0.0018421    -0.0004320  -0.0001345   0.0034446  -0.0000249   0.0000151  -0.0000070  -0.9238326   0.2577191
0.0018648    -0.0005453   0.0002776   0.0034087   0.0000188  -0.0000028   0.0000040  -0.9239003   0.2574820
0.0018877    -0.0010359   0.0000449   0.0034048   0.0000210  -0.0000105  -0.0000158  -0.9239804   0.2577066
0.0019109    -0.0002889   0.0000221   0.0034249  -0.0000203  -0.0000036   0.0000066  -0.9248491   0.2579357
0.0019344    -0.0007136   0.0002055   0.0034217  -0.0000007  -0.0000050  -0.0000064  -0.9247153   0.2577397
0.0019582    -0.0008735   0.0001207   0.0033840   0.0000043   0.0000018  -0.0000051  -0.9248236   0.2579512
0.0019822    -0.0003391  -0.0003541   0.0034384  -0.0000213   0.0000061   0.0000007  -0.9256894   0.2580907
0.0020066    -0.0007138   0.0000742   0.0034100  -0.0000049   0.0000030   0.0000010  -0.9257598   0.2582423
0.0020313    -0.0001978  -0.0001490   0.0034105  -0.0000044   0.0000072   0.0000076  -0.9261621   0.2581689
0.0020562    -0.0002727   0.0004202   0.0034259   0.0000103  -0.0000161  -0.0000018  -0.9265384   0.2580705
0.0020815    -0.0007860  -0.0002140   0.0034072   0.0000042   0.0000003  -0.0000015  -0.9265952   0.2584793
0.0021071    -0.0004634   0.0000593   0.0034268   0.0000243  -0.0000104  -0.0000033  -0.9270215   0.2585237
0.0021330    -0.0006770  -0.0001853   0.0034150   0.0000074  -0.0000010  -0.0000229  -0.9272019   0.2587586
0.0021592    -0.0003948  -0.0004434   0.0034148   0.0000089  -0.0000025  -0.0000190  -0.9277383   0.2588852
0.0021858    -0.0002181   0.0002132   0.0034439   0.0000024  -0.0000026  -0.0000044  -0.9279115   0.2586740
0.0022126    -0.0005957  -0.0002309   0.0034045   0.0000002  -0.0000054  -0.0000144  -0.9280733   0.2590422
0.0022398    -0.0003934   0.0000267   0.0034243   0.0000011  -0.0000122   0.0000062  -0.9283379   0.2590142
0.0022674    -0.0005844  -0.0002541   0.0034137   0.0000005   0.0000047  -0.0000181  -0.9287816   0.2593020
0.0022953    -0.0003552  -0.0004912   0.0034157  -0.0000169   0.0000060  -0.0000025  -0.9290308   0.2594769
0.0023235    -0.0002122  -0.0000003   0.0034100  -0.0000191  -0.0000061  -0.0000002  -0.9294341   0.2594680
0.0023520    -0.0007502   0.0001883   0.0034071  -0.0000026  -0.0000078  -0.0000054  -0.9292532   0.2594361
0.0023809    -0.0003377   0.0000042   0.0034167   0.0000221  -0.0000079   0.0000077  -0.9299422   0.2596373
0.0024102    -0.0006994  -0.0001465   0.0034222   0.0000003   0.0000131   0.0000064  -0.9298942   0.2598229
0.0024398    -0.0004482  -0.0000116   0.0034210   0.0000023   0.0000033   0.0000032  -0.9303333   0.2599209
0.0024698    -0.0006717  -0.0001498   0.0034280  -0.0000123   0.0000079  -0.0000170  -0.9305707   0.2602177
0.0025002    -0.0007113  -0.0002276   0.0034286   0.0000031  -0.0000013  -0.0000042  -0.9307198   0.2603729
0.0025309    -0.0007896  -0.0002698   0.0034036  -0.0000157  -0.0000087  -0.0000112  -0.9309336   0.2606611
0.0025621    -0.0003523  -0.0003726   0.0034160  -0.0000076   0.0000070  -0.0000087  -0.9313972   0.2606534
0.0025935    -0.0002345  -0.0001934   0.0034244  -0.0000032  -0.0000057  -0.0000035  -0.9316742   0.2605261
0.0026254    -0.0001230   0.0003407   0.0034486  -0.0000053  -0.0000042  -0.0000026  -0.9317934   0.2605545
0.0026577    -0.0008897   0.0001807   0.0034383   0.0000139  -0.0000107  -0.0000105  -0.9319015   0.2609742
0.0026904    -0.0005903  -0.0004110   0.0034100   0.0000202  -0.0000128  -0.0000062  -0.9320964   0.2613407
0.0027235    -0.0001538   0.0001619   0.0034442   0.0000024  -0.0000013  -0.0000137  -0.9327563   0.2611832
0.0027569    -0.0004892   0.0003156   0.0034254   0.0000026  -0.0000088  -0.0000033  -0.9327095   0.2612955
0.0027908    -0.0009398  -0.0002504   0.0034186   0.0000087   0.0000059  -0.0000083  -0.9327881   0.2617246
0.0028251    -0.0002412  -0.0002557   0.0034149   0.0000080   0.0000069   0.0000018  -0.9332618   0.2618815
0.0028599    -0.0002949   0.0001719   0.0034100  -0.0000007  -0.0000022   0.0000010  -0.9334185   0.2618729
0.0028950    -0.0005457   0.0003031   0.0034203   0.0000191   0.0000031   0.0000025  -0.9336124   0.2618484
0.0029306    -0.0007380   0.0002664   0.0034199   0.0000073  -0.0000042  -0.0000190  -0.9337557   0.2620064
0.0029666    -0.0007330   0.0000262   0.0034267  -0.0000079   0.0000131  -0.0000065  -0.9339990   0.2622600
0.0030031    -0.0006257   0.0000571   0.0034199   0.0000202  -0.0000049   0.0000133  -0.9341076   0.2625548
0.0030400    -0.0005535   0.0001046   0.0034064  -0.0000041  -0.0000027  -0.0000165  -0.9343379   0.2628196
0.0030774    -0.0006565  -0.0000021   0.0034213   0.0000060  -0.0000097  -0.0000045  -0.9345217   0.2629743
0.0031152    -0.0004078   0.0000312   0.0033998  -0.0000098   0.0000102   0.0000018  -0.9348862   0.2629809
0.0031535    -0.0008669  -0.0000678   0.0034138   0.0000007  -0.0000035  -0.0000120  -0.9349260   0.2633534
0.0031923    -0.0004697  -0.0002811   0.0034355  -0.0000134   0.0000126  -0.0000124  -0.9353236   0.2634966
0.0032315    -0.0002658  -0.0001278   0.0034251   0.0000077  -0.0000004  -0.0000064  -0.9355121   0.2636469
0.0032713    -0.0004677   0.0000265   0.0034065   0.0000029   0.0000023  -0.0000089  -0.9356770   0.2636865
0.0033115    -0.0004050   0.0000407   0.0034310   0.0000118   0.0000084  -0.0000006  -0.9357024   0.2639999
0.0033522    -0.0004407  -0.0002381   0.0034061   0.0000109  -0.0000109  -0.0000057  -0.9360229   0.2644064
0.0033934    -0.0003557   0.0001606   0.0034410   0.0000028   0.0000014   0.0000021  -0.9362628   0.2642656
0.0034351    -0.0004842   0.0001938   0.0034363  -0.0000107  -0.0000013   0.0000084  -0.9364516   0.2645556
0.0034773    -0.0004743  -0.0000614   0.0034313   0.0000131   0.0000084  -0.0000086  -0.9364323   0.2647053
0.0035201    -0.0002499  -0.0001168   0.0034369   0.0000112   0.0000056  -0.0000029  -0.9367876   0.2648143
0.0035634    -0.0005718   0.0002423   0.0034304  -0.0000102   0.0000070  -0.0000048  -0.9368663   0.2649771
0.0036072    -0.0004665   0.0000423   0.0034229   0.0000045  -0.0000008  -0.0000046  -0.9369396   0.2652301
0.0036515    -0.0005979   0.0001406   0.0034314   0.0000018  -0.0000051   0.0000044  -0.9372120   0.2655556
0.0036964    -0.0006937  -0.0000236   0.0034202   0.0000062  -0.0000114   0.0000007  -0.9371598   0.2658447
0.0037418    -0.0005606  -0.0001283   0.0034263   0.0000236   0.0000014  -0.0000077  -0.9373776   0.2659021
0.0037878    -0.0007505  -0.0001680   0.0034091   0.0000242   0.0000009  -0.0000191  -0.9374859   0.2660117
0.0038344    -0.0006248  -0.0001960   0.0034215   0.0000045   0.0000059  -0.0000063  -0.9376847   0.2663411
0.0038815    -0.0004675   0.0000265   0.0034255  -0.0000015  -0.0000009   0.0000041  -0.9378065   0.2664228
0.0039293    -0.0006108   0.0000145   0.0034194   0.0000088   0.0000049  -0.0000071  -0.9379777   0.2663981
0.0039776    -0.0005263  -0.0000041   0.0034183   0.0000055  -0.0000018  -0.0000120  -0.9381920   0.2668196
0.0040265    -0.0004103   0.0001523   0.0034171   0.0000140   0.0000000   0.0000014  -0.9383100   0.2667670
0.0040759    -0.0004953  -0.0000007   0.0034190   0.0000054  -0.0000007   0.0000008  -0.9384242   0.2671272
0.0041261    -0.0004505   0.0002304   0.0034303  -0.0000094   0.0000015  -0.0000048  -0.9385339   0.2672093
0.0041768    -0.0005488  -0.0000048   0.0034327   0.0000020  -0.0000009   0.0000009  -0.9387328   0.2675105
0.0042281    -0.0003393   0.0000344   0.0034148   0.0000059   0.0000064  -0.0000054  -0.9388509   0.2677209
0.0042801    -0.0005325  -0.0000200   0.0034169  -0.0000084   0.0000041  -0.0000002  -0.9389324   0.2679158
0.0043327    -0.0005690  -0.0001512   0.0034234   0.0000122  -0.0000035  -0.0000042  -0.9390299   0.2683019
0.0043860    -0.0004182  -0.0000378   0.0034125   0.0000029  -0.0000025   0.0000091  -0.9392749   0.2683077
0.0044399    -0.0006033   0.0001176   0.0034345   0.0000056   0.0000007  -0.0000043  -0.9393379   0.2684832
0.0044945    -0.0003964   0.0001695   0.0034343   0.0000184  -0.0000065  -0.0000034  -0.9394909   0.2686169
0.0045497    -0.0005710  -0.0000069   0.0034406   0.0000151  -0.0000109  -0.0000034  -0.9394766   0.2688047
0.0046057    -0.0006316  -0.0002022   0.0034334   0.0000001  -0.0000053   0.0000049  -0.9395575   0.2689400
0.0046623    -0.0006564  -0.0000767   0.0034201   0.0000062   0.0000035  -0.0000071  -0.9395089   0.2692334
0.0047196    -0.0004702  -0.0000443   0.0034315  -0.0000101  -0.0000083  -0.0000009  -0.9398293   0.2694102
0.0047776    -0.0004738  -0.0000982   0.0034413  -0.0000080   0.0000065  -0.0000104  -0.9398891   0.2695281
0.0048363    -0.0005768  -0.0001291   0.0034325  -0.0000056   0.0000003  -0.0000094  -0.9399332   0.2697804
0.0048958    -0.0004712  -0.0002422   0.0034303  -0.0000002  -0.0000047  -0.0000137  -0.9400721   0.2700554
0.0049560    -0.0004132  -0.0001327   0.0034071  -0.0000192  -0.0000099  -0.0000067  -0.9402632   0.2701632
0.0050169    -0.0006350   0.0000090   0.0034264   0.0000005  -0.0000178   0.0000051  -0.9403351   0.2701639
0.0050786    -0.0006049   0.0000781   0.0034003   0.0000157   0.0000062   0.0000011  -0.9403187   0.2703988
0.0051410    -0.0005173  -0.0000174   0.0034190   0.0000023  -0.0000039  -0.0000105  -0.9404152   0.2706001
0.0052042    -0.0003344  -0.0000897   0.0034291   0.0000021   0.0000035  -0.0000032  -0.9405021   0.2708001
0.0052682    -0.0005667  -0.0000748   0.0034247  -0.0000082   0.0000060  -0.0000054  -0.9406327   0.2710467
0.0053330    -0.0004450  -0.0000991   0.0034251  -0.0000043  -0.0000089  -0.0000088  -0.9406896   0.2711812
0.0053985    -0.0004101  -0.0001475   0.0034320  -0.0000011  -0.0000131  -0.0000073  -0.9407775   0.2713440
0.0054649    -0.0003097  -0.0001842   0.0034289   0.0000102   0.0000164  -0.0000018  -0.9409076   0.2714998
0.0055321    -0.0003412  -0.0001264   0.0034255   0.0000080  -0.0000015  -0.0000112  -0.9409565   0.2716945
0.0056001    -0.0003309  -0.0000369   0.0034430  -0.0000077   0.0000146   0.0000031  -0.9411138   0.2719386
0.0056689    -0.0003766  -0.0000671   0.0034093   0.0000045  -0.0000082  -0.0000200  -0.9411273   0.2720064
0.0057386    -0.0005038  -0.0000842   0.0034216   0.0000079   0.0000036  -0.0000155  -0.9411893   0.2721200
0.0058091    -0.0006994  -0.0000534   0.0034107   0.0000092   0.0000022   0.0000047  -0.9411386   0.2723728
0.0058806    -0.0005670   0.0000189   0.0034081   0.0000009  -0.0000013  -0.0000061  -0.9411190   0.2724188
0.0059529    -0.0005436  -0.0000025   0.0034524  -0.0000119  -0.0000054  -0.0000104  -0.9412062   0.2727041
0.0060260    -0.0006943   0.0000935   0.0034193  -0.0000036  -0.0000053  -0.0000183  -0.9412507   0.2727098
0.0061001    -0.0005703  -0.0000693   0.0034266  -0.0000010  -0.0000142  -0.0000055  -0.9413455   0.2729546
0.0061751    -0.0006265  -0.0000250   0.0034304   0.0000150   0.0000003   0.0000049  -0.9413314   0.2731470
0.0062510    -0.0005373   0.0000076   0.0034252  -0.0000201  -0.0000030  -0.0000002  -0.9415101   0.2732916
0.0063279    -0.0004794   0.0000027   0.0034263   0.0000068  -0.0000043  -0.0000012  -0.9416430   0.2734560
0.0064056    -0.0003002  -0.0000734   0.0034242  -0.0000036   0.0000044  -0.0000061  -0.9416371   0.2736081
0.0064844    -0.0005142   0.0000001   0.0034288   0.0000177   0.0000000  -0.0000076  -0.9416977   0.2736701
0.0065641    -0.0007192   0.0000186   0.0034180   0.0000176  -0.0000063  -0.0000193  -0.9415242   0.2737903
0.0066448    -0.0005183   0.0000094   0.0034291  -0.0000176   0.0000005  -0.0000093  -0.9416728   0.2739591
0.0067265    -0.0005329   0.0000782   0.0034309  -0.0000010  -0.0000082   0.0000041  -0.9417777   0.2741424
0.0068092    -0.0004409   0.0000343   0.0034090  -0.0000128   0.0000036   0.0000010  -0.9418365   0.2743665
0.0068929    -0.0004861  -0.0000703   0.0034266   0.0000023   0.0000128  -0.0000086  -0.9418909   0.2744498
0.0069776    -0.0004780   0.0000637   0.0034267  -0.0000040   0.0000024  -0.0000116  -0.9420478   0.2746782
0.0070634    -0.0004811  -0.0000418   0.0034239   0.0000013   0.0000023  -0.0000052  -0.9419420   0.2748400
0.0071502    -0.0005288  -0.0000801   0.0034196  -0.0000008   0.0000031  -0.0000154  -0.9419125   0.2748555
0.0072381    -0.0006933   0.0000535   0.0034153   0.0000128  -0.0000033  -0.0000122  -0.9418756   0.2750367
0.0073271    -0.0006025   0.0000375   0.0034501   0.0000040  -0.0000089  -0.0000030  -0.9420109   0.2752536
0.0074172    -0.0005434   0.0001050   0.0034162  -0.0000042   0.0000121  -0.0000083  -0.9421284   0.2753567
0.0075084    -0.0004713   0.0000404   0.0034123   0.0000021   0.0000064  -0.0000108  -0.9421577   0.2755385
0.0076007    -0.0005236  -0.0000548   0.0034305  -0.0000009   0.0000004  -0.0000116  -0.9421461   0.2756577
0.0076941    -0.0004715   0.0000055   0.0034208  -0.0000112  -0.0000021   0.0000084  -0.9421786   0.2759126
0.0077887    -0.0005201  -0.0000811   0.0034235   0.0000196   0.0000107  -0.0000020  -0.9421820   0.2759312
0.0078844    -0.0006212  -0.0000566   0.0034288   0.0000225  -0.0000035  -0.0000018  -0.9422685   0.2760016
0.0079814    -0.0005237   0.0000122   0.0034042   0.0000067   0.0000006  -0.0000059  -0.9422404   0.2762762
0.0080795    -0.0005433   0.0001099   0.0034124  -0.0000043   0.0000058  -0.0000034  -0.9423989   0.2763341
0.0081788    -0.0004125  -0.0000174   0.0034383   0.0000178  -0.0000045   0.0000043  -0.9422137   0.2765218
0.0082793    -0.0006366  -0.0000230   0.0034160  -0.0000091  -0.0000005  -0.0000093  -0.9423942   0.2765888
0.0083811    -0.0004990   0.0001152   0.0034278   0.0000016  -0.0000037   0.0000070  -0.9423573   0.2767983
0.0084842    -0.0005612  -0.0000441   0.0034226   0.0000024  -0.0000016   0.0000005  -0.9423313   0.2768930
0.0085885    -0.0005249  -0.0001020   0.0034210  -0.0000072   0.0000015  -0.0000070  -0.9424398   0.2769427
0.0086940    -0.0005389   0.0000968   0.0034192   0.0000188   0.0000127  -0.0000141  -0.9423699   0.2771411
0.0088009    -0.0004589   0.0000550   0.0034144  -0.0000141   0.0000002   0.0000062  -0.9423860   0.2772914
0.0089091    -0.0004424   0.0000190   0.0033910  -0.0000185   0.0000024  -0.0000112  -0.9423989   0.2774866
0.0090186    -0.0005494  -0.0000027   0.0034132   0.0000098  -0.0000090  -0.0000046  -0.9424998   0.2774735
0.0091295    -0.0005534   0.0000163   0.0034091   0.0000081   0.0000055  -0.0000005  -0.9425199   0.2777457
0.0092417    -0.0005104  -0.0000717   0.0034190   0.0000206   0.0000093  -0.0000054  -0.9424069   0.2777833
0.0093553    -0.0006825  -0.0000714   0.0034213   0.0000076   0.0000041  -0.0000095  -0.9424297   0.2779104
0.0094703    -0.0004790   0.0001172   0.0034339   0.0000020   0.0000006   0.0000108  -0.9425230   0.2779699
0.0095868    -0.0006004   0.0000204   0.0034253  -0.0000042  -0.0000033  -0.0000074  -0.9424579   0.2781670
0.0097046    -0.0005283  -0.0000264   0.0034213  -0.0000055  -0.0000017   0.0000127  -0.9425030   0.2781965
0.0098239    -0.0004312   0.0000275   0.0033965   0.0000109  -0.0000008   0.0000001  -0.9425577   0.2783250
0.0099447    -0.0006032   0.0000538   0.0034204   0.0000157  -0.0000004  -0.0000051  -0.9425478   0.2783615
0.0100669    -0.0005016   0.0000417   0.0034173   0.0000129  -0.0000093  -0.0000186  -0.9425242   0.2785836
0.0101907    -0.0005951   0.0000475   0.0034172   0.0000090  -0.0000033  -0.0000092  -0.9425358   0.2786114
0.0103160    -0.0005495  -0.0000559   0.0034101   0.0000064   0.0000116  -0.0000083  -0.9425019   0.2787091
0.0104428    -0.0005609  -0.0000629   0.0034094   0.0000083  -0.0000035   0.0000003  -0.9425838   0.2789201
0.0105712    -0.0005235   0.0000445   0.0034108   0.0000218   0.0000088   0.0000015  -0.9425830   0.2789347
0.0107011    -0.0004447  -0.0001288   0.0034299   0.0000062   0.0000044  -0.0000051  -0.9426090   0.2791118
0.0108327    -0.0006108   0.0001854   0.0034195  -0.0000154   0.0000012  -0.0000062  -0.9425325   0.2791449
0.0109658    -0.0005504   0.0000240   0.0034227   0.0000178  -0.0000070  -0.0000045  -0.9426464   0.2792784
0.0111006    -0.0005581  -0.0000420   0.0034099   0.0000062  -0.0000041  -0.0000068  -0.9426136   0.2795289
0.0112371    -0.0006135  -0.0000978   0.0034427   0.0000132  -0.0000054   0.0000003  -0.9426557   0.2794251
0.0113752    -0.0005111  -0.0000569   0.0034404   0.0000040  -0.0000107   0.0000007  -0.9425597   0.2795968
0.0115151    -0.0005052   0.0000954   0.0034090   0.0000008   0.0000003  -0.0000004  -0.9427017   0.2798539
0.0116566    -0.0006461   0.0000640   0.0034249   0.0000057  -0.0000025  -0.0000093  -0.9425976   0.2797545
0.0117999    -0.0006455  -0.0000391   0.0034225   0.0000080  -0.0000078  -0.0000039  -0.9426702   0.2800117
0.0119450    -0.0014658  -0.0001763   0.0033759  -0.0000310  -0.0000012   0.0000006  -0.9434624   0.2782170
0.0120918    -0.0005843  -0.0000132   0.0034077  -0.0000078   0.0000006  -0.0000104  -0.9426943   0.2801527
0.0122405    -0.0005733  -0.0000161   0.0034116   0.0000142  -0.0000107   0.0000039  -0.9427471   0.2801706
0.0123910    -0.0005871   0.0000122   0.0034119   0.0000032  -0.0000042  -0.0000100  -0.9426088   0.2804391
0.0125433    -0.0005958  -0.0000549   0.0034083   0.0000038  -0.0000016   0.0000043  -0.9427097   0.2803775
0.0126975    -0.0005040  -0.0000311   0.0034384   0.0000089  -0.0000036  -0.0000023  -0.9425424   0.2804387
0.0128536    -0.0005521  -0.0000390   0.0034332  -0.0000033   0.0000036  -0.0000033  -0.9426407   0.2806492
0.0130116    -0.0004852   0.0000094   0.0034241   0.0000012   0.0000031   0.0000037  -0.9426215   0.2806846
0.0131716    -0.0005649   0.0000809   0.0034223   0.0000070  -0.0000045   0.0000010  -0.9426642   0.2806807
0.0133335    -0.0004805   0.0000045   0.0034075   0.0000059  -0.0000017  -0.0000095  -0.9425145   0.2809397
0.0134974    -0.0006426  -0.0000140   0.0034267   0.0000098   0.0000014  -0.0000020  -0.9425677   0.2809175
0.0136633    -0.0005779  -0.0000102   0.0034249   0.0000103   0.0000013  -0.0000062  -0.9426221   0.2811150
0.0138313    -0.0006155  -0.0000304   0.0034182  -0.0000094  -0.0000014  -0.0000050  -0.9425397   0.2811490
0.0140013    -0.0005309   0.0000044   0.0034251  -0.0000062  -0.0000043  -0.0000027  -0.9426175   0.2812854
0.0141734    -0.0005019  -0.0000131   0.0034142   0.0000116  -0.0000133  -0.0000052  -0.9426482   0.2814176
0.0143477    -0.0005583  -0.0000150   0.0034275   0.0000103   0.0000019  -0.0000050  -0.9426134   0.2813920
0.0145240    -0.0005697   0.0000224   0.0034207  -0.0000025   0.0000018   0.0000028  -0.9426510   0.2814696
0.0147026    -0.0005919   0.0001334   0.0034199  -0.0000080   0.0000098  -0.0000082  -0.9425887   0.2815431
0.0148833    -0.0006397  -0.0000102   0.0034131  -0.0000018  -0.0000038  -0.0000085  -0.9425701   0.2817147
0.0150663    -0.0005194   0.0000229   0.0034225  -0.0000015   0.0000025  -0.0000094  -0.9425500   0.2817628
0.0152515    -0.0005148   0.0000245   0.0034441  -0.0000100  -0.0000064  -0.0000097  -0.9425577   0.2819218
0.0154390    -0.0003793   0.0000108   0.0034052   0.0000044  -0.0000151   0.0000062  -0.9425825   0.2819117
0.0156288    -0.0005119   0.0001227   0.0034198   0.0000168  -0.0000092  -0.0000074  -0.9426634   0.2819290
0.0158209    -0.0005696   0.0000198   0.0034189   0.0000003  -0.0000031  -0.0000088  -0.9425187   0.2819562
0.0160154    -0.0005738   0.0000498   0.0034246  -0.0000042   0.0000012  -0.0000067  -0.9425096   0.2821765
0.0162123    -0.0005309  -0.0000249   0.0034127  -0.0000131  -0.0000041  -0.0000005  -0.9424733   0.2823458
0.0164116    -0.0005972  -0.0000191   0.0034167   0.0000075   0.0000020  -0.0000133  -0.9425390   0.2823374
0.0166134    -0.0006121   0.0000248   0.0034155   0.0000103   0.0000025   0.0000024  -0.9424725   0.2825105
0.0168176    -0.0005711   0.0000540   0.0034217  -0.0000067   0.0000023  -0.0000011  -0.9425681   0.2824212
0.0170243    -0.0005356   0.0000307   0.0034413   0.0000002  -0.0000044  -0.0000021  -0.9425075   0.2825839
0.0172336    -0.0006271  -0.0000349   0.0034205   0.0000087   0.0000039  -0.0000065  -0.9424701   0.2825693
0.0174455    -0.0005178   0.0000000   0.0034247  -0.0000105  -0.0000069   0.0000054  -0.9424511   0.2826684
0.0176599    -0.0006115  -0.0000068   0.0034057  -0.0000074  -0.0000030  -0.0000096  -0.9424459   0.2827776
0.0178770    -0.0004868   0.0000341   0.0034185   0.0000040  -0.0000056   0.0000042  -0.9424224   0.2829245
0.0180968    -0.0005393  -0.0000104   0.0034257   0.0000164  -0.0000086  -0.0000035  -0.9424302   0.2828374
0.0183193    -0.0005719  -0.0000223   0.0034229  -0.0000045   0.0000087  -0.0000044  -0.9424509   0.2830002
0.0185445    -0.0004843   0.0000011   0.0034279   0.0000121   0.0000103  -0.0000060  -0.9424455   0.2830423
0.0187724    -0.0005169  -0.0000856   0.0034278   0.0000078   0.0000036   0.0000011  -0.9423371   0.2830841
0.0190032    -0.0005714   0.0000656   0.0034156  -0.0000141  -0.0000030  -0.0000051  -0.9424280   0.2831313
0.0192368    -0.0005092   0.0000416   0.0034205   0.0000042   0.0000020   0.0000008  -0.9425254   0.2832695
0.0194733    -0.0006173   0.0000934   0.0034205   0.0000085   0.0000098  -0.0000044  -0.9424154   0.2833488
0.0197127    -0.0005148   0.0000006   0.0034211   0.0000020  -0.0000072  -0.0000149  -0.9423865   0.2834325
0.0199550    -0.0005307  -0.0000329   0.0034237   0.0000188  -0.0000085  -0.0000115  -0.9424142   0.2834576
0.0202003    -0.0005484  -0.0001014   0.0034170  -0.0000054  -0.0000027  -0.0000121  -0.9424186   0.2834956
0.0204487    -0.0006014  -0.0000348   0.0034306   0.0000037  -0.0000126  -0.0000027  -0.9423482   0.2836018
0.0207001    -0.0004864   0.0000135   0.0034250   0.0000052  -0.0000050  -0.0000153  -0.9422820   0.2836091
0.0209545    -0.0005627   0.0000485   0.0034256  -0.0000030  -0.0000042  -0.0000062  -0.9422991   0.2836966
0.0212121    -0.0005472   0.0001318   0.0034336   0.0000017   0.0000013   0.0000014  -0.9422630   0.2838958
0.0214729    -0.0005194  -0.0000874   0.0034268   0.0000082  -0.0000082  -0.0000137  -0.9423046   0.2839225
0.0217369    -0.0006008   0.0000277   0.0034364   0.0000098   0.0000177  -0.0000012  -0.9422967   0.2839207
0.0220041    -0.0005324   0.0000150   0.0034359   0.0000128  -0.0000034  -0.0000052  -0.9423316   0.2839710
0.0222746    -0.0005595   0.0000331   0.0034370   0.0000061   0.0000044  -0.0000094  -0.9421834   0.2840686
0.0225484    -0.0005975   0.0000794   0.0034301  -0.0000075  -0.0000069   0.0000029  -0.9421589   0.2840821
0.0228256    -0.0005763   0.0000092   0.0034400  -0.0000003  -0.0000015   0.0000000  -0.9422130   0.2841121
0.0231062    -0.0005745   0.0000942   0.0034307   0.0000077  -0.0000071  -0.0000067  -0.9422103   0.2841453
0.0233902    -0.0005326   0.0000708   0.0034242   0.0000067  -0.0000062   0.0000041  -0.9421501   0.2842650
0.0236778    -0.0006084   0.0000614   0.0034201   0.0000102   0.0000026  -0.0000065  -0.9421274   0.2843437
0.0239689    -0.0006669   0.0002299   0.0034372   0.0000259  -0.0000034  -0.0000028  -0.9431943   0.2849166
0.0242635    -0.0006309  -0.0000051   0.0034016   0.0000197   0.0000020  -0.0000015  -0.9421554   0.2844378
0.0245618    -0.0005739  -0.0000262   0.0034329  -0.0000041  -0.0000175  -0.0000006  -0.9420997   0.2845678
0.0248637    -0.0006096  -0.0000060   0.0034201   0.0000022  -0.0000010  -0.0000011  -0.9421057   0.2846436
0.0251694    -0.0005064  -0.0000108   0.0034267   0.0000020  -0.0000045  -0.0000092  -0.9421237   0.2846718
0.0254788    -0.0005828  -0.0000988   0.0034187   0.0000133  -0.0000051  -0.0000060  -0.9420106   0.2847303
0.0257920    -0.0005734   0.0001306   0.0034165   0.0000168   0.0000011  -0.0000116  -0.9420984   0.2848583
0.0261091    -0.0005654   0.0000201   0.0034210   0.0000058   0.0000032  -0.0000093  -0.9419308   0.2848252
0.0264301    -0.0005006  -0.0000436   0.0034299   0.0000096   0.0000051  -0.0000114  -0.9420806   0.2849199
0.0267550    -0.0005683  -0.0000812   0.0034277  -0.0000065  -0.0000017   0.0000036  -0.9419236   0.2849455
0.0270839    -0.0004634  -0.0000391   0.0034186   0.0000186  -0.0000150  -0.0000070  -0.9420152   0.2849370
0.0274168    -0.0005664  -0.0000175   0.0034157   0.0000041  -0.0000071  -0.0000091  -0.9419723   0.2849874
0.0277539    -0.0005437   0.0001496   0.0034242   0.0000081  -0.0000055  -0.0000124  -0.9418585   0.2850718
0.0280951    -0.0005339  -0.0000862   0.0034231   0.0000071  -0.0000084  -0.0000131  -0.9418695   0.2851680
0.0284404    -0.0004647   0.0000516   0.0034223  -0.0000031  -0.0000050  -0.0000027  -0.9418926   0.2852433
0.0287901    -0.0005188   0.0000656   0.0034237  -0.0000139  -0.0000104  -0.0000071  -0.9419360   0.2851845
0.0291440    -0.0005894  -0.0001222   0.0034371   0.0000096   0.0000046  -0.0000088  -0.9418947   0.2853351
0.0295023    -0.0005466  -0.0000959   0.0034285   0.0000024   0.0000158   0.0000033  -0.9418181   0.2853636
0.0298649    -0.0004052  -0.0000189   0.0034197   0.0000144   0.0000090  -0.0000008  -0.9418149   0.2853996
0.0302321    -0.0005214  -0.0000216   0.0034076  -0.0000077   0.0000043  -0.0000058  -0.9417208   0.2854923
0.0306037    -0.0006792  -0.0000384   0.0034235   0.0000133  -0.0000045  -0.0000008  -0.9417143   0.2855678
0.0309799    -0.0005731   0.0000065   0.0034192   0.0000157  -0.0000045   0.0000013  -0.9418265   0.2855831
0.0313608    -0.0005506   0.0000777   0.0034242  -0.0000011   0.0000041  -0.0000197  -0.9417779   0.2856653
0.0317463    -0.0005435   0.0000480   0.0034236   0.0000005  -0.0000047   0.0000050  -0.9416988   0.2857371
0.0321366    -0.0005222   0.0000079   0.0034226   0.0000000   0.0000041  -0.0000031  -0.9417880   0.2857474
0.0325316    -0.0005255   0.0000843   0.0034167   0.0000243   0.0000030  -0.0000159  -0.9416747   0.2858300
0.0329316    -0.0005075   0.0000221   0.0034185   0.0000101   0.0000071  -0.0000175  -0.9416642   0.2859160
0.0333364    -0.0005987  -0.0000488   0.0034207  -0.0000033   0.0000033  -0.0000037  -0.9416956   0.2859965
0.0337462    -0.0005642   0.0000365   0.0034217   0.0000114   0.0000003   0.0000066  -0.9415459   0.2858363
0.0341610    -0.0005189   0.0001264   0.0034207   0.0000066   0.0000031  -0.0000018  -0.9415890   0.2860550
0.0345810    -0.0005395  -0.0000147   0.0034394   0.0000253   0.0000025  -0.0000054  -0.9415994   0.2860402
0.0350061    -0.0004333  -0.0000029   0.0034198   0.0000017   0.0000041   0.0000028  -0.9416480   0.2861025
0.0354365    -0.0005066  -0.0000528   0.0034246  -0.0000118   0.0000008  -0.0000113  -0.9415532   0.2862356
0.0358721    -0.0005954  -0.0000252   0.0034406  -0.0000010   0.0000027   0.0000040  -0.9415274   0.2861881
0.0363131    -0.0005776  -0.0000619   0.0034336  -0.0000036  -0.0000035  -0.0000022  -0.9415787   0.2862180
0.0367595    -0.0005267   0.0000270   0.0034274   0.0000000  -0.0000029  -0.0000134  -0.9414277   0.2863980
0.0372114    -0.0005811  -0.0000214   0.0034256   0.0000029   0.0000021  -0.0000147  -0.9414660   0.2864445
0.0376688    -0.0005475   0.0000212   0.0034209   0.0000075  -0.0000015  -0.0000004  -0.9414265   0.2864517
0.0381319    -0.0005324  -0.0000581   0.0034341  -0.0000083  -0.0000009  -0.0000148  -0.9414994   0.2864761
0.0386006    -0.0005644   0.0000668   0.0034186  -0.0000065  -0.0000001  -0.0000062  -0.9414738   0.2866139
0.0390752    -0.0005892   0.0000099   0.0034141   0.0000135   0.0000058  -0.0000044  -0.9413666   0.2865701
0.0395555    -0.0004462  -0.0000638   0.0034133  -0.0000137  -0.0000018  -0.0000008  -0.9413887   0.2866159
0.0400418    -0.0004888   0.0000267   0.0034134   0.0000058  -0.0000059  -0.0000090  -0.9414225   0.2867169
0.0405340    -0.0005535   0.0000220   0.0034149   0.0000160   0.0000032  -0.0000083  -0.9413678   0.2866962
0.0410323    -0.0005605  -0.0000586   0.0034203  -0.0000037   0.0000113  -0.0000063  -0.9412536   0.2867964
0.0415368    -0.0006040   0.0000317   0.0034323   0.0000071  -0.0000101   0.0000046  -0.9413906   0.2868516
0.0420474    -0.0005484   0.0000490   0.0034206   0.0000062  -0.0000032  -0.0000059  -0.9413047   0.2867908
0.0425643    -0.0005038   0.0000030   0.0034149   0.0000195   0.0000041  -0.0000041  -0.9412317   0.2868349
0.0430875    -0.0005391  -0.0000103   0.0034242   0.0000029   0.0000041  -0.0000004  -0.9413051   0.2869693
0.0436172    -0.0004582   0.0000703   0.0034168   0.0000029  -0.0000077  -0.0000074  -0.9412355   0.2870156
0.0441534    -0.0005210   0.0000842   0.0034133   0.0000070   0.0000004  -0.0000073  -0.9411886   0.2871031
0.0446962    -0.0005452   0.0000130   0.0034317  -0.0000077  -0.0000045  -0.0000057  -0.9411981   0.2871376
0.0452457    -0.0005675  -0.0000657   0.0034168  -0.0000016   0.0000028  -0.0000074  -0.9411458   0.2871384
0.0458019    -0.0006867  -0.0000082   0.0034259  -0.0000030   0.0000017  -0.0000085  -0.9411226   0.2871739
0.0463649    -0.0005524  -0.0000105   0.0034174   0.0000030   0.0000098   0.0000013  -0.9410879   0.2872438
0.0469349    -0.0005277  -0.0000456   0.0034239   0.0000109  -0.0000076  -0.0000056  -0.9410962   0.2873527
0.0475119    -0.0005053  -0.0000104   0.0034255  -0.0000035   0.0000017  -0.0000071  -0.9410704   0.2873649
0.0480960    -0.0004727  -0.0000368   0.0034194   0.0000106  -0.0000044  -0.0000019  -0.9409973   0.2874680
0.0486872    -0.0005467   0.0000405   0.0034225   0.0000214  -0.0000129  -0.0000110  -0.9409651   0.2874875
0.0492857    -0.0005542   0.0000366   0.0034199  -0.0000004  -0.0000002  -0.0000042  -0.9409461   0.2875644
0.0498916    -0.0005307   0.0000406   0.0034348   0.0000166  -0.0000045  -0.0000018  -0.9408737   0.2876173
0.0505050    -0.0006000  -0.0000162   0.0034273  -0.0000065  -0.0000103  -0.0000166  -0.9409469   0.2876108
0.0511258    -0.0004907   0.0000145   0.0034110   0.0000008  -0.0000017  -0.0000074  -0.9409396   0.2877756
0.0517543    -0.0005973  -0.0000208   0.0034243  -0.0000092  -0.0000078  -0.0000062  -0.9409543   0.2877150
0.0523906    -0.0005950   0.0000609   0.0034164   0.0000066   0.0000057  -0.0000072  -0.9408638   0.2877875
0.0530346    -0.0005652   0.0000583   0.0034158   0.0000087   0.0000032  -0.0000115  -0.9408033   0.2878187
0.0536866    -0.0005698  -0.0000259   0.0034332  -0.0000006  -0.0000095  -0.0000167  -0.9408350   0.2878571
0.0543466    -0.0006333   0.0000293   0.0034195   0.0000129  -0.0000052  -0.0000006  -0.9407425   0.2878680
0.0550146    -0.0005485   0.0000003   0.0034225   0.0000086  -0.0000055  -0.0000045  -0.9407686   0.2879192
0.0556910    -0.0005630   0.0000207   0.0034268  -0.0000015  -0.0000121  -0.0000102  -0.9406990   0.2879734
0.0563756    -0.0005541   0.0000481   0.0034177   0.0000015   0.0000018  -0.0000108  -0.9407175   0.2881117
0.0570686    -0.0006116   0.0000066   0.0034118   0.0000051   0.0000006  -0.0000166  -0.9406780   0.2881488
0.0577702    -0.0005480   0.0000798   0.0034226   0.0000086  -0.0000013  -0.0000054  -0.9406106   0.2882546
0.0584804    -0.0004924   0.0000150   0.0034177  -0.0000062   0.0000011  -0.0000075  -0.9405687   0.2881916
0.0591993    -0.0005744   0.0000101   0.0034225   0.0000070   0.0000087   0.0000003  -0.9405477   0.2882490
0.0599270    -0.0005426  -0.0000273   0.0034260  -0.0000007   0.0000084  -0.0000020  -0.9406534   0.2883762
0.0606637    -0.0005224   0.0000841   0.0034375   0.0000099  -0.0000008  -0.0000084  -0.9404613   0.2883609
0.0614095    -0.0005776   0.0000933   0.0034326  -0.0000040  -0.0000130   0.0000009  -0.9405219   0.2883972
0.0621644    -0.0005085   0.0000416   0.0034133   0.0000030  -0.0000010  -0.0000074  -0.9405535   0.2885076
0.0629286    -0.0005377  -0.0000081   0.0034338   0.0000056  -0.0000052  -0.0000012  -0.9404398   0.2884878
0.0637022    -0.0004931  -0.0000626   0.0034260   0.0000012   0.0000020  -0.0000046  -0.9403573   0.2886245
0.0644853    -0.0005973   0.0000458   0.0034148   0.0000082  -0.0000014  -0.0000039  -0.9404157   0.2886764
0.0652780    -0.0005666   0.0000633   0.0034198   0.0000024   0.0000039  -0.0000084  -0.9403190   0.2886986
0.0660805    -0.0005280   0.0000279   0.0034215  -0.0000103  -0.0000050  -0.0000067  -0.9402917   0.2888275
0.0668928    -0.0005441  -0.0000149   0.0034311  -0.0000061  -0.0000128  -0.0000122  -0.9402203   0.2888212
0.0677152    -0.0005372   0.0001053   0.0034167   0.0000086   0.0000000  -0.0000112  -0.9402024   0.2888230
0.0685476    -0.0005715  -0.0000058   0.0034126   0.0000169  -0.0000072  -0.0000117  -0.9401862   0.2888922
0.0693903    -0.0005137  -0.0000366   0.0034339   0.0000008  -0.0000004  -0.0000041  -0.9401122   0.2890172
0.0702433    -0.0005705   0.0000554   0.0034398   0.0000073  -0.0000029   0.0000041  -0.9401311   0.2890242
0.0711068    -0.0005194   0.0000496   0.0034376  -0.0000004   0.0000037  -0.0000059  -0.9400895   0.2890692
0.0719810    -0.0005661   0.0001107   0.0034241   0.0000019  -0.0000091   0.0000050  -0.9400307   0.2890734
0.0728659    -0.0005484   0.0000682   0.0034171   0.0000148   0.0000052  -0.0000014  -0.9399982   0.2891921
0.0737616    -0.0006142  -0.0000244   0.0034279   0.0000045  -0.0000012   0.0000004  -0.9399166   0.2892475
0.0746684    -0.0005424  -0.0000482   0.0034293   0.0000071   0.0000073  -0.0000086  -0.9399425   0.2892933
0.0755863    -0.0005086   0.0000417   0.0034134   0.0000027  -0.0000051  -0.0000018  -0.9398644   0.2893296
0.0765155    -0.0005362  -0.0000640   0.0034218   0.0000088  -0.0000040  -0.0000102  -0.9398543   0.2893451
0.0774561    -0.0005333   0.0000629   0.0034215   0.0000150   0.0000021  -0.0000132  -0.9397228   0.2894283
0.0784083    -0.0005485  -0.0000427   0.0034254   0.0000010   0.0000033   0.0000006  -0.9396576   0.2894038
0.0793722    -0.0006287   0.0000677   0.0034214   0.0000087  -0.0000042  -0.0000104  -0.9396161   0.2895158
0.0803479    -0.0005180  -0.0000375   0.0034069  -0.0000064   0.0000014  -0.0000099  -0.9396115   0.2895176
0.0813357    -0.0004857   0.0000684   0.0034294   0.0000066  -0.0000006  -0.0000007  -0.9394970   0.2895606
0.0823356    -0.0005688   0.0000458   0.0034284  -0.0000064  -0.0000053  -0.0000076  -0.9394075   0.2896695
0.0833477    -0.0005623   0.0000354   0.0034142  -0.0000049   0.0000061  -0.0000029  -0.9393761   0.2896456
0.0843723    -0.0005529  -0.0001165   0.0034202   0.0000058   0.0000086  -0.0000037  -0.9393115   0.2897923
0.0854095    -0.0004967  -0.0000287   0.0034295   0.0000171  -0.0000026  -0.0000074  -0.9392051   0.2896720
0.0864595    -0.0005431   0.0000967   0.0034239   0.0000072  -0.0000029   0.0000073  -0.9391912   0.2898053
0.0875224    -0.0006353   0.0000538   0.0034259   0.0000032   0.0000034  -0.0000104  -0.9391330   0.2897833
0.0885983    -0.0004672   0.0000110   0.0034235  -0.0000024  -0.0000022  -0.0000038  -0.9390844   0.2898074
0.0896875    -0.0004973   0.0000342   0.0034142   0.0000021   0.0000089  -0.0000091  -0.9389901   0.2898603
0.0907900    -0.0005261  -0.0000939   0.0034171   0.0000033  -0.0000058  -0.0000009  -0.9389029   0.2897670
0.0919061    -0.0005358   0.0000026   0.0034208   0.0000064   0.0000026   0.0000009  -0.9387465   0.2898359
0.0930359    -0.0004907  -0.0000390   0.0034199  -0.0000005   0.0000012   0.0000016  -0.9387368   0.2897206
0.0941797    -0.0004543   0.0000709   0.0034212   0.0000068   0.0000025   0.0000095  -0.9386642   0.2897788
0.0953374    -0.0005793   0.0000258   0.0034248  -0.0000081  -0.0000047   0.0000036  -0.9386589   0.2896874
0.0965094    -0.0004829   0.0000298   0.0034173  -0.0000188   0.0000008  -0.0000022  -0.9385277   0.2897067
0.0976959    -0.0004962   0.0000037   0.0034136   0.0000142   0.0000064  -0.0000051  -0.9385353   0.2896980
0.0988969    -0.0005578   0.0000807   0.0034194   0.0000057  -0.0000068  -0.0000015  -0.9384663   0.2896201
0.1001126    -0.0005227   0.0001045   0.0034231   0.0000059  -0.0000042  -0.0000113  -0.9384273   0.2896009
0.1013433    -0.0004997   0.0000075   0.0034244   0.0000121  -0.0000066  -0.0000005  -0.9384162   0.2895283
0.1025892    -0.0005123   0.0000609   0.0034395   0.0000025  -0.0000089  -0.0000156  -0.9383242   0.2894642
0.1038503    -0.0006348   0.0000799   0.0034180   0.0000046  -0.0000061   0.0000026  -0.9383898   0.2893628
0.1051270    -0.0005188   0.0001227   0.0034264  -0.0000008  -0.0000042   0.0000032  -0.9384645   0.2893710
0.1064193    -0.0005675   0.0000579   0.0034300  -0.0000006  -0.0000009  -0.0000043  -0.9385210   0.2892712
0.1077276    -0.0005245   0.0000863   0.0034186  -0.0000119  -0.0000010   0.0000042  -0.9385561   0.2893075
0.1090519    -0.0004898   0.0000194   0.0034279   0.0000000   0.0000081   0.0000023  -0.9386699   0.2891948
0.1103925    -0.0005538  -0.0000499   0.0034199   0.0000083  -0.0000053  -0.0000082  -0.9386504   0.2892372
0.1117496    -0.0005474  -0.0000018   0.0034250  -0.0000033   0.0000070  -0.0000009  -0.9387449   0.2892651
0.1131233    -0.0004537   0.0000381   0.0034251   0.0000122  -0.0000109  -0.0000063  -0.9388706   0.2892237
0.1145140    -0.0006052   0.0000014   0.0034207   0.0000068  -0.0000020  -0.0000139  -0.9389367   0.2893050
0.1159217    -0.0005349   0.0000056   0.0034393   0.0000027  -0.0000058  -0.0000006  -0.9389502   0.2893045
0.1173468    -0.0005405   0.0000817   0.0034259  -0.0000043   0.0000043  -0.0000100  -0.9390159   0.2893834
0.1187893    -0.0006468   0.0000248   0.0034351   0.0000056  -0.0000015  -0.0000112  -0.9391408   0.2894386
0.1202497    -0.0005640  -0.0000696   0.0034130   0.0000003  -0.0000076  -0.0000202  -0.9391425   0.2894774
0.1217279    -0.0005793   0.0000060   0.0034250   0.0000042   0.0000047   0.0000067  -0.9391774   0.2895602
0.1232243    -0.0005634   0.0001007   0.0034187  -0.0000051  -0.0000059  -0.0000097  -0.9393238   0.2897100
0.1247392    -0.0005575   0.0000684   0.0034164   0.0000025  -0.0000005  -0.0000021  -0.9393441   0.2897610
0.1262726    -0.0005295   0.0001145   0.0034382   0.0000037  -0.0000082  -0.0000107  -0.9393835   0.2898578
0.1278249    -0.0005167  -0.0000012   0.0034220  -0.0000064  -0.0000011  -0.0000062  -0.9393711   0.2899272
0.1293963    -0.0005481   0.0000880   0.0033965  -0.0000130  -0.0000038  -0.0000042  -0.9394349   0.2900448
0.1309870    -0.0005401  -0.0000025   0.0034166   0.0000049   0.0000004  -0.0000140  -0.9394403   0.2901690
0.1325973    -0.0006649   0.0000145   0.0034185   0.0000017  -0.0000006   0.0000020  -0.9394429   0.2901727
0.1342273    -0.0005481   0.0000147   0.0034119  -0.0000003  -0.0000030  -0.0000066  -0.9395119   0.2902830
0.1358774    -0.0004559  -0.0000293   0.0034252  -0.0000042  -0.0000045   0.0000028  -0.9394840   0.2904587
0.1375478    -0.0005428   0.0000556   0.0034396   0.0000120   0.0000041  -0.0000011  -0.9395102   0.2904983
0.1392387    -0.0005872   0.0000846   0.0034183   0.0000000  -0.0000016  -0.0000030  -0.9394896   0.2906542
0.1409504    -0.0005413  -0.0000098   0.0034217  -0.0000042  -0.0000098  -0.0000030  -0.9395416   0.2907525
0.1426831    -0.0005718   0.0000297   0.0034222  -0.0000076  -0.0000051  -0.0000032  -0.9395182   0.2907696
0.1444371    -0.0005186  -0.0000650   0.0034207  -0.0000059   0.0000040  -0.0000025  -0.9394529   0.2909111
0.1462127    -0.0004870   0.0000160   0.0034119  -0.0000146   0.0000011  -0.0000080  -0.9395321   0.2910522
0.1480102    -0.0005816   0.0000784   0.0034392   0.0000021  -0.0000016  -0.0000117  -0.9394888   0.2911476
0.1498297    -0.0005290   0.0000606   0.0034300   0.0000002  -0.0000046   0.0000006  -0.9394295   0.2911965
0.1516716    -0.0005273  -0.0000752   0.0034336  -0.0000041  -0.0000031   0.0000037  -0.9394114   0.2913293
0.1535361    -0.0005352   0.0000252   0.0034321   0.0000049  -0.0000056  -0.0000089  -0.9394468   0.2914228
0.1554236    -0.0005067   0.0000070   0.0034324   0.0000231   0.0000006   0.0000022  -0.9394299   0.2915906
0.1573342    -0.0004962  -0.0000563   0.0034323   0.0000022  -0.0000109  -0.0000090  -0.9393141   0.2916879
0.1592684    -0.0005588   0.0000472   0.0034348  -0.0000077   0.0000048   0.0000032  -0.9394186   0.2917255
0.1612263    -0.0005012   0.0000770   0.0034257   0.0000104   0.0000049  -0.0000010  -0.9393069   0.2918717
0.1632083    -0.0004926   0.0000515   0.0034314  -0.0000018   0.0000052  -0.0000046  -0.9393931   0.2919294
0.1652147    -0.0005879  -0.0000056   0.0034199   0.0000051  -0.0000054   0.0000015  -0.9392935   0.2920767
0.1672457    -0.0005370   0.0000165   0.0034240   0.0000058   0.0000058  -0.0000092  -0.9392819   0.2921465
0.1693017    -0.0004552   0.0000847   0.0034234   0.0000023  -0.0000093  -0.0000026  -0.9392562   0.2921591
0.1713829    -0.0005925   0.0000056   0.0034107  -0.0000021  -0.0000062  -0.0000029  -0.9392212   0.2923577
0.1734898    -0.0005237   0.0000332   0.0034174   0.0000077  -0.0000008   0.0000005  -0.9391912   0.2923584
0.1756225    -0.0005556   0.0000381   0.0034216  -0.0000053   0.0000067  -0.0000024  -0.9391699   0.2925539
0.1777815    -0.0004575   0.0001134   0.0034286   0.0000160  -0.0000031  -0.0000086  -0.9390592   0.2925714
0.1799670    -0.0004756   0.0000420   0.0034321   0.0000039  -0.0000053  -0.0000102  -0.9390654   0.2927581
0.1821794    -0.0005174   0.0000226   0.0034222  -0.0000106   0.0000027  -0.0000042  -0.9390483   0.2928551
0.1844190    -0.0005842   0.0000399   0.0034301   0.0000020  -0.0000014  -0.0000113  -0.9391059   0.2929285
0.1866861    -0.0005059   0.0000282   0.0034190   0.0000074  -0.0000025  -0.0000085  -0.9389236   0.2930493
0.1889811    -0.0004721  -0.0000490   0.0034311  -0.0000057  -0.0000052  -0.0000045  -0.9389341   0.2931909
0.1913043    -0.0004989   0.0000493   0.0034207   0.0000086  -0.0000022  -0.0000077  -0.9389398   0.2931881
0.1936560    -0.0005399   0.0000167   0.0034178  -0.0000044  -0.0000029   0.0000011  -0.9388743   0.2934055
0.1960367    -0.0005156   0.0000085   0.0034223  -0.0000045  -0.0000034  -0.0000113  -0.9388666   0.2935421
0.1984466    -0.0004907   0.0001139   0.0034263  -0.0000005  -0.0000069  -0.0000007  -0.9388003   0.2935264
0.2008861    -0.0005338   0.0000140   0.0034143   0.0000126  -0.0000035  -0.0000135  -0.9388468   0.2937072
0.2033557    -0.0005736   0.0000596   0.0034131   0.0000158  -0.0000017  -0.0000072  -0.9388149   0.2937507
0.2058556    -0.0005836  -0.0000282   0.0034221  -0.0000113   0.0000063  -0.0000012  -0.9386165   0.2938308
0.2083862    -0.0004745   0.0000859   0.0034151   0.0000017  -0.0000007  -0.0000098  -0.9386430   0.2939738
0.2109480    -0.0005785   0.0000627   0.0034230  -0.0000026  -0.0000041   0.0000037  -0.9386125   0.2940661
0.2135412    -0.0004989   0.0000515   0.0034299   0.0000101   0.0000026  -0.0000099  -0.9385548   0.2941996
0.2161663    -0.0005633   0.0000428   0.0034180   0.0000228   0.0000069  -0.0000061  -0.9385860   0.2942747
0.2188237    -0.0005120   0.0000718   0.0034122   0.0000056  -0.0000015  -0.0000051  -0.9385893   0.2944157
0.2215137    -0.0005515  -0.0000173   0.0034273  -0.0000071  -0.0000176  -0.0000081  -0.9384733   0.2944849
0.2242369    -0.0005796   0.0001128   0.0034318   0.0000011  -0.0000093  -0.0000156  -0.9383799   0.2946712
0.2269935    -0.0005774   0.0000425   0.0034209  -0.0000057  -0.0000070  -0.0000102  -0.9383557   0.2947396
0.2297839    -0.0006596   0.0000404   0.0034157  -0.0000011   0.0000008  -0.0000095  -0.9383288   0.2948782
0.2326087    -0.0005946   0.0000153   0.0034079   0.0000028  -0.0000072  -0.0000042  -0.9383012   0.2949777
0.2354682    -0.0005426   0.0001057   0.0034203   0.0000094   0.0000062  -0.0000025  -0.9382314   0.2950852
0.2383629    -0.0004858   0.0000153   0.0034030  -0.0000079   0.0000095  -0.0000077  -0.9382402   0.2951383
0.2412932    -0.0005480  -0.0000085   0.0034162   0.0000176  -0.0000204  -0.0000146  -0.9381400   0.2952565
0.2442594    -0.0005491   0.0000375   0.0034148   0.0000038  -0.0000093   0.0000065  -0.9381314   0.2954319
0.2472622    -0.0004731  -0.0000155   0.0034175  -0.0000004  -0.0000034  -0.0000044  -0.9381191   0.2955686
0.2503018    -0.0006691   0.0000837   0.0034287   0.0000057  -0.0000125  -0.0000093  -0.9379876   0.2957517
0.2533788    -0.0004452   0.0000544   0.0034175   0.0000062  -0.0000040   0.0000031  -0.9379655   0.2957465
0.2564937    -0.0005315   0.0000474   0.0034189   0.0000035  -0.0000017  -0.0000116  -0.9379517   0.2958429
0.2596468    -0.0004729   0.0000258   0.0034347   0.0000018  -0.0000103  -0.0000019  -0.9378675   0.2960615
0.2628387    -0.0005071   0.0000356   0.0034224  -0.0000014   0.0000019   0.0000031  -0.9378421   0.2962113
0.2660699    -0.0006044  -0.0000744   0.0034224   0.0000036   0.0000030  -0.0000001  -0.9377637   0.2962477
0.2693407    -0.0004551   0.0000067   0.0034178   0.0000127   0.0000029   0.0000017  -0.9376920   0.2964796
0.2726518    -0.0005081  -0.0000396   0.0034071   0.0000090   0.0000098  -0.0000065  -0.9376563   0.2965318
0.2760036    -0.0005988  -0.0000105   0.0034266   0.0000088  -0.0000009  -0.0000004  -0.9376370   0.2967253
0.2793966    -0.0005352  -0.0000093   0.0034115  -0.0000075   0.0000015  -0.0000069  -0.9375655   0.2967840
0.2828312    -0.0005331  -0.0000038   0.0034282   0.0000010  -0.0000054  -0.0000065  -0.9375553   0.2969881
0.2863082    -0.0005848   0.0000296   0.0034194  -0.0000062  -0.0000069  -0.0000156  -0.9374514   0.2970842
0.2898278    -0.0006019   0.0000315   0.0034339  -0.0000058   0.0000011  -0.0000148  -0.9373987   0.2972562
0.2933907    -0.0005260  -0.0000063   0.0034184   0.0000100  -0.0000071  -0.0000110  -0.9374491   0.2973166
0.2969975    -0.0005551   0.0000868   0.0034209  -0.0000102   0.0000025  -0.0000002  -0.9373918   0.2974570
0.3006485    -0.0005657   0.0000522   0.0034335   0.0000017  -0.0000037  -0.0000003  -0.9372446   0.2976492
0.3043445    -0.0004682   0.0000954   0.0034072   0.0000021   0.0000030  -0.0000090  -0.9372233   0.2977212
0.3080858    -0.0005293   0.0000380   0.0034271  -0.0000008   0.0000008  -0.0000047  -0.9371217   0.2978439
0.3118732    -0.0006046   0.0000286   0.0034176   0.0000057  -0.0000029  -0.0000037  -0.9370846   0.2981255
0.3157071    -0.0005644   0.0001071   0.0034225  -0.0000051   0.0000001  -0.0000051  -0.9369519   0.2981806
0.3195882    -0.0005875   0.0000838   0.0034303   0.0000070  -0.0000056  -0.0000075  -0.9369621   0.2983713
0.3235170    -0.0004598   0.0000417   0.0034269  -0.0000003   0.0000005  -0.0000101  -0.9368877   0.2985743
0.3274941    -0.0005560   0.0000115   0.0034262  -0.0000096  -0.0000171  -0.0000030  -0.9368245   0.2986018
0.3315200    -0.0005096   0.0000401   0.0034206  -0.0000114  -0.0000011  -0.0000002  -0.9366881   0.2987612
0.3355955    -0.0004981   0.0000577   0.0034276  -0.0000063   0.0000024  -0.0000098  -0.9367534   0.2988743
0.3397210    -0.0005132   0.0000474   0.0034143  -0.0000004  -0.0000033  -0.0000140  -0.9366286   0.2991156
0.3438973    -0.0005775   0.0000725   0.0034389  -0.0000080   0.0000025  -0.0000018  -0.9365542   0.2991742
0.3481249    -0.0005786   0.0000491   0.0034267   0.0000038  -0.0000090  -0.0000003  -0.9365513   0.2993079
0.3524045    -0.0005189   0.0000115   0.0034163  -0.0000031   0.0000071  -0.0000049  -0.9364981   0.2994654
0.3567367    -0.0005819   0.0000787   0.0034279   0.0000096   0.0000048  -0.0000006  -0.9364733   0.2996630
0.3611221    -0.0005667   0.0000449   0.0034250  -0.0000111  -0.0000009  -0.0000053  -0.9363157   0.2998125
0.3655615    -0.0005768   0.0001123   0.0034323  -0.0000050   0.0000008   0.0000035  -0.9362350   0.2999891
0.3700554    -0.0005053  -0.0000826   0.0034386   0.0000019  -0.0000078   0.0000013  -0.9361766   0.3001423
0.3746046    -0.0005554   0.0000727   0.0034195   0.0000077  -0.0000074   0.0000052  -0.9360952   0.3002810
0.3792097    -0.0004659   0.0000575   0.0034171   0.0000098   0.0000027  -0.0000014  -0.9360310   0.3005167
0.3838714    -0.0004922   0.0000348   0.0034164   0.0000023  -0.0000147   0.0000006  -0.9360487   0.3006684
0.3885905    -0.0005212  -0.0000667   0.0034189   0.0000050   0.0000014  -0.0000025  -0.9359445   0.3008066
0.3933675    -0.0005905   0.0000693   0.0034238   0.0000025  -0.0000064  -0.0000079  -0.9358374   0.3010662
0.3982033    -0.0006527   0.0000528   0.0034206   0.0000058   0.0000045  -0.0000028  -0.9357388   0.3011775
0.4030985    -0.0006023   0.0000581   0.0034225   0.0000047  -0.0000013  -0.0000019  -0.9356822   0.3013380
0.4080538    -0.0005201   0.0001119   0.0034195  -0.0000005   0.0000088  -0.0000011  -0.9356213   0.3015114
0.4130701    -0.0006043   0.0000429   0.0034210  -0.0000068  -0.0000030  -0.0000011  -0.9354990   0.3017008
0.4181481    -0.0005102   0.0000276   0.0034175   0.0000010  -0.0000217  -0.0000123  -0.9354835   0.3019167
0.4232885    -0.0005915   0.0000906   0.0034011   0.0000034   0.0000013  -0.0000042  -0.9353929   0.3020374
0.4284921    -0.0005660   0.0000146   0.0034191  -0.0000001   0.0000050  -0.0000019  -0.9353126   0.3021829
0.4337597    -0.0005848   0.0000812   0.0034229   0.0000001  -0.0000025  -0.0000129  -0.9351899   0.3024178
0.4390920    -0.0005445  -0.0000299   0.0034271  -0.0000052   0.0000014  -0.0000040  -0.9351455   0.3026475
0.4444898    -0.0005219   0.0000884   0.0034166  -0.0000098   0.0000003  -0.0000071  -0.9350953   0.3028394
0.4499541    -0.0005419   0.0000298   0.0034296  -0.0000140   0.0000018   0.0000071  -0.9349420   0.3029515
0.4554854    -0.0004922   0.0000498   0.0034144   0.0000014  -0.0000024   0.0000004  -0.9349191   0.3031716
0.4610848    -0.0005687  -0.0000105   0.0034229  -0.0000066   0.0000036  -0.0000010  -0.9347462   0.3034583
0.4667531    -0.0005201   0.0000755   0.0034266  -0.0000118  -0.0000048  -0.0000122  -0.9347264   0.3035858
0.4724910    -0.0005281   0.0000766   0.0034234  -0.0000156   0.0000114  -0.0000039  -0.9345766   0.3037551
0.4782994    -0.0005385   0.0000796   0.0034193   0.0000037  -0.0000062  -0.0000052  -0.9345650   0.3040264
0.4841793    -0.0005536   0.0001586   0.0034292  -0.0000055   0.0000106   0.0000023  -0.9344129   0.3041643
0.4901314    -0.0005316   0.0000339   0.0034158   0.0000020   0.0000062  -0.0000086  -0.9344641   0.3044346
0.4961567    -0.0005231   0.0000892   0.0034099   0.0000001  -0.0000058  -0.0000014  -0.9343045   0.3046205
0.5022561    -0.0004472   0.0000461   0.0034121  -0.0000119  -0.0000017  -0.0000053  -0.9341865   0.3048411
0.5084304    -0.0005494   0.0000622   0.0034224  -0.0000027  -0.0000013  -0.0000019  -0.9340425   0.3051119
0.5146807    -0.0006135   0.0000729   0.0034052  -0.0000067  -0.0000092  -0.0000063  -0.9339961   0.3052493
0.5210078    -0.0005199   0.0000745   0.0034168  -0.0000178   0.0000043  -0.0000041  -0.9338725   0.3054744
0.5274126    -0.0006113   0.0001029   0.0034310  -0.0000049  -0.0000064  -0.0000075  -0.9338402   0.3057256
0.5338963    -0.0005311   0.0000869   0.0034121  -0.0000057   0.0000003   0.0000057  -0.9337405   0.3059158
0.5404596    -0.0004588   0.0000734   0.0034141   0.0000035  -0.0000084   0.0000050  -0.9336710   0.3062319
0.5471036    -0.0005437   0.0000431   0.0034331   0.0000002  -0.0000094  -0.0000065  -0.9335276   0.3063257
0.5538292    -0.0005239   0.0000155   0.0034127  -0.0000048   0.0000020  -0.0000054  -0.9334165   0.3066357
0.5606376    -0.0005133   0.0001037   0.0034199  -0.0000014  -0.0000026  -0.0000073  -0.9332411   0.3068205
0.5675297    -0.0005557   0.0000360   0.0034225  -0.0000146  -0.0000022  -0.0000028  -0.9331879   0.3071370
0.5745064    -0.0004493   0.0001363   0.0034136   0.0000059   0.0000018   0.0000011  -0.9330557   0.3073340
0.5815690    -0.0004948   0.0000721   0.0034266  -0.0000062   0.0000020   0.0000047  -0.9330523   0.3075216
0.5887183    -0.0004307   0.0000638   0.0034131   0.0000056  -0.0000109  -0.0000114  -0.9328489   0.3077647
0.5959556    -0.0006102   0.0000932   0.0034175  -0.0000101  -0.0000057  -0.0000093  -0.9327533   0.3080503
0.6032818    -0.0005140   0.0001173   0.0034296  -0.0000131  -0.0000051  -0.0000031  -0.9326622   0.3083318
0.6106981    -0.0005095   0.0000610   0.0034094   0.0000030   0.0000033  -0.0000101  -0.9325332   0.3086434
0.6182056    -0.0004845   0.0000994   0.0034185  -0.0000022   0.0000045  -0.0000047  -0.9324797   0.3087512
0.6258053    -0.0004386   0.0000789   0.0034273   0.0000048  -0.0000036   0.0000009  -0.9323100   0.3090988
0.6334985    -0.0005423   0.0001390   0.0034061   0.0000039   0.0000043  -0.0000057  -0.9322906   0.3093580
0.6412862    -0.0005150   0.0001765   0.0034247  -0.0000026  -0.0000087  -0.0000039  -0.9320162   0.3096498
0.6491697    -0.0004761   0.0000670   0.0034250   0.0000077  -0.0000025   0.0000017  -0.9320639   0.3099768
0.6571501    -0.0005546   0.0001862   0.0034215  -0.0000028  -0.0000156  -0.0000076  -0.9318527   0.3101546
0.6652286    -0.0004616   0.0001110   0.0034131  -0.0000019   0.0000013  -0.0000025  -0.9317385   0.3105023
0.6734064    -0.0005125   0.0000835   0.0034243   0.0000072  -0.0000007  -0.0000128  -0.9316249   0.3107810
0.6816848    -0.0004872   0.0000149   0.0034386  -0.0000004  -0.0000108  -0.0000052  -0.9314518   0.3109770
0.6900649    -0.0004739   0.0000411   0.0034255  -0.0000073  -0.0000001  -0.0000024  -0.9313558   0.3112493
0.6985480    -0.0005397   0.0000940   0.0034409  -0.0000078  -0.0000011  -0.0000022  -0.9312130   0.3116300
0.7071355    -0.0006221   0.0000758   0.0034232  -0.0000113   0.0000024  -0.0000047  -0.9311384   0.3119213
0.7158284    -0.0005601   0.0001016   0.0034165  -0.0000076   0.0000018  -0.0000044  -0.9310515   0.3121998
0.7246283    -0.0005359   0.0000001   0.0034218  -0.0000100  -0.0000065  -0.0000022  -0.9308397   0.3124587
0.7335363    -0.0004836   0.0001814   0.0034189  -0.0000003   0.0000072  -0.0000030  -0.9308036   0.3127722
0.7425539    -0.0005009   0.0001401   0.0034216  -0.0000025  -0.0000014  -0.0000051  -0.9306783   0.3131388
0.7516822    -0.0005217   0.0001526   0.0034270  -0.0000093  -0.0000061   0.0000039  -0.9304417   0.3133883
0.7609229    -0.0005833   0.0000645   0.0034155   0.0000121  -0.0000108  -0.0000073  -0.9302693   0.3136903
0.7702771    -0.0005016   0.0001046   0.0034212  -0.0000053   0.0000060  -0.0000118  -0.9301103   0.3139566
0.7797463    -0.0005236   0.0000497   0.0034208  -0.0000100  -0.0000053  -0.0000039  -0.9299867   0.3143409
0.7893319    -0.0005020   0.0001100   0.0034243   0.0000002  -0.0000011  -0.0000039  -0.9298566   0.3146606
0.7990353    -0.0004227   0.0000399   0.0034189  -0.0000067   0.0000108   0.0000006  -0.9297423   0.3149845
0.8088580    -0.0005033   0.0001572   0.0034132  -0.0000036  -0.0000011  -0.0000043  -0.9295781   0.3153214
0.8188015    -0.0005210   0.0001080   0.0034306   0.0000029  -0.0000041  -0.0000032  -0.9294537   0.3156519
0.8288673    -0.0005258   0.0001017   0.0034249  -0.0000142  -0.0000032  -0.0000065  -0.9292674   0.3159989
0.8390567    -0.0005831   0.0001182   0.0034249  -0.0000030   0.0000029  -0.0000167  -0.9291964   0.3163791
0.8493714    -0.0005138   0.0000554   0.0034206  -0.0000111   0.0000081  -0.0000012  -0.9290133   0.3166715
0.8598130    -0.0004740   0.0001305   0.0034078  -0.0000032   0.0000073  -0.0000083  -0.9288463   0.3170546
0.8703829    -0.0005202   0.0001453   0.0034228   0.0000024   0.0000037  -0.0000044  -0.9286617   0.3173866
0.8810827    -0.0005069   0.0001838   0.0034281  -0.0000091  -0.0000029  -0.0000054  -0.9285109   0.3178376
0.8919140    -0.0005521   0.0001416   0.0034190  -0.0000190   0.0000023  -0.0000108  -0.9283561   0.3181357
0.9028786    -0.0004979   0.0001451   0.0034216  -0.0000075  -0.0000092   0.0000004  -0.9281942   0.3185210
0.9139779    -0.0005465   0.0001159   0.0034263  -0.0000146  -0.0000026  -0.0000067  -0.9280326   0.3189216
0.9252136    -0.0005520   0.0000853   0.0034162   0.0000003  -0.0000001  -0.0000139  -0.9278553   0.3192816
0.9365875    -0.0005538   0.0000725   0.0034294  -0.0000101  -0.0000034   0.0000006  -0.9276938   0.3196557
0.9481012    -0.0005872   0.0001905   0.0034172   0.0000034  -0.0000017  -0.0000055  -0.9275186   0.3200543
0.9597564    -0.0005782   0.0000677   0.0034253  -0.0000108  -0.0000017  -0.0000023  -0.9273121   0.3204456
0.9715549    -0.0005126   0.0001305   0.0034207  -0.0000085  -0.0000036  -0.0000012  -0.9271461   0.3208858
0.9834985    -0.0004818   0.0001034   0.0034212  -0.0000024  -0.0000065  -0.0000013  -0.9270109   0.3212321
0.9955889    -0.0006314   0.0000957   0.0034070   0.0000027  -0.0000032  -0.0000050  -0.9268638   0.3216050
1.0078279    -0.0005777   0.0000787   0.0034343  -0.0000133   0.0000107  -0.0000079  -0.9265545   0.3220619
1.0202173    -0.0004913   0.0001056   0.0034211  -0.0000041   0.0000011  -0.0000053  -0.9264578   0.3224213
1.0327591    -0.0005216   0.0000177   0.0034237  -0.0000017  -0.0000039  -0.0000004  -0.9262505   0.3229331
1.0454551    -0.0005021   0.0001152   0.0034300  -0.0000124   0.0000008  -0.0000101  -0.9260666   0.3233381
1.0583071    -0.0004764   0.0001061   0.0034139   0.0000067  -0.0000013   0.0000049  -0.9258682   0.3237213
1.0713171    -0.0005451   0.0000984   0.0034255  -0.0000001  -0.0000064   0.0000018  -0.9255917   0.3241481
1.0844871    -0.0004987   0.0000584   0.0034071  -0.0000041  -0.0000048   0.0000027  -0.9254617   0.3245377
1.0978189    -0.0005227   0.0002006   0.0034239  -0.0000018   0.0000007   0.0000068  -0.9252756   0.3250599
1.1113147    -0.0005441   0.0001687   0.0034210   0.0000055  -0.0000006  -0.0000055  -0.9250334   0.3254274
1.1249763    -0.0004487   0.0000869   0.0034209  -0.0000215  -0.0000013  -0.0000018  -0.9248774   0.3259905
1.1388059    -0.0005766   0.0001514   0.0034240  -0.0000034  -0.0000019  -0.0000060  -0.9247198   0.3264517
1.1528056    -0.0005633   0.0000795   0.0034219  -0.0000027  -0.0000044  -0.0000036  -0.9244583   0.3268988
1.1669773    -0.0005505   0.0001254   0.0034185   0.0000000  -0.0000009  -0.0000082  -0.9242727   0.3273953
1.1813232    -0.0006009   0.0000342   0.0034364  -0.0000097  -0.0000031  -0.0000048  -0.9240773   0.3278585
1.1958455    -0.0004806   0.0001038   0.0034219  -0.0000119   0.0000009   0.0000004  -0.9238039   0.3283554
1.2105463    -0.0005440   0.0001300   0.0034149  -0.0000018  -0.0000031  -0.0000085  -0.9236208   0.3288517
1.2254278    -0.0006006   0.0000353   0.0034250  -0.0000070  -0.0000064   0.0000002  -0.9233540   0.3293477
1.2404923    -0.0005249   0.0001271   0.0034220  -0.0000072   0.0000005  -0.0000006  -0.9232183   0.3298264
1.2557420    -0.0004554   0.0001932   0.0034209  -0.0000082   0.0000060  -0.0000034  -0.9229541   0.3303611
1.2711791    -0.0005697   0.0001685   0.0034241  -0.0000210   0.0000058   0.0000032  -0.9226769   0.3308420
1.2868060    -0.0005589   0.0001070   0.0034263  -0.0000042  -0.0000086   0.0000018  -0.9224299   0.3313969
1.3026251    -0.0005003   0.0001551   0.0034142  -0.0000068   0.0000010  -0.0000178  -0.9221532   0.3319239
1.3186385    -0.0006179   0.0001577   0.0034297  -0.0000016  -0.0000032  -0.0000001  -0.9219294   0.3324706
1.3348489    -0.0005039   0.0001469   0.0034159  -0.0000032  -0.0000022  -0.0000067  -0.9217568   0.3330027
1.3512585    -0.0005499   0.0000359   0.0034355  -0.0000049  -0.0000067  -0.0000152  -0.9214508   0.3335168
1.3678698    -0.0005188   0.0001413   0.0034214  -0.0000034  -0.0000091  -0.0000157  -0.9212825   0.3340755
1.3846854    -0.0005224   0.0001902   0.0034070  -0.0000120   0.0000027  -0.0000135  -0.9210106   0.3347380
1.4017077    -0.0004862   0.0002531   0.0034159  -0.0000080   0.0000041   0.0000045  -0.9207423   0.3352204
1.4189392    -0.0004696   0.0002026   0.0034180  -0.0000202   0.0000006   0.0000001  -0.9205003   0.3357456
1.4363825    -0.0005114   0.0002845   0.0034294  -0.0000079  -0.0000072  -0.0000012  -0.9202484   0.3363581
1.4540403    -0.0004833   0.0002947   0.0034106   0.0000039  -0.0000064  -0.0000011  -0.9199559   0.3369570
1.4719152    -0.0005205   0.0001321   0.0034318  -0.0000212   0.0000078   0.0000075  -0.9197156   0.3376479
1.4900098    -0.0004489   0.0001097   0.0034387  -0.0000071   0.0000059  -0.0000025  -0.9193985   0.3381595
1.5083269    -0.0004925   0.0001753   0.0034280  -0.0000118  -0.0000053   0.0000013  -0.9191216   0.3387463
1.5268691    -0.0004758   0.0001674   0.0034270  -0.0000224   0.0000075  -0.0000016  -0.9188447   0.3393919
1.5456392    -0.0005871   0.0001266   0.0034232  -0.0000095  -0.0000034  -0.0000016  -0.9186352   0.3399954
1.5646402    -0.0005532   0.0001438   0.0034013  -0.0000086   0.0000027  -0.0000022  -0.9183255   0.3407034
1.5838747    -0.0006643   0.0002044   0.0034288  -0.0000183  -0.0000058   0.0000018  -0.9180071   0.3413056
1.6033456    -0.0005261   0.0001866   0.0034314  -0.0000122  -0.0000038   0.0000005  -0.9178175   0.3419714
1.6230559    -0.0005141   0.0002572   0.0034173  -0.0000081   0.0000040  -0.0000088  -0.9174998   0.3426997
1.6430085    -0.0004829   0.0002014   0.0034148  -0.0000149  -0.0000092  -0.0000087  -0.9171685   0.3433497
1.6632064    -0.0006239   0.0002189   0.0034319  -0.0000054  -0.0000108  -0.0000073  -0.9168588   0.3440620
1.6836526    -0.0005073   0.0000811   0.0034178  -0.0000122   0.0000037  -0.0000099  -0.9166106   0.3447857
1.7043502    -0.0005083   0.0002554   0.0034147  -0.0000238   0.0000002  -0.0000113  -0.9161800   0.3455200
1.7253021    -0.0004613   0.0003096   0.0034143  -0.0000045  -0.0000079  -0.0000040  -0.9159925   0.3461715
1.7465117    -0.0004778   0.0001951   0.0034242  -0.0000112   0.0000025  -0.0000055  -0.9157903   0.3469968
1.7679820    -0.0004069   0.0001903   0.0034135  -0.0000093  -0.0000045   0.0000031  -0.9154066   0.3477171
1.7897162    -0.0004875   0.0002074   0.0034034  -0.0000201  -0.0000016  -0.0000074  -0.9151174   0.3484560
1.8117176    -0.0005363   0.0002197   0.0034185  -0.0000073  -0.0000088  -0.0000035  -0.9147761   0.3493066
1.8339895    -0.0004954   0.0001953   0.0034158  -0.0000182  -0.0000118  -0.0000034  -0.9144893   0.3500739
1.8565352    -0.0005513   0.0002147   0.0034220  -0.0000150  -0.0000061  -0.0000007  -0.9141587   0.3508992
1.8793580    -0.0005822   0.0002794   0.0034192  -0.0000071   0.0000050  -0.0000067  -0.9138773   0.3516445
1.9024614    -0.0005012   0.0003296   0.0034329  -0.0000196   0.0000034   0.0000019  -0.9136433   0.3524820
1.9258488    -0.0005445   0.0002011   0.0034293  -0.0000170  -0.0000040  -0.0000066  -0.9132013   0.3533232
1.9495237    -0.0005287   0.0002282   0.0034073  -0.0000183  -0.0000036  -0.0000086  -0.9128573   0.3542622
1.9734897    -0.0005234   0.0002031   0.0034246  -0.0000163  -0.0000027  -0.0000027  -0.9124967   0.3551210
1.9977503    -0.0005021   0.0001990   0.0034015  -0.0000152  -0.0000022  -0.0000100  -0.9121862   0.3560367
2.0223091    -0.0004947   0.0002292   0.0034208  -0.0000143   0.0000036  -0.0000066  -0.9117146   0.3569520
2.0471698    -0.0004956   0.0002697   0.0034075  -0.0000244   0.0000021  -0.0000058  -0.9112576   0.3578717
2.0723362    -0.0005714   0.0001799   0.0034300  -0.0000119  -0.0000052  -0.0000109  -0.9108508   0.3587810
2.0978119    -0.0005303   0.0002370   0.0034207  -0.0000275  -0.0000046  -0.0000081  -0.9103719   0.3597379
2.1236008    -0.0004928   0.0003528   0.0034245  -0.0000203  -0.0000093  -0.0000004  -0.9098752   0.3606545
2.1497067    -0.0005603   0.0002432   0.0034256  -0.0000074  -0.0000046  -0.0000022  -0.9093895   0.3616367
2.1761336    -0.0004682   0.0001848   0.0034170  -0.0000215  -0.0000068  -0.0000094  -0.9089004   0.3624516
2.2028853    -0.0004083   0.0002100   0.0034167  -0.0000253  -0.0000069  -0.0000036  -0.9082573   0.3634525
2.2299659    -0.0004399   0.0002727   0.0034247  -0.0000326  -0.0000041  -0.0000103  -0.9079217   0.3643863
2.2573794    -0.0005323   0.0002089   0.0034151  -0.0000269  -0.0000005   0.0000045  -0.9073349   0.3653268
2.2851299    -0.0004892   0.0002337   0.0034206  -0.0000298  -0.0000203  -0.0000078  -0.9067572   0.3662666
2.3132216    -0.0005202   0.0002716   0.0034305  -0.0000170  -0.0000061  -0.0000051  -0.9062437   0.3671181
2.3416586    -0.0004917   0.0001531   0.0034205  -0.0000226   0.0000013  -0.0000147  -0.9056892   0.3680784
2.3704451    -0.0004241   0.0002969   0.0034335  -0.0000268  -0.0000051  -0.0000091  -0.9051684   0.3691096
2.3995856    -0.0004799   0.0001914   0.0034249  -0.0000176  -0.0000066  -0.0000082  -0.9045189   0.3700807
2.4290843    -0.0005436   0.0002935   0.0034231  -0.0000268  -0.0000003  -0.0000136  -0.9041214   0.3709168
2.4589456    -0.0004766   0.0002576   0.0034138  -0.0000161  -0.0000015  -0.0000055  -0.9035454   0.3719175
2.4891740    -0.0003816   0.0002371   0.0034239  -0.0000315   0.0000065   0.0000046  -0.9030067   0.3729132
2.5197740    -0.0005191   0.0002660   0.0034018  -0.0000290  -0.0000101  -0.0000049  -0.9025121   0.3739415
2.5507502    -0.0004724   0.0003146   0.0034293  -0.0000269  -0.0000041   0.0000006  -0.9019500   0.3748543
2.5821072    -0.0005460   0.0003673   0.0034321  -0.0000204   0.0000005  -0.0000009  -0.9013914   0.3758758
2.6138496    -0.0004574   0.0003252   0.0034234  -0.0000353  -0.0000073  -0.0000027  -0.9007222   0.3768633
2.6459823    -0.0006021   0.0003242   0.0034146  -0.0000296  -0.0000029   0.0000048  -0.9001987   0.3779199
2.6785100    -0.0005733   0.0003477   0.0034131  -0.0000271  -0.0000082  -0.0000121  -0.8996597   0.3790409
2.7114376    -0.0004808   0.0003097   0.0034248  -0.0000185  -0.0000063  -0.0000062  -0.8990225   0.3800620
2.7447699    -0.0005392   0.0003071   0.0034190  -0.0000255   0.0000017  -0.0000063  -0.8984440   0.3810689
2.7785120    -0.0005456   0.0002530   0.0034223  -0.0000219  -0.0000026  -0.0000068  -0.8978285   0.3821643
2.8126689    -0.0004911   0.0003138   0.0034312  -0.0000256  -0.0000122   0.0000035  -0.8973122   0.3833147
2.8472457    -0.0004720   0.0002354   0.0034127  -0.0000281  -0.0000035  -0.0000070  -0.8967607   0.3844286
2.8822476    -0.0004258   0.0002826   0.0034292  -0.0000259   0.0000060   0.0000022  -0.8961782   0.3855124
2.9176798    -0.0004309   0.0003223   0.0034323  -0.0000154  -0.0000007  -0.0000141  -0.8955195   0.3866086
2.9535475    -0.0005610   0.0003591   0.0034152  -0.0000283  -0.0000058  -0.0000054  -0.8949483   0.3878070
2.9898562    -0.0004558   0.0002299   0.0034254  -0.0000282  -0.0000028  -0.0000049  -0.8942470   0.3890268
3.0266112    -0.0005117   0.0003234   0.0034217  -0.0000312  -0.0000014  -0.0000102  -0.8936296   0.3901293
3.0638180    -0.0005292   0.0002259   0.0034247  -0.0000409  -0.0000027  -0.0000106  -0.8929854   0.3913348
3.1014823    -0.0004504   0.0003709   0.0034222  -0.0000202   0.0000122   0.0000001  -0.8923790   0.3926033
3.1396096    -0.0004690   0.0002854   0.0034294  -0.0000199   0.0000007  -0.0000151  -0.8916534   0.3937399
3.1782055    -0.0005411   0.0003274   0.0034193  -0.0000166  -0.0000052  -0.0000060  -0.8910269   0.3950064
3.2172760    -0.0005101   0.0004084   0.0034175  -0.0000257  -0.0000021  -0.0000025  -0.8903442   0.3962763
3.2568267    -0.0003586   0.0003261   0.0034318  -0.0000222   0.0000000   0.0000010  -0.8897056   0.3975141
3.2968637    -0.0004501   0.0003851   0.0034144  -0.0000285   0.0000079  -0.0000071  -0.8889123   0.3988380
3.3373928    -0.0004677   0.0003945   0.0034094  -0.0000197  -0.0000055  -0.0000043  -0.8882090   0.4000991
3.3784202    -0.0005175   0.0003177   0.0034252  -0.0000250   0.0000017  -0.0000115  -0.8874257   0.4014749
3.4199519    -0.0005180   0.0002817   0.0034241  -0.0000291  -0.0000018  -0.0000072  -0.8867184   0.4027799
3.4619942    -0.0004761   0.0003809   0.0034306  -0.0000316   0.0000094  -0.0000015  -0.8859021   0.4040620
3.5045533    -0.0004655   0.0003456   0.0034202  -0.0000272  -0.0000130  -0.0000043  -0.8851955   0.4055343
3.5476356    -0.0005093   0.0003325   0.0034172  -0.0000351  -0.0000032  -0.0000072  -0.8844131   0.4068135
3.5912475    -0.0004437   0.0003944   0.0034162  -0.0000304   0.0000050  -0.0000068  -0.8835820   0.4081858
3.6353956    -0.0005082   0.0003227   0.0034421  -0.0000370  -0.0000033   0.0000033  -0.8828196   0.4096963
3.6800864    -0.0005557   0.0003857   0.0034150  -0.0000133  -0.0000019  -0.0000012  -0.8820544   0.4111741
3.7253266    -0.0004469   0.0004485   0.0034176  -0.0000468  -0.0000012   0.0000029  -0.8812237   0.4125975
3.7711229    -0.0004636   0.0003882   0.0034333  -0.0000386   0.0000036  -0.0000073  -0.8804596   0.4140384
3.8174822    -0.0005427   0.0003450   0.0034247  -0.0000409   0.0000054  -0.0000037  -0.8795996   0.4154965
3.8644115    -0.0004416   0.0003503   0.0034422  -0.0000459  -0.0000027  -0.0000005  -0.8788628   0.4170898
3.9119176    -0.0004014   0.0003817   0.0034213  -0.0000323   0.0000050  -0.0000047  -0.8780034   0.4186069
3.9600077    -0.0005531   0.0004271   0.0034281  -0.0000402  -0.0000003  -0.0000106  -0.8772529   0.4201030
4.0086890    -0.0004457   0.0004108   0.0034270  -0.0000426  -0.0000001  -0.0000011  -0.8762245   0.4216955
4.0579688    -0.0004729   0.0004137   0.0034124  -0.0000404   0.0000105  -0.0000087  -0.8753939   0.4232443
4.1078544    -0.0004663   0.0004263   0.0034305  -0.0000205   0.0000009  -0.0000062  -0.8745147   0.4247613
4.1583532    -0.0004704   0.0004559   0.0034254  -0.0000442  -0.0000076  -0.0000134  -0.8735491   0.4263804
4.2094729    -0.0004819   0.0004265   0.0034256  -0.0000419  -0.0000130  -0.0000085  -0.8727399   0.4279787
4.2612209    -0.0005021   0.0005214   0.0034239  -0.0000356   0.0000049  -0.0000003  -0.8717528   0.4295703
4.3136051    -0.0005289   0.0004325   0.0034200  -0.0000440   0.0000094  -0.0000038  -0.8707551   0.4312195
4.3666333    -0.0004367   0.0004107   0.0034179  -0.0000268  -0.0000042  -0.0000094  -0.8698497   0.4329018
4.4203134    -0.0004818   0.0005464   0.0034120  -0.0000529  -0.0000094  -0.0000055  -0.8687537   0.4345216
4.4746534    -0.0004893   0.0004467   0.0034188  -0.0000485  -0.0000100  -0.0000040  -0.8676684   0.4362446
4.5296613    -0.0005599   0.0004900   0.0034275  -0.0000372  -0.0000140  -0.0000062  -0.8666960   0.4379928
4.5853455    -0.0004902   0.0004776   0.0034212  -0.0000516   0.0000126  -0.0000056  -0.8655878   0.4397037
4.6417143    -0.0004656   0.0004035   0.0034043  -0.0000457   0.0000038  -0.0000010  -0.8644354   0.4412928
4.6987760    -0.0003863   0.0005142   0.0034354  -0.0000314  -0.0000146  -0.0000077  -0.8633619   0.4429503
4.7565392    -0.0003724   0.0004232   0.0034258  -0.0000269  -0.0000048  -0.0000118  -0.8622112   0.4446939
4.8150125    -0.0004272   0.0005362   0.0034093  -0.0000460   0.0000012  -0.0000054  -0.8610678   0.4463435
4.8742045    -0.0004717   0.0004464   0.0034217  -0.0000463   0.0000013  -0.0000100  -0.8598778   0.4479819
4.9341243    -0.0004703   0.0006215   0.0034213  -0.0000498  -0.0000079  -0.0000109  -0.8588102   0.4494953
4.9947807    -0.0004473   0.0005178   0.0034227  -0.0000573  -0.0000006  -0.0000013  -0.8578174   0.4510817
5.0561827    -0.0005118   0.0005767   0.0034153  -0.0000453  -0.0000007  -0.0000055  -0.8568059   0.4527803
5.1183396    -0.0005328   0.0005072   0.0034100  -0.0000521   0.0000014  -0.0000067  -0.8558557   0.4544847
5.1812606    -0.0005306   0.0004867   0.0034366  -0.0000321   0.0000041   0.0000007  -0.8549632   0.4562606
5.2449550    -0.0004388   0.0005294   0.0034175  -0.0000480  -0.0000038  -0.0000165  -0.8540537   0.4582926
5.3094325    -0.0005754   0.0005471   0.0034266  -0.0000299  -0.0000002  -0.0000129  -0.8530595   0.4601084
5.3747026    -0.0004559   0.0005688   0.0034105  -0.0000439  -0.0000032  -0.0000010  -0.8520304   0.4623129
5.4407751    -0.0005056   0.0006087   0.0034131  -0.0000618   0.0000050  -0.0000045  -0.8508710   0.4642557
5.5076599    -0.0004495   0.0005533   0.0034091  -0.0000498  -0.0000117  -0.0000096  -0.8497691   0.4663224
5.5753669    -0.0005077   0.0004895   0.0034044  -0.0000477   0.0000046  -0.0000046  -0.8485973   0.4684798
5.6439062    -0.0004577   0.0006343   0.0034254  -0.0000488   0.0000020  -0.0000020  -0.8474325   0.4705647
5.7132881    -0.0004349   0.0006407   0.0034181  -0.0000552  -0.0000053  -0.0000021  -0.8461542   0.4727491
5.7835229    -0.0005149   0.0006381   0.0034077  -0.0000673   0.0000120  -0.0000015  -0.8448744   0.4749231
5.8546211    -0.0004958   0.0005803   0.0034196  -0.0000463   0.0000019  -0.0000059  -0.8436650   0.4771559
5.9265934    -0.0003932   0.0005610   0.0034228  -0.0000543   0.0000031  -0.0000032  -0.8422969   0.4793258
5.9994504    -0.0004829   0.0006085   0.0034334  -0.0000560  -0.0000047  -0.0000054  -0.8409209   0.4814409
6.0732031    -0.0004019   0.0006154   0.0034213  -0.0000680  -0.0000113  -0.0000100  -0.8395623   0.4836481
6.1478624    -0.0003622   0.0006737   0.0034339  -0.0000604   0.0000063  -0.0000045  -0.8381859   0.4858738
6.2234396    -0.0004653   0.0005977   0.0034140  -0.0000640  -0.0000013  -0.0000036  -0.8366054   0.4881844
6.2999458    -0.0004358   0.0006338   0.0034267  -0.0000577  -0.0000015  -0.0000074  -0.8352632   0.4904485
6.3773925    -0.0004523   0.0007640   0.0034242  -0.0000552  -0.0000065  -0.0000109  -0.8337530   0.4927246
6.4557914    -0.0004572   0.0006585   0.0034268  -0.0000626   0.0000019  -0.0000044  -0.8322471   0.4949631
6.5351539    -0.0004388   0.0006318   0.0034220  -0.0000575  -0.0000016   0.0000001  -0.8307492   0.4973691
6.6154922    -0.0004300   0.0005554   0.0034162  -0.0000493   0.0000017  -0.0000067  -0.8291662   0.4997310
6.6968180    -0.0004702   0.0007072   0.0034211  -0.0000657  -0.0000013  -0.0000054  -0.8275994   0.5021189
6.7791436    -0.0003169   0.0005987   0.0034251  -0.0000661  -0.0000036  -0.0000061  -0.8260330   0.5044637
6.8624812    -0.0004371   0.0006740   0.0034205  -0.0000578  -0.0000017  -0.0000108  -0.8244187   0.5069328
6.9468433    -0.0004140   0.0006736   0.0034310  -0.0000615  -0.0000075   0.0000006  -0.8228260   0.5093485
7.0322425    -0.0005107   0.0007518   0.0034158  -0.0000558  -0.0000001  -0.0000017  -0.8211146   0.5118158
7.1186916    -0.0004553   0.0007262   0.0034273  -0.0000615   0.0000055  -0.0000068  -0.8194095   0.5143454
7.2062034    -0.0004089   0.0007113   0.0034034  -0.0000580  -0.0000054  -0.0000028  -0.8176992   0.5169044
7.2947909    -0.0006022   0.0006905   0.0034230  -0.0000674  -0.0000060  -0.0000003  -0.8159561   0.5194736
7.3844675    -0.0004266   0.0007586   0.0034289  -0.0000738  -0.0000109  -0.0000018  -0.8142863   0.5220747
7.4752466    -0.0004434   0.0008009   0.0034135  -0.0000711   0.0000062  -0.0000064  -0.8124937   0.5246904
7.5671416    -0.0004693   0.0007126   0.0034373  -0.0000621  -0.0000101   0.0000033  -0.8107805   0.5273408
7.6601662    -0.0004532   0.0007571   0.0034119  -0.0000546  -0.0000032  -0.0000058  -0.8089321   0.5300260
7.7543345    -0.0004124   0.0007693   0.0034187  -0.0000677  -0.0000011  -0.0000027  -0.8070409   0.5328550
7.8496604    -0.0004867   0.0007664   0.0034228  -0.0000616  -0.0000081  -0.0000079  -0.8052010   0.5356596
7.9461581    -0.0004507   0.0007433   0.0034145  -0.0000699  -0.0000041  -0.0000001  -0.8031845   0.5385086
8.0438422    -0.0004676   0.0008314   0.0034101  -0.0000799  -0.0000019   0.0000034  -0.8012046   0.5413537
8.1427270    -0.0004416   0.0007503   0.0034232  -0.0000735   0.0000042   0.0000010  -0.7990345   0.5443276
8.2428275    -0.0004219   0.0008110   0.0034156  -0.0000725   0.0000016   0.0000028  -0.7968067   0.5471867
8.3441586    -0.0003196   0.0008765   0.0034145  -0.0000766  -0.0000017   0.0000017  -0.7946318   0.5499687
8.4467353    -0.0004513   0.0008095   0.0034347  -0.0000842   0.0000085  -0.0000037  -0.7923743   0.5529673
8.5505731    -0.0003753   0.0008705   0.0034294  -0.0000792   0.0000036  -0.0000037  -0.7900742   0.5557386
8.6556873    -0.0004398   0.0008692   0.0034212  -0.0000781   0.0000022  -0.0000069  -0.7877981   0.5586649
8.7620937    -0.0003801   0.0008860   0.0034106  -0.0000804  -0.0000146  -0.0000022  -0.7855033   0.5615264
8.8698082    -0.0003811   0.0008839   0.0034112  -0.0000871   0.0000006  -0.0000076  -0.7831491   0.5644380
8.9788469    -0.0004570   0.0009218   0.0034154  -0.0000842   0.0000057  -0.0000060  -0.7808526   0.5673655
9.0892260    -0.0003825   0.0008919   0.0034183  -0.0000899  -0.0000017  -0.0000065  -0.7784899   0.5703176
9.2009621    -0.0002716   0.0009395   0.0034228  -0.0000773  -0.0000012  -0.0000011  -0.7759998   0.5733714
9.3140717    -0.0003812   0.0009540   0.0034093  -0.0000779   0.0000038   0.0000058  -0.7735743   0.5763568
9.4285718    -0.0003228   0.0009063   0.0034232  -0.0000871  -0.0000053  -0.0000121  -0.7711036   0.5794398
9.5444795    -0.0003719   0.0008817   0.0034368  -0.0000934  -0.0000082   0.0000062  -0.7685506   0.5825374
9.6618121    -0.0004704   0.0009710   0.0034182  -0.0000843   0.0000018  -0.0000043  -0.7660223   0.5856292
9.7805870    -0.0004561   0.0009899   0.0034159  -0.0000886   0.0000009   0.0000032  -0.7634060   0.5888029
9.9008221    -0.0005043   0.0009700   0.0034191  -0.0000946   0.0000039  -0.0000012  -0.7607542   0.5920226
10.0225353   -0.0003644   0.0010454   0.0034236  -0.0000789  -0.0000049  -0.0000083  -0.7581033   0.5951324
10.1457447   -0.0004716   0.0009900   0.0034185  -0.0000907  -0.0000039  -0.0000058  -0.7553612   0.5984296
10.2704688   -0.0003727   0.0010211   0.0034072  -0.0000901  -0.0000041  -0.0000085  -0.7526769   0.6017045
10.3967261   -0.0003772   0.0010195   0.0034175  -0.0000962  -0.0000061  -0.0000066  -0.7498397   0.6050384
10.5245356   -0.0003546   0.0010636   0.0034249  -0.0000969  -0.0000079  -0.0000076  -0.7469667   0.6082174
10.6539162   -0.0003854   0.0010551   0.0034167  -0.0000867   0.0000029   0.0000029  -0.7440703   0.6115378
10.7848873   -0.0003797   0.0010110   0.0034207  -0.0000849   0.0000005  -0.0000063  -0.7411368   0.6149778
10.9174685   -0.0004204   0.0010810   0.0034178  -0.0000975  -0.0000070  -0.0000035  -0.7381281   0.6183689
11.0516796   -0.0003846   0.0010492   0.0034093  -0.0000980  -0.0000045   0.0000037  -0.7349763   0.6217995
11.1875405   -0.0004988   0.0010292   0.0034206  -0.0001055   0.0000009  -0.0000076  -0.7319551   0.6253218
11.3250716   -0.0004418   0.0010821   0.0034177  -0.0000956  -0.0000013  -0.0000002  -0.7288001   0.6287838
11.4642934   -0.0003848   0.0011394   0.0034227  -0.0000918  -0.0000070  -0.0000020  -0.7255736   0.6322627
11.6052267   -0.0004188   0.0011686   0.0034161  -0.0000933  -0.0000104  -0.0000051  -0.7223402   0.6358978
11.7478926   -0.0004238   0.0011068   0.0034017  -0.0001144  -0.0000036   0.0000009  -0.7190147   0.6394037
11.8923122   -0.0003982   0.0011705   0.0034155  -0.0001096   0.0000007   0.0000002  -0.7156511   0.6429700
12.0385073   -0.0003385   0.0011487   0.0034135  -0.0000994  -0.0000075  -0.0000003  -0.7121713   0.6466395
12.1864995   -0.0004542   0.0011938   0.0034200  -0.0001161  -0.0000044  -0.0000095  -0.7086981   0.6502674
12.3363111   -0.0004302   0.0011027   0.0034286  -0.0001113  -0.0000098  -0.0000015  -0.7052440   0.6539590
12.4879643   -0.0003409   0.0012112   0.0034169  -0.0001181  -0.0000047  -0.0000026  -0.7015574   0.6576797
12.6414818   -0.0004498   0.0011468   0.0034244  -0.0001116   0.0000050  -0.0000068  -0.6978449   0.6613944
12.7968866   -0.0003804   0.0012204   0.0034182  -0.0001137   0.0000019  -0.0000131  -0.6941116   0.6651428
12.9542018   -0.0003301   0.0012789   0.0034185  -0.0001161   0.0000027   0.0000004  -0.6903715   0.6689079
13.1134509   -0.0002758   0.0012977   0.0034151  -0.0001097  -0.0000100  -0.0000035  -0.6864955   0.6727020
13.2746577   -0.0004408   0.0011703   0.0034300  -0.0001165  -0.0000033  -0.0000037  -0.6825288   0.6765492
13.4378462   -0.0003082   0.0012863   0.0034159  -0.0001230   0.0000116  -0.0000093  -0.6785797   0.6805044
13.6030409   -0.0003985   0.0012839   0.0034238  -0.0001350   0.0000024  -0.0000091  -0.6744924   0.6843455
13.7702663   -0.0002654   0.0012955   0.0034216  -0.0001376  -0.0000078   0.0000053  -0.6703140   0.6882447
13.9395475   -0.0003316   0.0012820   0.0034191  -0.0001192  -0.0000009  -0.0000010  -0.6661352   0.6921232
14.1109097   -0.0002954   0.0013147   0.0034055  -0.0001210  -0.0000038  -0.0000051  -0.6618006   0.6961022
14.2843785   -0.0003073   0.0013296   0.0034162  -0.0001326   0.0000052   0.0000030  -0.6574447   0.7000021
14.4599797   -0.0003338   0.0013233   0.0034159  -0.0001221   0.0000036  -0.0000067  -0.6530176   0.7040575
14.6377397   -0.0002946   0.0014193   0.0034107  -0.0001293  -0.0000093  -0.0000076  -0.6485291   0.7080584
14.8176850   -0.0003000   0.0013921   0.0034204  -0.0001262  -0.0000131   0.0000027  -0.6439510   0.7120446
14.9998423   -0.0003864   0.0014972   0.0034171  -0.0001411  -0.0000022  -0.0000131  -0.6392536   0.7161155
15.1842390   -0.0003375   0.0014472   0.0034189  -0.0001403  -0.0000130   0.0000049  -0.6344815   0.7202062
15.3709024   -0.0002700   0.0015055   0.0034136  -0.0001423  -0.0000048   0.0000017  -0.6297241   0.7242485
15.5598606   -0.0003767   0.0014784   0.0034184  -0.0001259  -0.0000054  -0.0000108  -0.6248621   0.7283607
15.7511417   -0.0003350   0.0014908   0.0034025  -0.0001366   0.0000019  -0.0000063  -0.6198680   0.7325479
15.9447743   -0.0003623   0.0014687   0.0034182  -0.0001445   0.0000020  -0.0000005  -0.6148227   0.7366409
16.1407872   -0.0003432   0.0015456   0.0034324  -0.0001420  -0.0000153  -0.0000110  -0.6095775   0.7408179
16.3392097   -0.0003258   0.0015317   0.0034183  -0.0001462  -0.0000056   0.0000011  -0.6043237   0.7450111
16.5400716   -0.0003641   0.0015508   0.0034115  -0.0001432  -0.0000077   0.0000002  -0.5990279   0.7492048
16.7434026   -0.0002504   0.0016201   0.0034089  -0.0001479  -0.0000112  -0.0000024  -0.5935454   0.7533613
16.9492333   -0.0003308   0.0015565   0.0034094  -0.0001474   0.0000049   0.0000022  -0.5880423   0.7577115
17.1575942   -0.0003189   0.0016595   0.0034230  -0.0001505  -0.0000039   0.0000064  -0.5824226   0.7618352
17.3685166   -0.0003587   0.0015607   0.0034089  -0.0001606  -0.0000002   0.0000013  -0.5767305   0.7661086
17.5820320   -0.0003279   0.0015866   0.0034195  -0.0001718  -0.0000036  -0.0000010  -0.5708657   0.7702965
17.7981721   -0.0002994   0.0016985   0.0034185  -0.0001646  -0.0000008  -0.0000063  -0.5649477   0.7746078
18.0169693   -0.0002721   0.0016924   0.0034226  -0.0001530  -0.0000148   0.0000015  -0.5589829   0.7788677
18.2384562   -0.0002464   0.0017446   0.0034137  -0.0001742  -0.0000088  -0.0000066  -0.5528978   0.7832294
18.4626659   -0.0003310   0.0016545   0.0034137  -0.0001704   0.0000017  -0.0000043  -0.5466180   0.7874117
18.6896319   -0.0002646   0.0018613   0.0034188  -0.0001715  -0.0000066   0.0000047  -0.5403799   0.7916946
18.9193880   -0.0002634   0.0017505   0.0034218  -0.0001756  -0.0000040  -0.0000020  -0.5338648   0.7960754
19.1519686   -0.0003242   0.0017273   0.0034239  -0.0001769   0.0000009  -0.0000067  -0.5272533   0.8003731
19.3874083   -0.0003068   0.0017920   0.0034157  -0.0001714  -0.0000090  -0.0000072  -0.5205907   0.8046701
19.6257423   -0.0003000   0.0017509   0.0034252  -0.0001743  -0.0000034  -0.0000054  -0.5139282   0.8090026
19.8670063   -0.0002195   0.0018564   0.0034150  -0.0001751  -0.0000003  -0.0000053  -0.5070653   0.8132444
20.1112361   -0.0002619   0.0017672   0.0034203  -0.0001913   0.0000014   0.0000039  -0.5000667   0.8175503
20.3584684   -0.0002534   0.0019161   0.0034117  -0.0001908  -0.0000109  -0.0000031  -0.4928451   0.8218131
20.6087399   -0.0003597   0.0019067   0.0034138  -0.0001974   0.0000064  -0.0000074  -0.4856078   0.8260492
20.8620881   -0.0001427   0.0019111   0.0034120  -0.0001898  -0.0000070   0.0000015  -0.4781752   0.8303917
21.1185507   -0.0002151   0.0020216   0.0034069  -0.0001832  -0.0000055   0.0000029  -0.4706816   0.8346281
21.3781661   -0.0003080   0.0018773   0.0034119  -0.0001936  -0.0000035  -0.0000010  -0.4630449   0.8387695
21.6409730   -0.0002356   0.0019927   0.0034206  -0.0001990  -0.0000039  -0.0000078  -0.4552968   0.8429882
21.9070107   -0.0001931   0.0020600   0.0034041  -0.0001969  -0.0000070   0.0000040  -0.4474480   0.8472129
22.1763188   -0.0001816   0.0019647   0.0034203  -0.0001937  -0.0000040   0.0000040  -0.4393970   0.8514093
22.4489376   -0.0002476   0.0021164   0.0034331  -0.0001964  -0.0000043  -0.0000038  -0.4312338   0.8556008
22.7249077   -0.0002551   0.0020214   0.0034105  -0.0002079  -0.0000006  -0.0000028  -0.4229033   0.8597198
23.0042705   -0.0002235   0.0021458   0.0034158  -0.0002092  -0.0000025   0.0000032  -0.4144679   0.8638397
23.2870675   -0.0002021   0.0021805   0.0034200  -0.0002147  -0.0000063   0.0000051  -0.4059703   0.8679089
23.5733409   -0.0002393   0.0021879   0.0034145  -0.0002111  -0.0000101  -0.0000119  -0.3971808   0.8719871
23.8631337   -0.0001900   0.0021928   0.0034189  -0.0002155  -0.0000095   0.0000009  -0.3882574   0.8759217
24.1564889   -0.0000920   0.0021540   0.0034164  -0.0002080  -0.0000145   0.0000020  -0.3793041   0.8799030
24.4534504   -0.0001327   0.0022435   0.0034105  -0.0002213  -0.0000039  -0.0000033  -0.3701540   0.8837846
24.7540625   -0.0001805   0.0023071   0.0034132  -0.0002342  -0.0000011  -0.0000056  -0.3608652   0.8877116
25.0583701   -0.0002500   0.0021911   0.0034140  -0.0002148   0.0000015  -0.0000007  -0.3513553   0.8915770
25.3664186   -0.0001810   0.0023332   0.0034001  -0.0002271  -0.0000058  -0.0000061  -0.3416299   0.8953736
25.6782541   -0.0001909   0.0024578   0.0034084  -0.0002333   0.0000039  -0.0000031  -0.3318719   0.8991532
25.9939230   -0.0002134   0.0023344   0.0033962  -0.0002227  -0.0000041  -0.0000050  -0.3219447   0.9027781
26.3134725   -0.0001394   0.0024004   0.0034151  -0.0002460   0.0000036  -0.0000035  -0.3118192   0.9063520
26.6369503   -0.0001883   0.0024327   0.0034086  -0.0002383  -0.0000030  -0.0000139  -0.3015927   0.9099376
26.9644047   -0.0002024   0.0024169   0.0034050  -0.0002502   0.0000019   0.0000037  -0.2911556   0.9134289
27.2958846   -0.0002052   0.0024830   0.0034150  -0.0002426  -0.0000076   0.0000021  -0.2805167   0.9167797
27.6314394   -0.0001170   0.0024864   0.0033952  -0.0002459  -0.0000017  -0.0000051  -0.2698048   0.9201340
27.9711193   -0.0000914   0.0025267   0.0034107  -0.0002570   0.0000071  -0.0000031  -0.2588429   0.9232956
28.3149750   -0.0001583   0.0025506   0.0034041  -0.0002669   0.0000039  -0.0000051  -0.2477763   0.9264440
28.6630578   -0.0001798   0.0025316   0.0034115  -0.0002612  -0.0000087  -0.0000003  -0.2365017   0.9294491
29.0154196   -0.0000466   0.0025625   0.0034204  -0.0002698  -0.0000064  -0.0000030  -0.2250419   0.9323611
29.3721131   -0.0000344   0.0027019   0.0034060  -0.0002667   0.0000014  -0.0000039  -0.2134533   0.9351741
29.7331915   -0.0001525   0.0027329   0.0034084  -0.0002689  -0.0000054  -0.0000036  -0.2016027   0.9379710
30.0987087    0.0000224   0.0027047   0.0034109  -0.0002707  -0.0000033   0.0000123  -0.1897006   0.9405994
30.4687194   -0.0001456   0.0027382   0.0034017  -0.0002782  -0.0000021  -0.0000058  -0.1775500   0.9431766
30.8432786   -0.0001379   0.0028133   0.0034061  -0.0002819  -0.0000102   0.0000030  -0.1652043   0.9454509
31.2224424   -0.0000996   0.0027754   0.0034063  -0.0002887   0.0000061   0.0000027  -0.1527992   0.9476807
31.6062674   -0.0001641   0.0027873   0.0034028  -0.0002813  -0.0000091  -0.0000072  -0.1400337   0.9498177
31.9948108   -0.0001040   0.0028275   0.0034036  -0.0002952   0.0000000   0.0000043  -0.1271896   0.9518871
32.3881306   -0.0001279   0.0028985   0.0034005  -0.0003005  -0.0000007  -0.0000042  -0.1141830   0.9537462
32.7862857   -0.0001462   0.0029557   0.0034033  -0.0002959  -0.0000070  -0.0000062  -0.1009629   0.9553778
33.1893353   -0.0000742   0.0029691   0.0033881  -0.0002899  -0.0000018  -0.0000006  -0.0875903   0.9570247
33.5973398   -0.0000497   0.0029855   0.0034015  -0.0002929   0.0000037  -0.0000116  -0.0740442   0.9583378
34.0103599   -0.0000160   0.0031044   0.0033894  -0.0002970  -0.0000011   0.0000036  -0.0602129   0.9594876
34.4284574   -0.0001318   0.0030978   0.0033995  -0.0003035  -0.0000075  -0.0000028  -0.0465159   0.9606917
34.8516946   -0.0000066   0.0031103   0.0034092  -0.0003126  -0.0000053   0.0000028  -0.0322434   0.9616950
35.2801349   -0.0000700   0.0031218   0.0034118  -0.0003091  -0.0000032  -0.0000036  -0.0177784   0.9624635
35.7138420   -0.0000072   0.0031647   0.0034067  -0.0003236  -0.0000069  -0.0000060  -0.0032039   0.9628964
36.1528808   -0.0000019   0.0032675   0.0034086  -0.0003443  -0.0000086  -0.0000063   0.0115347   0.9632563
36.5973168   -0.0000122   0.0032965   0.0033923  -0.0003158   0.0000000  -0.0000055   0.0264333   0.9633738
37.0472164   -0.0000764   0.0033536   0.0034010  -0.0003305  -0.0000010  -0.0000025   0.0415912   0.9631242
37.5026467   -0.0000060   0.0033026   0.0034089  -0.0003481   0.0000005  -0.0000051   0.0569194   0.9628974
37.9636757    0.0000555   0.0033878   0.0033991  -0.0003473  -0.0000025  -0.0000048   0.0726387   0.9619464
38.4303722    0.0000138   0.0034131   0.0033977  -0.0003453   0.0000012  -0.0000023   0.0881824   0.9611452
38.9028060   -0.0000053   0.0034304   0.0034013  -0.0003535   0.0000032   0.0000041   0.1040381   0.9599848
39.3810475   -0.0000103   0.0034361   0.0034086  -0.0003554  -0.0000019   0.0000034   0.1201362   0.9586652
39.8651681   -0.0000179   0.0035208   0.0033805  -0.0003676  -0.0000008   0.0000047   0.1362896   0.9569852
40.3552402   -0.0000315   0.0035590   0.0034012  -0.0003696   0.0000052   0.0000025   0.1527017   0.9550329
40.8513368    0.0000916   0.0035464   0.0034026  -0.0003650  -0.0000009  -0.0000083   0.1693457   0.9526915
41.3535320    0.0000576   0.0036754   0.0033977  -0.0003774  -0.0000069  -0.0000035   0.1860114   0.9501695
41.8619009    0.0000411   0.0037138   0.0033958  -0.0003807  -0.0000012   0.0000013   0.2030277   0.9472720
42.3765193    0.0001286   0.0037176   0.0033940  -0.0003720   0.0000010  -0.0000008   0.2201222   0.9440599
42.8974639    0.0000508   0.0037714   0.0033906  -0.0003973  -0.0000026   0.0000052   0.2373514   0.9404513
43.4248127    0.0000446   0.0038599   0.0034000  -0.0003969   0.0000010  -0.0000060   0.2547651   0.9366341
43.9586443    0.0000189   0.0039140   0.0033882  -0.0003927   0.0000045  -0.0000092   0.2723270   0.9323410
44.4990385    0.0001315   0.0038620   0.0033814  -0.0004141  -0.0000060   0.0000010   0.2900678   0.9276746
45.0460758    0.0001869   0.0039633   0.0034043  -0.0004032   0.0000030   0.0000042   0.3079234   0.9226692
45.5998380    0.0001369   0.0040438   0.0033864  -0.0004147  -0.0000014  -0.0000026   0.3258964   0.9172927
46.1604077    0.0002200   0.0040333   0.0033807  -0.0004093  -0.0000057  -0.0000096   0.3439905   0.9114112
46.7278686    0.0001825   0.0040916   0.0033819  -0.0004248  -0.0000078  -0.0000061   0.3622095   0.9051561
47.3023055    0.0001970   0.0041535   0.0033972  -0.0004354  -0.0000035   0.0000063   0.3805383   0.8984954
47.8838040    0.0001948   0.0041703   0.0033795  -0.0004378   0.0000035  -0.0000116   0.3990787   0.8913030
48.4724511    0.0002853   0.0042634   0.0033868  -0.0004366  -0.0000043   0.0000037   0.4175483   0.8837820
49.0683345    0.0002453   0.0042705   0.0033731  -0.0004494  -0.0000065   0.0000016   0.4362200   0.8757527
49.6715433    0.0001404   0.0044275   0.0033846  -0.0004575  -0.0000056  -0.0000091   0.4548566   0.8672616
50.2821675    0.0002987   0.0043621   0.0033986  -0.0004346  -0.0000049  -0.0000026   0.4737366   0.8581977
50.9002982    0.0001715   0.0044922   0.0033835  -0.0004584  -0.0000001  -0.0000023   0.4925113   0.8486204
51.5260277    0.0002363   0.0045182   0.0033837  -0.0004616   0.0000016  -0.0000145   0.5114078   0.8386844
52.1594495    0.0003043   0.0045045   0.0033796  -0.0004735   0.0000007  -0.0000111   0.5302185   0.8281260
52.8006581    0.0003155   0.0045798   0.0033867  -0.0004756   0.0000019  -0.0000070   0.5491565   0.8169084
53.4497492    0.0003340   0.0045945   0.0033821  -0.0004668   0.0000038  -0.0000035   0.5682259   0.8053365
54.1068198    0.0002938   0.0046954   0.0033667  -0.0004811   0.0000014  -0.0000070   0.5870810   0.7931806
54.7719678    0.0003472   0.0047169   0.0033826  -0.0004983  -0.0000080  -0.0000108   0.6059003   0.7804755
55.4452927    0.0003433   0.0047927   0.0033754  -0.0004905  -0.0000031   0.0000036   0.6248029   0.7668483
56.1268950    0.0003242   0.0048659   0.0033650  -0.0005090  -0.0000012  -0.0000006   0.6436129   0.7528409
56.8168763    0.0003085   0.0049533   0.0033849  -0.0005047  -0.0000113  -0.0000002   0.6623330   0.7382715
57.5153398    0.0004339   0.0049988   0.0033739  -0.0005225  -0.0000006  -0.0000099   0.6809259   0.7230836
58.2223896    0.0004486   0.0050550   0.0033719  -0.0005266   0.0000062  -0.0000063   0.6993919   0.7071741
58.9381314    0.0002951   0.0050312   0.0033835  -0.0005259   0.0000077  -0.0000018   0.7177304   0.6906869
59.6626719    0.0003249   0.0051965   0.0033616  -0.0005395   0.0000018  -0.0000044   0.7358872   0.6734457
60.3961194    0.0004125   0.0051872   0.0033731  -0.0005427  -0.0000076  -0.0000076   0.7539451   0.6555725
61.1385834    0.0005133   0.0052538   0.0033752  -0.0005553   0.0000077  -0.0000151   0.7717916   0.6369847
61.8901746    0.0004207   0.0053387   0.0033668  -0.0005519  -0.0000007  -0.0000055   0.7892939   0.6177425
62.6510053    0.0005223   0.0054051   0.0033708  -0.0005578  -0.0000042  -0.0000129   0.8065969   0.5978861
63.4211891    0.0004602   0.0054363   0.0033586  -0.0005800  -0.0000005   0.0000010   0.8236544   0.5771804
64.2008409    0.0005563   0.0055388   0.0033554  -0.0005636  -0.0000013  -0.0000071   0.8403290   0.5559154
64.9900772    0.0005589   0.0055982   0.0033615  -0.0005874   0.0000060  -0.0000039   0.8567017   0.5338548
65.7890158    0.0005224   0.0056612   0.0033677  -0.0005852   0.0000066  -0.0000067   0.8726612   0.5111127
66.5977759    0.0006111   0.0056980   0.0033544  -0.0005907  -0.0000110   0.0000004   0.8881822   0.4875516
67.4164783    0.0006024   0.0058006   0.0033505  -0.0006074   0.0000024  -0.0000098   0.9034119   0.4632958
68.2452452    0.0006404   0.0057979   0.0033553  -0.0006130  -0.0000016  -0.0000030   0.9180764   0.4384124
69.0842003    0.0007406   0.0059062   0.0033624  -0.0006265  -0.0000021  -0.0000152   0.9322427   0.4127304
69.9334689    0.0006274   0.0059405   0.0033419  -0.0006290  -0.0000106  -0.0000085   0.9455765   0.3863505
70.7931778    0.0006761   0.0060207   0.0033575  -0.0006354   0.0000082  -0.0000021   0.9591080   0.3591561
71.6634552    0.0006812   0.0060328   0.0033564  -0.0006247  -0.0000035  -0.0000070   0.9716677   0.3310241
72.5444312    0.0007747   0.0062095   0.0033471  -0.0006400   0.0000123   0.0000005   0.9836817   0.3023485
73.4362373    0.0007818   0.0062177   0.0033519  -0.0006474  -0.0000012  -0.0000107   0.9948434   0.2729349
74.3390065    0.0008874   0.0063194   0.0033616  -0.0006630   0.0000080  -0.0000129   1.0046945   0.2431284
75.2528737    0.0007995   0.0063382   0.0033408  -0.0006717  -0.0000040  -0.0000102   1.0143737   0.2123149
76.1779753    0.0008034   0.0064440   0.0033449  -0.0006901  -0.0000051  -0.0000124   1.0232854   0.1808396
77.1144493    0.0008189   0.0064917   0.0033462  -0.0006818  -0.0000026  -0.0000045   1.0313023   0.1486103
78.0624357    0.0008322   0.0065012   0.0033410  -0.0007112  -0.0000029  -0.0000080   1.0384154   0.1157628
79.0220759    0.0008408   0.0066586   0.0033395  -0.0007197   0.0000002  -0.0000036   1.0445212   0.0821697
79.9935132    0.0009200   0.0067444   0.0033400  -0.0007227   0.0000041  -0.0000131   1.0496229   0.0480313
80.9768926    0.0009972   0.0068130   0.0033408  -0.0007275  -0.0000064  -0.0000116   1.0537186   0.0132410
81.9723609    0.0009458   0.0068580   0.0033374  -0.0007183   0.0000053  -0.0000071   1.0567157  -0.0222640
82.9800667    0.0009313   0.0068896   0.0033185  -0.0007563  -0.0000016  -0.0000180   1.0586042  -0.0582525
84.0001605    0.0010429   0.0070032   0.0033337  -0.0007544   0.0000053  -0.0000160   1.0593000  -0.0947391
85.0327946    0.0010448   0.0071178   0.0033275  -0.0007625   0.0000022  -0.0000081   1.0586965  -0.1319093
86.0781231    0.0011248   0.0071423   0.0033198  -0.0007625   0.0000029  -0.0000101   1.0568105  -0.1694968
87.1363020    0.0010976   0.0072913   0.0033312  -0.0007734   0.0000048  -0.0000041   1.0536046  -0.2074041
88.2074894    0.0010960   0.0073502   0.0033358  -0.0007935  -0.0000051  -0.0000155   1.0489040  -0.2458368
89.2918452    0.0011242   0.0075713   0.0033218  -0.0007924  -0.0000005  -0.0000021   1.0430306  -0.2849234
90.3895312    0.0011771   0.0074689   0.0033080  -0.0008048  -0.0000024  -0.0000180   1.0355088  -0.3237174
91.5007114    0.0011931   0.0075340   0.0033121  -0.0008062  -0.0000084  -0.0000163   1.0264270  -0.3630294
92.6255515    0.0012521   0.0076908   0.0033074  -0.0008260  -0.0000034  -0.0000041   1.0155656  -0.4024850
93.7642195    0.0013286   0.0077900   0.0033020  -0.0008195  -0.0000052  -0.0000188   1.0031624  -0.4420937
94.9168855    0.0012944   0.0079058   0.0033119  -0.0008410  -0.0000125  -0.0000104   0.9892346  -0.4818269
96.0837215    0.0013869   0.0078440   0.0032977  -0.0008437  -0.0000039  -0.0000178   0.9734644  -0.5215695
97.2649017    0.0013868   0.0080981   0.0033118  -0.0008660  -0.0000004  -0.0000104   0.9559370  -0.5609835
98.4606024    0.0014554   0.0080704   0.0032951  -0.0008638  -0.0000038  -0.0000064   0.9365502  -0.6005025
99.6710021    0.0013529   0.0081715   0.0032925  -0.0008800  -0.0000145  -0.0000062   0.9153443  -0.6396754
100.8962816   0.0014981   0.0083198   0.0032761  -0.0008913  -0.0000102  -0.0000124   0.8922365  -0.6784421
102.1366237   0.0015399   0.0083748   0.0032755  -0.0009118   0.0000052  -0.0000179   0.8671283  -0.7166929
103.3922136   0.0015926   0.0084610   0.0032895  -0.0009131  -0.0000096  -0.0000112   0.8401955  -0.7544722
104.6632389   0.0016362   0.0086355   0.0032715  -0.0009485  -0.0000105  -0.0000055   0.8113415  -0.7912682
105.9498891   0.0015968   0.0086754   0.0032677  -0.0009492  -0.0000069  -0.0000089   0.7803574  -0.8250929
107.2523564   0.0017771   0.0087718   0.0032663  -0.0009515  -0.0000016  -0.0000085   0.7458400  -0.8653272
108.5708353   0.0017311   0.0088617   0.0032721  -0.0009469  -0.0000106  -0.0000041   0.7121824  -0.8993932
109.9055225   0.0017418   0.0090109   0.0032623  -0.0009793   0.0000076  -0.0000064   0.6774515  -0.9319120
111.2566174   0.0017054   0.0090973   0.0032626  -0.0009720  -0.0000017  -0.0000120   0.6366632  -0.9623526
112.6243216   0.0018259   0.0092575   0.0032692  -0.0009971   0.0000017  -0.0000150   0.5956314  -0.9930429
114.0088393   0.0018124   0.0093323   0.0032582  -0.0010110  -0.0000127  -0.0000032   0.5528684  -1.0220177
115.4103773   0.0020487   0.0093939   0.0032452  -0.0010308  -0.0000076  -0.0000214   0.5080600  -1.0493846
116.8291446   0.0019884   0.0095183   0.0032442  -0.0010385   0.0000125  -0.0000049   0.4616156  -1.0748125
118.2653533   0.0020375   0.0096612   0.0032322  -0.0010501  -0.0000004  -0.0000118   0.4131618  -1.0983546
119.7192175   0.0021534   0.0097832   0.0032486  -0.0010756  -0.0000147  -0.0000006   0.3630310  -1.1198741
121.1909545   0.0020485   0.0099226   0.0032315  -0.0010593  -0.0000096  -0.0000137   0.3112472  -1.1389094
122.6807839   0.0021825   0.0098996   0.0032259  -0.0010856  -0.0000186  -0.0000183   0.2578829  -1.1556283
124.1889281   0.0022224   0.0100706   0.0032317  -0.0010909   0.0000025  -0.0000021   0.2030196  -1.1697805
125.7156123   0.0023643   0.0101839   0.0032146  -0.0011169  -0.0000108  -0.0000053   0.1468018  -1.1813263
127.2610644   0.0024312   0.0101956   0.0032171  -0.0011143  -0.0000061  -0.0000096   0.0899457  -1.1898236
128.8255151   0.0024240   0.0103519   0.0032147  -0.0011265  -0.0000125  -0.0000101   0.0310541  -1.1954536
130.4091980   0.0024544   0.0105097   0.0032078  -0.0011243  -0.0000132  -0.0000125  -0.0282397  -1.1979713
132.0123495   0.0023943   0.0105127   0.0031969  -0.0011572  -0.0000062  -0.0000027  -0.0885005  -1.1971293
133.6352088   0.0026589   0.0107595   0.0031761  -0.0011613  -0.0000239  -0.0000059  -0.1491135  -1.1931309
135.2780184   0.0026591   0.0108488   0.0031907  -0.0011833  -0.0000031  -0.0000057  -0.2103454  -1.1854267
136.9410235   0.0027176   0.0109719   0.0031757  -0.0011921  -0.0000093  -0.0000137  -0.2717939  -1.1740384
138.6244722   0.0026460   0.0110759   0.0031443  -0.0012150  -0.0000096  -0.0000023  -0.3330388  -1.1591738
140.3286160   0.0027686   0.0112680   0.0031490  -0.0012243  -0.0000127  -0.0000127  -0.3943408  -1.1406394
142.0537093   0.0028716   0.0111559   0.0031596  -0.0012254  -0.0000183  -0.0000196  -0.4577303  -1.1193078
143.8000095   0.0028228   0.0113803   0.0031597  -0.0012581  -0.0000058   0.0000000  -0.5114804  -1.0920313
145.5677774   0.0029086   0.0114442   0.0031620  -0.0012676   0.0000058  -0.0000122  -0.5686752  -1.0596310
147.3572769   0.0032351   0.0116543   0.0031433  -0.0013026  -0.0000021  -0.0000169  -0.6296031  -1.0274029
149.1687752   0.0032929   0.0116455   0.0031550  -0.0013192   0.0000015  -0.0000091  -0.6842854  -0.9897038
151.0025426   0.0034296   0.0119213   0.0031257  -0.0013294  -0.0000053  -0.0000193  -0.7376444  -0.9478988
152.8588530   0.0032733   0.0120684   0.0031191  -0.0013312  -0.0000013  -0.0000092  -0.7884430  -0.9023780
154.7379834   0.0033845   0.0121325   0.0031205  -0.0013583  -0.0000086  -0.0000110  -0.8368112  -0.8532143
156.6402144   0.0034645   0.0123813   0.0031255  -0.0013803  -0.0000084  -0.0000061  -0.8822036  -0.8005717
158.5658301   0.0035228   0.0123857   0.0031107  -0.0013690  -0.0000037   0.0000147  -0.9241073  -0.7445390
160.5151177   0.0036257   0.0125447   0.0030926  -0.0014048   0.0000014  -0.0000065  -0.9630209  -0.6849737
162.4883685   0.0036065   0.0127136   0.0030748  -0.0014411   0.0000013  -0.0000028  -0.9967976  -0.6237559
164.4858769   0.0035961   0.0129405   0.0030947  -0.0014157   0.0000046  -0.0000033  -1.0278789  -0.5582318
166.5079411   0.0038225   0.0129144   0.0030701  -0.0014587  -0.0000070  -0.0000102  -1.0539276  -0.4910024
168.5548630   0.0038748   0.0130987   0.0030541  -0.0014685  -0.0000107   0.0000016  -1.0755896  -0.4214285
170.6269483   0.0039741   0.0132296   0.0030418  -0.0014942  -0.0000006  -0.0000172  -1.0920161  -0.3500769
172.7245062   0.0041967   0.0134006   0.0030110  -0.0015097   0.0000046  -0.0000030  -1.1035268  -0.2774294
174.8478498   0.0041851   0.0134767   0.0030570  -0.0014924   0.0000061  -0.0000036  -1.1094082  -0.2032648
176.9972963   0.0040860   0.0136687   0.0030252  -0.0015375   0.0000235  -0.0000062  -1.1102204  -0.1277967
179.1731664   0.0043503   0.0138816   0.0029765  -0.0015408  -0.0000187  -0.0000088  -1.1019377  -0.0580540
181.3757850   0.0044538   0.0139579   0.0029800  -0.0015832  -0.0000020  -0.0000058  -1.0923748   0.0172629
183.6054809   0.0044586   0.0139658   0.0030289  -0.0015949  -0.0000115  -0.0000014  -1.0773858   0.0954521
185.8625870   0.0047983   0.0141470   0.0029420  -0.0015836  -0.0000271  -0.0000083  -1.0548059   0.1676861
188.1474402   0.0047974   0.0143890   0.0029744  -0.0016259  -0.0000045  -0.0000041  -1.0266452   0.2388777
190.4603817   0.0051078   0.0144635   0.0029629  -0.0016473  -0.0000241  -0.0000166  -0.9928692   0.3077410
192.8017567   0.0049057   0.0146415   0.0029236  -0.0017025   0.0000113  -0.0000080  -0.9528826   0.3737659
195.1719148   0.0048870   0.0145821   0.0029211  -0.0017003  -0.0000411   0.0000164  -0.9079903   0.4365081
197.5712099   0.0050930   0.0147408   0.0029023  -0.0016846   0.0000064  -0.0000064  -0.8584258   0.4960860
200.0000000   0.0051939   0.0149829   0.0028181  -0.0017409  -0.0000129  -0.0000066  -0.8026131   0.5505821
