! ListType=Log
# MHZ S RI R 50
0.0010000     0.1337033  -0.0864485   0.2744189   0.3347689  -0.0000115  -0.0000299  -0.9088780   0.2599563
0.0010123     0.1327571  -0.0864649   0.2787529   0.3348078   0.0000121  -0.0000287  -0.9094622   0.2603417
0.0010247     0.1315278  -0.0861886   0.2819835   0.3342833  -0.0000157   0.0000266  -0.9095897   0.2591301
0.0010373     0.1307823  -0.0860999   0.2864539   0.3339615  -0.0000085  -0.0000056  -0.9097936   0.2598523
0.0010501     0.1298161  -0.0860960   0.2904292   0.3335292  -0.0000136  -0.0000118  -0.9091506   0.2596915
0.0010630     0.1290886  -0.0853595   0.2943932   0.3328365   0.0000229   0.0000125  -0.9105505   0.2595735
0.0010761     0.1275840  -0.0850800   0.2991459   0.3323280  -0.0000149   0.0000095  -0.9107037   0.2587981
0.0010893     0.1272454  -0.0852309   0.3025079   0.3320807   0.0000198  -0.0000037  -0.9110865   0.2599258
0.0011027     0.1261065  -0.0848438   0.3067316   0.3312848   0.0000030  -0.0000187  -0.9110775   0.2587990
0.0011162     0.1251288  -0.0841803   0.3105060   0.3303874  -0.0000056   0.0000030  -0.9120701   0.2584382
0.0011300     0.1239993  -0.0841858   0.3148474   0.3296025  -0.0000259  -0.0000173  -0.9112969   0.2587179
0.0011439     0.1230896  -0.0842388   0.3190500   0.3293495   0.0000190  -0.0000020  -0.9120502   0.2590832
0.0011579     0.1219379  -0.0836230   0.3222063   0.3282673  -0.0000080   0.0000011  -0.9120575   0.2578675
0.0011721     0.1212722  -0.0834815   0.3265920   0.3275805   0.0000114  -0.0000118  -0.9124015   0.2585311
0.0011866     0.1201330  -0.0833850   0.3304050   0.3266251  -0.0000454  -0.0000152  -0.9122040   0.2582435
0.0012011     0.1195281  -0.0830055   0.3342209   0.3257414  -0.0000151   0.0000003  -0.9128818   0.2582597
0.0012159     0.1187240  -0.0828655   0.3380078   0.3249138   0.0000208   0.0000031  -0.9136437   0.2584854
0.0012309     0.1173822  -0.0822752   0.3415267   0.3238392   0.0000094   0.0000109  -0.9137401   0.2577885
0.0012460     0.1165555  -0.0820221   0.3452529   0.3224406  -0.0000062  -0.0000060  -0.9134154   0.2581256
0.0012613     0.1156702  -0.0814259   0.3495317   0.3211388   0.0000269  -0.0000021  -0.9147353   0.2579363
0.0012768     0.1146984  -0.0813282   0.3531138   0.3205336  -0.0000207   0.0000053  -0.9141770   0.2576231
0.0012925     0.1142811  -0.0807957   0.3564468   0.3188945   0.0000140   0.0000076  -0.9151106   0.2580592
0.0013084     0.1128106  -0.0805369   0.3604697   0.3181191  -0.0000049   0.0000097  -0.9149123   0.2575421
0.0013245     0.1124290  -0.0800843   0.3638154   0.3163370   0.0000181  -0.0000016  -0.9155488   0.2580240
0.0013408     0.1114663  -0.0797067   0.3674782   0.3154087   0.0000024  -0.0000096  -0.9153819   0.2572752
0.0013572     0.1106331  -0.0792513   0.3709547   0.3136068   0.0000187   0.0000077  -0.9163567   0.2576933
0.0013739     0.1096522  -0.0791034   0.3743735   0.3126079   0.0000133   0.0000164  -0.9162218   0.2575399
0.0013908     0.1087400  -0.0783270   0.3781115   0.3108162   0.0000136   0.0000045  -0.9169530   0.2576089
0.0014079     0.1078399  -0.0783148   0.3813190   0.3095663  -0.0000214  -0.0000005  -0.9167295   0.2573538
0.0014252     0.1071770  -0.0777342   0.3848793   0.3078919   0.0000186   0.0000247  -0.9176592   0.2572531
0.0014427     0.1063081  -0.0774511   0.3880129   0.3065767  -0.0000097  -0.0000156  -0.9173659   0.2571991
0.0014605     0.1056506  -0.0767635   0.3915093   0.3046042   0.0000009  -0.0000180  -0.9180822   0.2573986
0.0014784     0.1049097  -0.0766252   0.3948622   0.3035389  -0.0000049   0.0000082  -0.9178605   0.2569127
0.0014966     0.1041491  -0.0761013   0.3977669   0.3017245   0.0000002  -0.0000287  -0.9186111   0.2574162
0.0015150     0.1034759  -0.0755403   0.4008870   0.2998179   0.0000270   0.0000241  -0.9189818   0.2573396
0.0015336     0.1021594  -0.0751265   0.4041172   0.2980836  -0.0000074  -0.0000028  -0.9190102   0.2570696
0.0015525     0.1015133  -0.0747257   0.4073442   0.2965088  -0.0000076  -0.0000167  -0.9190290   0.2573496
0.0015716     0.1008866  -0.0742379   0.4105699   0.2947722   0.0000126  -0.0000211  -0.9196280   0.2571869
0.0015909     0.1002984  -0.0739185   0.4135014   0.2930726   0.0000100  -0.0000345  -0.9199847   0.2575694
0.0016104     0.0990729  -0.0732614   0.4166500   0.2911093  -0.0000243   0.0000094  -0.9203199   0.2569523
0.0016302     0.0986895  -0.0728856   0.4195439   0.2897315   0.0000135  -0.0000063  -0.9203642   0.2573044
0.0016503     0.0981003  -0.0723974   0.4223362   0.2877872   0.0000088  -0.0000100  -0.9213751   0.2574882
0.0016706     0.0972883  -0.0722233   0.4252670   0.2857607   0.0000033  -0.0000045  -0.9211996   0.2574022
0.0016911     0.0963884  -0.0711043   0.4279759   0.2839377  -0.0000210  -0.0000159  -0.9218180   0.2570958
0.0017119     0.0961312  -0.0709427   0.4308056   0.2815459  -0.0000161  -0.0000298  -0.9218589   0.2574357
0.0017329     0.0951541  -0.0702759   0.4337655   0.2799739  -0.0000031   0.0000134  -0.9220861   0.2573962
0.0017542     0.0946261  -0.0698186   0.4363098   0.2780381   0.0000071   0.0000175  -0.9225671   0.2571541
0.0017758     0.0938371  -0.0693667   0.4389845   0.2759966  -0.0000018  -0.0000029  -0.9227763   0.2574617
0.0017976     0.0932389  -0.0688705   0.4417189   0.2744587   0.0000059  -0.0000063  -0.9233452   0.2574793
0.0018197     0.0925613  -0.0682946   0.4441140   0.2722954  -0.0000150  -0.0000040  -0.9231438   0.2573279
0.0018421     0.0920687  -0.0677782   0.4465693   0.2702738   0.0000151  -0.0000070  -0.9238326   0.2577191
0.0018648     0.0913623  -0.0672903   0.4490266   0.2679794  -0.0000028   0.0000040  -0.9239003   0.2574820
0.0018877     0.0908297  -0.0668655   0.4516113   0.2661810  -0.0000105  -0.0000158  -0.9239804   0.2577066
0.0019109     0.0902174  -0.0661682   0.4538604   0.2640228  -0.0000036   0.0000066  -0.9248491   0.2579357
0.0019344     0.0895639  -0.0657562   0.4563860   0.2618946  -0.0000050  -0.0000064  -0.9247153   0.2577397
0.0019582     0.0889231  -0.0654291   0.4587515   0.2600801   0.0000018  -0.0000051  -0.9248236   0.2579512
0.0019822     0.0883634  -0.0647879   0.4609805   0.2582309   0.0000061   0.0000007  -0.9256894   0.2580907
0.0020066     0.0878216  -0.0642572   0.4632877   0.2559348   0.0000030   0.0000010  -0.9257598   0.2582423
0.0020313     0.0872018  -0.0636367   0.4655677   0.2538584   0.0000072   0.0000076  -0.9261621   0.2581689
0.0020562     0.0867081  -0.0632763   0.4675732   0.2518427  -0.0000161  -0.0000018  -0.9265384   0.2580705
0.0020815     0.0862461  -0.0627571   0.4697481   0.2494661   0.0000003  -0.0000015  -0.9265952   0.2584793
0.0021071     0.0855536  -0.0620972   0.4718121   0.2476553  -0.0000104  -0.0000033  -0.9270215   0.2585237
0.0021330     0.0850789  -0.0616785   0.4738316   0.2456531  -0.0000010  -0.0000229  -0.9272019   0.2587586
0.0021592     0.0846876  -0.0610054   0.4758574   0.2433838  -0.0000025  -0.0000190  -0.9277383   0.2588852
0.0021858     0.0840908  -0.0604702   0.4778327   0.2412407  -0.0000026  -0.0000044  -0.9279115   0.2586740
0.0022126     0.0836147  -0.0599619   0.4798186   0.2390752  -0.0000054  -0.0000144  -0.9280733   0.2590422
0.0022398     0.0831580  -0.0594836   0.4816768   0.2372011  -0.0000122   0.0000062  -0.9283379   0.2590142
0.0022674     0.0826743  -0.0589775   0.4834819   0.2350824   0.0000047  -0.0000181  -0.9287816   0.2593020
0.0022953     0.0822414  -0.0585620   0.4852163   0.2327999   0.0000060  -0.0000025  -0.9290308   0.2594769
0.0023235     0.0815407  -0.0579925   0.4871059   0.2308963  -0.0000061  -0.0000002  -0.9294341   0.2594680
0.0023520     0.0814064  -0.0573389   0.4888409   0.2288482  -0.0000078  -0.0000054  -0.9292532   0.2594361
0.0023809     0.0806418  -0.0568249   0.4904533   0.2267979  -0.0000079   0.0000077  -0.9299422   0.2596373
0.0024102     0.0803150  -0.0563920   0.4922484   0.2246001   0.0000131   0.0000064  -0.9298942   0.2598229
0.0024398     0.0798552  -0.0557627   0.4939792   0.2226345   0.0000033   0.0000032  -0.9303333   0.2599209
0.0024698     0.0795560  -0.0552884   0.4954440   0.2205774   0.0000079  -0.0000170  -0.9305707   0.2602177
0.0025002     0.0790357  -0.0549166   0.4970612   0.2185569  -0.0000013  -0.0000042  -0.9307198   0.2603729
0.0025309     0.0785071  -0.0544009   0.4985984   0.2163680  -0.0000087  -0.0000112  -0.9309336   0.2606611
0.0025621     0.0783318  -0.0538138   0.5001062   0.2143325   0.0000070  -0.0000087  -0.9313972   0.2606534
0.0025935     0.0777183  -0.0532632   0.5017484   0.2122662  -0.0000057  -0.0000035  -0.9316742   0.2605261
0.0026254     0.0774897  -0.0526208   0.5030477   0.2102190  -0.0000042  -0.0000026  -0.9317934   0.2605545
0.0026577     0.0770389  -0.0522944   0.5045943   0.2081816  -0.0000107  -0.0000105  -0.9319015   0.2609742
0.0026904     0.0765988  -0.0517355   0.5059742   0.2061714  -0.0000128  -0.0000062  -0.9320964   0.2613407
0.0027235     0.0762762  -0.0510179   0.5072736   0.2041594  -0.0000013  -0.0000137  -0.9327563   0.2611832
0.0027569     0.0758273  -0.0507094   0.5087056   0.2021382  -0.0000088  -0.0000033  -0.9327095   0.2612955
0.0027908     0.0755834  -0.0503653   0.5099198   0.2001503   0.0000059  -0.0000083  -0.9327881   0.2617246
0.0028251     0.0753434  -0.0497073   0.5110983   0.1981214   0.0000069   0.0000018  -0.9332618   0.2618815
0.0028599     0.0748252  -0.0491519   0.5124093   0.1961108  -0.0000022   0.0000010  -0.9334185   0.2618729
0.0028950     0.0745357  -0.0487591   0.5135113   0.1941154   0.0000031   0.0000025  -0.9336124   0.2618484
0.0029306     0.0742353  -0.0482382   0.5149106   0.1922009  -0.0000042  -0.0000190  -0.9337557   0.2620064
0.0029666     0.0738700  -0.0477751   0.5161241   0.1901936   0.0000131  -0.0000065  -0.9339990   0.2622600
0.0030031     0.0735226  -0.0474136   0.5171730   0.1882045  -0.0000049   0.0000133  -0.9341076   0.2625548
0.0030400     0.0732455  -0.0467428   0.5182277   0.1863815  -0.0000027  -0.0000165  -0.9343379   0.2628196
0.0030774     0.0729860  -0.0463089   0.5192932   0.1844242  -0.0000097  -0.0000045  -0.9345217   0.2629743
0.0031152     0.0726535  -0.0457177   0.5203375   0.1825031   0.0000102   0.0000018  -0.9348862   0.2629809
0.0031535     0.0722839  -0.0453613   0.5213900   0.1805461  -0.0000035  -0.0000120  -0.9349260   0.2633534
0.0031923     0.0720852  -0.0448682   0.5224522   0.1786747   0.0000126  -0.0000124  -0.9353236   0.2634966
0.0032315     0.0718851  -0.0444316   0.5235796   0.1768998  -0.0000004  -0.0000064  -0.9355121   0.2636469
0.0032713     0.0715284  -0.0437329   0.5245357   0.1750232   0.0000023  -0.0000089  -0.9356770   0.2636865
0.0033115     0.0713561  -0.0434579   0.5253499   0.1731143   0.0000084  -0.0000006  -0.9357024   0.2639999
0.0033522     0.0711147  -0.0428894   0.5262252   0.1712039  -0.0000109  -0.0000057  -0.9360229   0.2644064
0.0033934     0.0707417  -0.0423873   0.5271375   0.1695564   0.0000014   0.0000021  -0.9362628   0.2642656
0.0034351     0.0706138  -0.0419065   0.5280524   0.1678493  -0.0000013   0.0000084  -0.9364516   0.2645556
0.0034773     0.0703355  -0.0415698   0.5289961   0.1658709   0.0000084  -0.0000086  -0.9364323   0.2647053
0.0035201     0.0700752  -0.0412375   0.5296576   0.1639999   0.0000056  -0.0000029  -0.9367876   0.2648143
0.0035634     0.0697909  -0.0405780   0.5305949   0.1623755   0.0000070  -0.0000048  -0.9368663   0.2649771
0.0036072     0.0696782  -0.0402381   0.5314007   0.1605986  -0.0000008  -0.0000046  -0.9369396   0.2652301
0.0036515     0.0692994  -0.0397801   0.5322895   0.1588409  -0.0000051   0.0000044  -0.9372120   0.2655556
0.0036964     0.0691083  -0.0393313   0.5329552   0.1570595  -0.0000114   0.0000007  -0.9371598   0.2658447
0.0037418     0.0688669  -0.0389131   0.5338137   0.1553190   0.0000014  -0.0000077  -0.9373776   0.2659021
0.0037878     0.0686867  -0.0384865   0.5344114   0.1536271   0.0000009  -0.0000191  -0.9374859   0.2660117
0.0038344     0.0683568  -0.0379859   0.5350411   0.1518316   0.0000059  -0.0000063  -0.9376847   0.2663411
0.0038815     0.0682744  -0.0376455   0.5357788   0.1501639  -0.0000009   0.0000041  -0.9378065   0.2664228
0.0039293     0.0679949  -0.0373185   0.5365639   0.1485466   0.0000049  -0.0000071  -0.9379777   0.2663981
0.0039776     0.0678834  -0.0367497   0.5372066   0.1468684  -0.0000018  -0.0000120  -0.9381920   0.2668196
0.0040265     0.0677211  -0.0363844   0.5378856   0.1452046   0.0000000   0.0000014  -0.9383100   0.2667670
0.0040759     0.0675093  -0.0359399   0.5384641   0.1436470  -0.0000007   0.0000008  -0.9384242   0.2671272
0.0041261     0.0672379  -0.0354414   0.5391081   0.1420096   0.0000015  -0.0000048  -0.9385339   0.2672093
0.0041768     0.0671167  -0.0350942   0.5396978   0.1404185  -0.0000009   0.0000009  -0.9387328   0.2675105
0.0042281     0.0669322  -0.0346431   0.5403546   0.1387967   0.0000064  -0.0000054  -0.9388509   0.2677209
0.0042801     0.0668823  -0.0342730   0.5408855   0.1372466   0.0000041  -0.0000002  -0.9389324   0.2679158
0.0043327     0.0666696  -0.0338247   0.5414242   0.1357069  -0.0000035  -0.0000042  -0.9390299   0.2683019
0.0043860     0.0665616  -0.0335573   0.5419853   0.1341382  -0.0000025   0.0000091  -0.9392749   0.2683077
0.0044399     0.0662352  -0.0330512   0.5424745   0.1326082   0.0000007  -0.0000043  -0.9393379   0.2684832
0.0044945     0.0661676  -0.0325703   0.5430541   0.1310781  -0.0000065  -0.0000034  -0.9394909   0.2686169
0.0045497     0.0660315  -0.0323056   0.5436054   0.1295772  -0.0000109  -0.0000034  -0.9394766   0.2688047
0.0046057     0.0658830  -0.0319952   0.5440437   0.1280957  -0.0000053   0.0000049  -0.9395575   0.2689400
0.0046623     0.0657451  -0.0314894   0.5445867   0.1266256   0.0000035  -0.0000071  -0.9395089   0.2692334
0.0047196     0.0656110  -0.0311598   0.5449509   0.1251273  -0.0000083  -0.0000009  -0.9398293   0.2694102
0.0047776     0.0655036  -0.0308912   0.5454077   0.1236721   0.0000065  -0.0000104  -0.9398891   0.2695281
0.0048363     0.0653076  -0.0304342   0.5458774   0.1223024   0.0000003  -0.0000094  -0.9399332   0.2697804
0.0048958     0.0652822  -0.0300309   0.5462745   0.1208515  -0.0000047  -0.0000137  -0.9400721   0.2700554
0.0049560     0.0650379  -0.0296507   0.5466562   0.1193287  -0.0000099  -0.0000067  -0.9402632   0.2701632
0.0050169     0.0649272  -0.0293116   0.5472975   0.1178592  -0.0000178   0.0000051  -0.9403351   0.2701639
0.0050786     0.0648461  -0.0288876   0.5474988   0.1166795   0.0000062   0.0000011  -0.9403187   0.2703988
0.0051410     0.0646728  -0.0287501   0.5482397   0.1152619  -0.0000039  -0.0000105  -0.9404152   0.2706001
0.0052042     0.0646521  -0.0281622   0.5484908   0.1139943   0.0000035  -0.0000032  -0.9405021   0.2708001
0.0052682     0.0643376  -0.0278915   0.5487320   0.1125450   0.0000060  -0.0000054  -0.9406327   0.2710467
0.0053330     0.0643896  -0.0275346   0.5489893   0.1112692  -0.0000089  -0.0000088  -0.9406896   0.2711812
0.0053985     0.0642295  -0.0271724   0.5493854   0.1099214  -0.0000131  -0.0000073  -0.9407775   0.2713440
0.0054649     0.0640615  -0.0269179   0.5497724   0.1085945   0.0000164  -0.0000018  -0.9409076   0.2714998
0.0055321     0.0640369  -0.0265039   0.5500553   0.1073256  -0.0000015  -0.0000112  -0.9409565   0.2716945
0.0056001     0.0638903  -0.0261559   0.5503712   0.1060017   0.0000146   0.0000031  -0.9411138   0.2719386
0.0056689     0.0638605  -0.0258918   0.5507395   0.1047178  -0.0000082  -0.0000200  -0.9411273   0.2720064
0.0057386     0.0636723  -0.0254813   0.5510701   0.1034748   0.0000036  -0.0000155  -0.9411893   0.2721200
0.0058091     0.0635716  -0.0252091   0.5513383   0.1022203   0.0000022   0.0000047  -0.9411386   0.2723728
0.0058806     0.0635929  -0.0248938   0.5517730   0.1010018  -0.0000013  -0.0000061  -0.9411190   0.2724188
0.0059529     0.0634905  -0.0245577   0.5519966   0.0997132  -0.0000054  -0.0000104  -0.9412062   0.2727041
0.0060260     0.0634102  -0.0242094   0.5523952   0.0985884  -0.0000053  -0.0000183  -0.9412507   0.2727098
0.0061001     0.0634047  -0.0238207   0.5525572   0.0973571  -0.0000142  -0.0000055  -0.9413455   0.2729546
0.0061751     0.0632852  -0.0235067   0.5529298   0.0961517   0.0000003   0.0000049  -0.9413314   0.2731470
0.0062510     0.0632231  -0.0233106   0.5531185   0.0949976  -0.0000030  -0.0000002  -0.9415101   0.2732916
0.0063279     0.0630058  -0.0230013   0.5533905   0.0938358  -0.0000043  -0.0000012  -0.9416430   0.2734560
0.0064056     0.0630002  -0.0227400   0.5536784   0.0927622   0.0000044  -0.0000061  -0.9416371   0.2736081
0.0064844     0.0629904  -0.0224029   0.5538516   0.0915026   0.0000000  -0.0000076  -0.9416977   0.2736701
0.0065641     0.0627391  -0.0220713   0.5540993   0.0903205  -0.0000063  -0.0000193  -0.9415242   0.2737903
0.0066448     0.0627638  -0.0218229   0.5543881   0.0892746   0.0000005  -0.0000093  -0.9416728   0.2739591
0.0067265     0.0627389  -0.0215210   0.5546079   0.0881636  -0.0000082   0.0000041  -0.9417777   0.2741424
0.0068092     0.0628432  -0.0212381   0.5549218   0.0868733   0.0000036   0.0000010  -0.9418365   0.2743665
0.0068929     0.0626749  -0.0209593   0.5550108   0.0861919   0.0000128  -0.0000086  -0.9418909   0.2744498
0.0069776     0.0626174  -0.0206319   0.5551380   0.0849291   0.0000024  -0.0000116  -0.9420478   0.2746782
0.0070634     0.0624698  -0.0204384   0.5552942   0.0839343   0.0000023  -0.0000052  -0.9419420   0.2748400
0.0071502     0.0624789  -0.0199943   0.5556134   0.0827942   0.0000031  -0.0000154  -0.9419125   0.2748555
0.0072381     0.0624235  -0.0197298   0.5558271   0.0816973  -0.0000033  -0.0000122  -0.9418756   0.2750367
0.0073271     0.0623681  -0.0195273   0.5559971   0.0806912  -0.0000089  -0.0000030  -0.9420109   0.2752536
0.0074172     0.0622322  -0.0192503   0.5562900   0.0796725   0.0000121  -0.0000083  -0.9421284   0.2753567
0.0075084     0.0621176  -0.0189043   0.5563628   0.0787477   0.0000064  -0.0000108  -0.9421577   0.2755385
0.0076007     0.0620731  -0.0187703   0.5565882   0.0777130   0.0000004  -0.0000116  -0.9421461   0.2756577
0.0076941     0.0621881  -0.0184350   0.5567891   0.0767748  -0.0000021   0.0000084  -0.9421786   0.2759126
0.0077887     0.0622201  -0.0182278   0.5568495   0.0757643   0.0000107  -0.0000020  -0.9421820   0.2759312
0.0078844     0.0619903  -0.0179367   0.5571298   0.0748483  -0.0000035  -0.0000018  -0.9422685   0.2760016
0.0079814     0.0620297  -0.0175835   0.5570782   0.0739532   0.0000006  -0.0000059  -0.9422404   0.2762762
0.0080795     0.0619898  -0.0174015   0.5573378   0.0729598   0.0000058  -0.0000034  -0.9423989   0.2763341
0.0081788     0.0619595  -0.0171088   0.5576721   0.0720250  -0.0000045   0.0000043  -0.9422137   0.2765218
0.0082793     0.0618996  -0.0169107   0.5576276   0.0710528  -0.0000005  -0.0000093  -0.9423942   0.2765888
0.0083811     0.0619270  -0.0167167   0.5578371   0.0701527  -0.0000037   0.0000070  -0.9423573   0.2767983
0.0084842     0.0617481  -0.0163718   0.5578171   0.0692951  -0.0000016   0.0000005  -0.9423313   0.2768930
0.0085885     0.0618846  -0.0161655   0.5580571   0.0687368   0.0000015  -0.0000070  -0.9424398   0.2769427
0.0086940     0.0617802  -0.0158980   0.5581546   0.0675868   0.0000127  -0.0000141  -0.9423699   0.2771411
0.0088009     0.0618264  -0.0156824   0.5585500   0.0665792   0.0000002   0.0000062  -0.9423860   0.2772914
0.0089091     0.0618236  -0.0154673   0.5585307   0.0655832   0.0000024  -0.0000112  -0.9423989   0.2774866
0.0090186     0.0617243  -0.0152435   0.5585726   0.0646820  -0.0000090  -0.0000046  -0.9424998   0.2774735
0.0091295     0.0616756  -0.0149314   0.5586905   0.0638868   0.0000055  -0.0000005  -0.9425199   0.2777457
0.0092417     0.0617995  -0.0147574   0.5587358   0.0631703   0.0000093  -0.0000054  -0.9424069   0.2777833
0.0093553     0.0616274  -0.0144959   0.5588931   0.0621785   0.0000041  -0.0000095  -0.9424297   0.2779104
0.0094703     0.0617315  -0.0142949   0.5589861   0.0613919   0.0000006   0.0000108  -0.9425230   0.2779699
0.0095868     0.0615782  -0.0139767   0.5592638   0.0606715  -0.0000033  -0.0000074  -0.9424579   0.2781670
0.0097046     0.0616284  -0.0139039   0.5591932   0.0597033  -0.0000017   0.0000127  -0.9425030   0.2781965
0.0098239     0.0616816  -0.0136307   0.5593501   0.0590042  -0.0000008   0.0000001  -0.9425577   0.2783250
0.0099447     0.0615083  -0.0134320   0.5593763   0.0579640  -0.0000004  -0.0000051  -0.9425478   0.2783615
0.0100669     0.0616519  -0.0132908   0.5594875   0.0575705  -0.0000093  -0.0000186  -0.9425242   0.2785836
0.0101907     0.0615152  -0.0129966   0.5594011   0.0568588  -0.0000033  -0.0000092  -0.9425358   0.2786114
0.0103160     0.0614746  -0.0129685   0.5596298   0.0555332   0.0000116  -0.0000083  -0.9425019   0.2787091
0.0104428     0.0615485  -0.0126672   0.5593696   0.0549101  -0.0000035   0.0000003  -0.9425838   0.2789201
0.0105712     0.0616815  -0.0124204   0.5600219   0.0542737   0.0000088   0.0000015  -0.9425830   0.2789347
0.0107011     0.0616082  -0.0123223   0.5599527   0.0535919   0.0000044  -0.0000051  -0.9426090   0.2791118
0.0108327     0.0615006  -0.0119314   0.5600245   0.0527923   0.0000012  -0.0000062  -0.9425325   0.2791449
0.0109658     0.0614685  -0.0118156   0.5600916   0.0520790  -0.0000070  -0.0000045  -0.9426464   0.2792784
0.0111006     0.0615282  -0.0117355   0.5601400   0.0513874  -0.0000041  -0.0000068  -0.9426136   0.2795289
0.0112371     0.0614827  -0.0115035   0.5603639   0.0505440  -0.0000054   0.0000003  -0.9426557   0.2794251
0.0113752     0.0615659  -0.0112602   0.5600570   0.0497692  -0.0000107   0.0000007  -0.9425597   0.2795968
0.0115151     0.0614489  -0.0110237   0.5602677   0.0495787   0.0000003  -0.0000004  -0.9427017   0.2798539
0.0116566     0.0614802  -0.0108185   0.5603364   0.0481465  -0.0000025  -0.0000093  -0.9425976   0.2797545
0.0117999     0.0615059  -0.0106672   0.5602966   0.0481319  -0.0000078  -0.0000039  -0.9426702   0.2800117
0.0119450     0.0605396  -0.0112224   0.5562850   0.0419295  -0.0000012   0.0000006  -0.9434624   0.2782170
0.0120918     0.0616652  -0.0103829   0.5609229   0.0469222   0.0000006  -0.0000104  -0.9426943   0.2801527
0.0122405     0.0614448  -0.0101671   0.5605304   0.0458281  -0.0000107   0.0000039  -0.9427471   0.2801706
0.0123910     0.0616591  -0.0098795   0.5608405   0.0454583  -0.0000042  -0.0000100  -0.9426088   0.2804391
0.0125433     0.0615030  -0.0097998   0.5607148   0.0445197  -0.0000016   0.0000043  -0.9427097   0.2803775
0.0126975     0.0615991  -0.0095915   0.5608705   0.0439859  -0.0000036  -0.0000023  -0.9425424   0.2804387
0.0128536     0.0616581  -0.0093897   0.5609361   0.0433945   0.0000036  -0.0000033  -0.9426407   0.2806492
0.0130116     0.0616633  -0.0092676   0.5606059   0.0424801   0.0000031   0.0000037  -0.9426215   0.2806846
0.0131716     0.0615427  -0.0090527   0.5607617   0.0420562  -0.0000045   0.0000010  -0.9426642   0.2806807
0.0133335     0.0616950  -0.0088892   0.5608782   0.0414350  -0.0000017  -0.0000095  -0.9425145   0.2809397
0.0134974     0.0616092  -0.0087941   0.5610016   0.0409557   0.0000014  -0.0000020  -0.9425677   0.2809175
0.0136633     0.0616934  -0.0086323   0.5619365   0.0405853   0.0000013  -0.0000062  -0.9426221   0.2811150
0.0138313     0.0616740  -0.0083400   0.5607109   0.0388854  -0.0000014  -0.0000050  -0.9425397   0.2811490
0.0140013     0.0616543  -0.0082684   0.5611002   0.0392792  -0.0000043  -0.0000027  -0.9426175   0.2812854
0.0141734     0.0617290  -0.0081574   0.5610992   0.0384714  -0.0000133  -0.0000052  -0.9426482   0.2814176
0.0143477     0.0617143  -0.0080327   0.5612464   0.0379439   0.0000019  -0.0000050  -0.9426134   0.2813920
0.0145240     0.0617648  -0.0077712   0.5611739   0.0373494   0.0000018   0.0000028  -0.9426510   0.2814696
0.0147026     0.0617193  -0.0076007   0.5610900   0.0367542   0.0000098  -0.0000082  -0.9425887   0.2815431
0.0148833     0.0616229  -0.0075685   0.5613613   0.0362940  -0.0000038  -0.0000085  -0.9425701   0.2817147
0.0150663     0.0617388  -0.0074216   0.5613243   0.0357094   0.0000025  -0.0000094  -0.9425500   0.2817628
0.0152515     0.0618445  -0.0071779   0.5611749   0.0352367  -0.0000064  -0.0000097  -0.9425577   0.2819218
0.0154390     0.0618160  -0.0070964   0.5612583   0.0340017  -0.0000151   0.0000062  -0.9425825   0.2819117
0.0156288     0.0618069  -0.0069233   0.5611253   0.0342178  -0.0000092  -0.0000074  -0.9426634   0.2819290
0.0158209     0.0619027  -0.0068616   0.5613918   0.0334829  -0.0000031  -0.0000088  -0.9425187   0.2819562
0.0160154     0.0618368  -0.0066570   0.5614216   0.0330563   0.0000012  -0.0000067  -0.9425096   0.2821765
0.0162123     0.0619236  -0.0064979   0.5614136   0.0325783  -0.0000041  -0.0000005  -0.9424733   0.2823458
0.0164116     0.0619022  -0.0064409   0.5614092   0.0320343   0.0000020  -0.0000133  -0.9425390   0.2823374
0.0166134     0.0619211  -0.0062838   0.5614088   0.0315142   0.0000025   0.0000024  -0.9424725   0.2825105
0.0168176     0.0619961  -0.0061241   0.5614651   0.0309697   0.0000023  -0.0000011  -0.9425681   0.2824212
0.0170243     0.0620162  -0.0059971   0.5615561   0.0304227  -0.0000044  -0.0000021  -0.9425075   0.2825839
0.0172336     0.0620404  -0.0059432   0.5613971   0.0298434   0.0000039  -0.0000065  -0.9424701   0.2825693
0.0174455     0.0620214  -0.0058151   0.5613972   0.0295075  -0.0000069   0.0000054  -0.9424511   0.2826684
0.0176599     0.0620670  -0.0056299   0.5614657   0.0290307  -0.0000030  -0.0000096  -0.9424459   0.2827776
0.0178770     0.0621826  -0.0055290   0.5615068   0.0286422  -0.0000056   0.0000042  -0.9424224   0.2829245
0.0180968     0.0621673  -0.0055299   0.5614865   0.0281955  -0.0000086  -0.0000035  -0.9424302   0.2828374
0.0183193     0.0621601  -0.0053247   0.5614278   0.0276333   0.0000087  -0.0000044  -0.9424509   0.2830002
0.0185445     0.0622724  -0.0051980   0.5613822   0.0271416   0.0000103  -0.0000060  -0.9424455   0.2830423
0.0187724     0.0622692  -0.0050918   0.5615734   0.0267999   0.0000036   0.0000011  -0.9423371   0.2830841
0.0190032     0.0623149  -0.0050450   0.5613711   0.0263721  -0.0000030  -0.0000051  -0.9424280   0.2831313
0.0192368     0.0623041  -0.0048521   0.5614448   0.0258740   0.0000020   0.0000008  -0.9425254   0.2832695
0.0194733     0.0623925  -0.0047519   0.5612916   0.0253860   0.0000098  -0.0000044  -0.9424154   0.2833488
0.0197127     0.0622840  -0.0046046   0.5614007   0.0249209  -0.0000072  -0.0000149  -0.9423865   0.2834325
0.0199550     0.0624118  -0.0045309   0.5613952   0.0245696  -0.0000085  -0.0000115  -0.9424142   0.2834576
0.0202003     0.0624838  -0.0045104   0.5614438   0.0240714  -0.0000027  -0.0000121  -0.9424186   0.2834956
0.0204487     0.0624628  -0.0043440   0.5613065   0.0237652  -0.0000126  -0.0000027  -0.9423482   0.2836018
0.0207001     0.0624456  -0.0042940   0.5613898   0.0232724  -0.0000050  -0.0000153  -0.9422820   0.2836091
0.0209545     0.0625816  -0.0041750   0.5613705   0.0229050  -0.0000042  -0.0000062  -0.9422991   0.2836966
0.0212121     0.0625348  -0.0039648   0.5613681   0.0224836   0.0000013   0.0000014  -0.9422630   0.2838958
0.0214729     0.0626794  -0.0040088   0.5613249   0.0221043  -0.0000082  -0.0000137  -0.9423046   0.2839225
0.0217369     0.0625891  -0.0039098   0.5612948   0.0216489   0.0000177  -0.0000012  -0.9422967   0.2839207
0.0220041     0.0626424  -0.0037685   0.5613109   0.0213017  -0.0000034  -0.0000052  -0.9423316   0.2839710
0.0222746     0.0625973  -0.0036442   0.5612807   0.0208998   0.0000044  -0.0000094  -0.9421834   0.2840686
0.0225484     0.0627631  -0.0035404   0.5612538   0.0204748  -0.0000069   0.0000029  -0.9421589   0.2840821
0.0228256     0.0627707  -0.0035494   0.5612987   0.0201369  -0.0000015   0.0000000  -0.9422130   0.2841121
0.0231062     0.0628346  -0.0033099   0.5612139   0.0197681  -0.0000071  -0.0000067  -0.9422103   0.2841453
0.0233902     0.0628776  -0.0032855   0.5611910   0.0193718  -0.0000062   0.0000041  -0.9421501   0.2842650
0.0236778     0.0628937  -0.0032736   0.5611563   0.0190980   0.0000026  -0.0000065  -0.9421274   0.2843437
0.0239689     0.0607515  -0.0079935   0.5681747   0.0269104  -0.0000034  -0.0000028  -0.9431943   0.2849166
0.0242635     0.0629485  -0.0030815   0.5611512   0.0183334   0.0000020  -0.0000015  -0.9421554   0.2844378
0.0245618     0.0629419  -0.0031120   0.5610508   0.0179479  -0.0000175  -0.0000006  -0.9420997   0.2845678
0.0248637     0.0630522  -0.0029288   0.5610568   0.0175866  -0.0000010  -0.0000011  -0.9421057   0.2846436
0.0251694     0.0630584  -0.0028997   0.5610313   0.0172432  -0.0000045  -0.0000092  -0.9421237   0.2846718
0.0254788     0.0629769  -0.0026955   0.5610198   0.0168811  -0.0000051  -0.0000060  -0.9420106   0.2847303
0.0257920     0.0630763  -0.0026891   0.5609651   0.0164899   0.0000011  -0.0000116  -0.9420984   0.2848583
0.0261091     0.0631997  -0.0026171   0.5609608   0.0162535   0.0000032  -0.0000093  -0.9419308   0.2848252
0.0264301     0.0631927  -0.0025334   0.5609060   0.0158792   0.0000051  -0.0000114  -0.9420806   0.2849199
0.0267550     0.0632430  -0.0025810   0.5608728   0.0155731  -0.0000017   0.0000036  -0.9419236   0.2849455
0.0270839     0.0632664  -0.0025335   0.5608546   0.0152283  -0.0000150  -0.0000070  -0.9420152   0.2849370
0.0274168     0.0632534  -0.0023894   0.5608457   0.0150020  -0.0000071  -0.0000091  -0.9419723   0.2849874
0.0277539     0.0632810  -0.0022339   0.5609000   0.0145760  -0.0000055  -0.0000124  -0.9418585   0.2850718
0.0280951     0.0633675  -0.0023104   0.5607854   0.0142720  -0.0000084  -0.0000131  -0.9418695   0.2851680
0.0284404     0.0633755  -0.0020806   0.5607544   0.0139545  -0.0000050  -0.0000027  -0.9418926   0.2852433
0.0287901     0.0633494  -0.0021039   0.5607185   0.0136434  -0.0000104  -0.0000071  -0.9419360   0.2851845
0.0291440     0.0633716  -0.0020944   0.5606251   0.0133925   0.0000046  -0.0000088  -0.9418947   0.2853351
0.0295023     0.0635472  -0.0020693   0.5606098   0.0130264   0.0000158   0.0000033  -0.9418181   0.2853636
0.0298649     0.0635662  -0.0019985   0.5605850   0.0127541   0.0000090  -0.0000008  -0.9418149   0.2853996
0.0302321     0.0635691  -0.0019611   0.5606211   0.0124154   0.0000043  -0.0000058  -0.9417208   0.2854923
0.0306037     0.0634603  -0.0018321   0.5604936   0.0121812  -0.0000045  -0.0000008  -0.9417143   0.2855678
0.0309799     0.0636494  -0.0016781   0.5605264   0.0118799  -0.0000045   0.0000013  -0.9418265   0.2855831
0.0313608     0.0635282  -0.0015940   0.5603741   0.0116211   0.0000041  -0.0000197  -0.9417779   0.2856653
0.0317463     0.0636736  -0.0017086   0.5604434   0.0113518  -0.0000047   0.0000050  -0.9416988   0.2857371
0.0321366     0.0636462  -0.0015958   0.5604099   0.0110070   0.0000041  -0.0000031  -0.9417880   0.2857474
0.0325316     0.0637607  -0.0014885   0.5604197   0.0107752   0.0000030  -0.0000159  -0.9416747   0.2858300
0.0329316     0.0638372  -0.0015102   0.5603284   0.0104790   0.0000071  -0.0000175  -0.9416642   0.2859160
0.0333364     0.0638130  -0.0014285   0.5602646   0.0102381   0.0000033  -0.0000037  -0.9416956   0.2859965
0.0337462     0.0638782  -0.0013831   0.5602163   0.0099611   0.0000003   0.0000066  -0.9415459   0.2858363
0.0341610     0.0639257  -0.0012743   0.5601713   0.0097054   0.0000031  -0.0000018  -0.9415890   0.2860550
0.0345810     0.0638586  -0.0013053   0.5601491   0.0094878   0.0000025  -0.0000054  -0.9415994   0.2860402
0.0350061     0.0639968  -0.0013415   0.5600889   0.0091904   0.0000041   0.0000028  -0.9416480   0.2861025
0.0354365     0.0639580  -0.0012518   0.5601095   0.0089484   0.0000008  -0.0000113  -0.9415532   0.2862356
0.0358721     0.0640012  -0.0013531   0.5600737   0.0086670   0.0000027   0.0000040  -0.9415274   0.2861881
0.0363131     0.0639524  -0.0011902   0.5599707   0.0084325  -0.0000035  -0.0000022  -0.9415787   0.2862180
0.0367595     0.0640774  -0.0011261   0.5599106   0.0081937  -0.0000029  -0.0000134  -0.9414277   0.2863980
0.0372114     0.0640254  -0.0010667   0.5598708   0.0079600   0.0000021  -0.0000147  -0.9414660   0.2864445
0.0376688     0.0641410  -0.0010796   0.5599593   0.0076802  -0.0000015  -0.0000004  -0.9414265   0.2864517
0.0381319     0.0641756  -0.0010259   0.5597352   0.0074223  -0.0000009  -0.0000148  -0.9414994   0.2864761
0.0386006     0.0642278  -0.0008968   0.5597696   0.0072208  -0.0000001  -0.0000062  -0.9414738   0.2866139
0.0390752     0.0642574  -0.0009303   0.5596775   0.0069686   0.0000058  -0.0000044  -0.9413666   0.2865701
0.0395555     0.0643344  -0.0008966   0.5596724   0.0067577  -0.0000018  -0.0000008  -0.9413887   0.2866159
0.0400418     0.0643081  -0.0008112   0.5596151   0.0065256  -0.0000059  -0.0000090  -0.9414225   0.2867169
0.0405340     0.0643388  -0.0008096   0.5595293   0.0063115   0.0000032  -0.0000083  -0.9413678   0.2866962
0.0410323     0.0643288  -0.0007767   0.5594740   0.0060830   0.0000113  -0.0000063  -0.9412536   0.2867964
0.0415368     0.0642984  -0.0006905   0.5593480   0.0059119  -0.0000101   0.0000046  -0.9413906   0.2868516
0.0420474     0.0643790  -0.0006218   0.5594163   0.0056572  -0.0000032  -0.0000059  -0.9413047   0.2867908
0.0425643     0.0643389  -0.0006238   0.5593665   0.0054625   0.0000041  -0.0000041  -0.9412317   0.2868349
0.0430875     0.0644238  -0.0005849   0.5592985   0.0052483   0.0000041  -0.0000004  -0.9413051   0.2869693
0.0436172     0.0644660  -0.0005391   0.5592664   0.0050276  -0.0000077  -0.0000074  -0.9412355   0.2870156
0.0441534     0.0644976  -0.0004286   0.5591799   0.0048165   0.0000004  -0.0000073  -0.9411886   0.2871031
0.0446962     0.0644547  -0.0004843   0.5591044   0.0045923  -0.0000045  -0.0000057  -0.9411981   0.2871376
0.0452457     0.0645532  -0.0005462   0.5591343   0.0044201   0.0000028  -0.0000074  -0.9411458   0.2871384
0.0458019     0.0643827  -0.0005126   0.5590804   0.0041997   0.0000017  -0.0000085  -0.9411226   0.2871739
0.0463649     0.0646074  -0.0004686   0.5589954   0.0039726   0.0000098   0.0000013  -0.9410879   0.2872438
0.0469349     0.0645574  -0.0005056   0.5588968   0.0038204  -0.0000076  -0.0000056  -0.9410962   0.2873527
0.0475119     0.0646581  -0.0003985   0.5588607   0.0036049   0.0000017  -0.0000071  -0.9410704   0.2873649
0.0480960     0.0647077  -0.0004590   0.5588073   0.0034153  -0.0000044  -0.0000019  -0.9409973   0.2874680
0.0486872     0.0646569  -0.0003294   0.5586407   0.0032159  -0.0000129  -0.0000110  -0.9409651   0.2874875
0.0492857     0.0646650  -0.0002721   0.5587194   0.0030692  -0.0000002  -0.0000042  -0.9409461   0.2875644
0.0498916     0.0647571  -0.0002986   0.5586486   0.0028290  -0.0000045  -0.0000018  -0.9408737   0.2876173
0.0505050     0.0647341  -0.0002479   0.5585891   0.0026677  -0.0000103  -0.0000166  -0.9409469   0.2876108
0.0511258     0.0648437  -0.0001885   0.5585241   0.0024985  -0.0000017  -0.0000074  -0.9409396   0.2877756
0.0517543     0.0646938  -0.0002300   0.5584381   0.0023298  -0.0000078  -0.0000062  -0.9409543   0.2877150
0.0523906     0.0647480  -0.0001687   0.5583823   0.0021319   0.0000057  -0.0000072  -0.9408638   0.2877875
0.0530346     0.0648037  -0.0001294   0.5583453   0.0019719   0.0000032  -0.0000115  -0.9408033   0.2878187
0.0536866     0.0648678  -0.0001515   0.5582563   0.0018046  -0.0000095  -0.0000167  -0.9408350   0.2878571
0.0543466     0.0648512  -0.0001038   0.5581907   0.0015552  -0.0000052  -0.0000006  -0.9407425   0.2878680
0.0550146     0.0649555  -0.0001563   0.5581406   0.0014533  -0.0000055  -0.0000045  -0.9407686   0.2879192
0.0556910     0.0649530  -0.0001392   0.5580187   0.0012897  -0.0000121  -0.0000102  -0.9406990   0.2879734
0.0563756     0.0650113  -0.0000763   0.5579140   0.0010858   0.0000018  -0.0000108  -0.9407175   0.2881117
0.0570686     0.0649894  -0.0000238   0.5578793   0.0009380   0.0000006  -0.0000166  -0.9406780   0.2881488
0.0577702     0.0649455   0.0000052   0.5578283   0.0007927  -0.0000013  -0.0000054  -0.9406106   0.2882546
0.0584804     0.0649910  -0.0000129   0.5577839   0.0006469   0.0000011  -0.0000075  -0.9405687   0.2881916
0.0591993     0.0650946   0.0000344   0.5576803   0.0004618   0.0000087   0.0000003  -0.9405477   0.2882490
0.0599270     0.0650226  -0.0000100   0.5576561   0.0003263   0.0000084  -0.0000020  -0.9406534   0.2883762
0.0606637     0.0650593   0.0001546   0.5575831   0.0001361  -0.0000008  -0.0000084  -0.9404613   0.2883609
0.0614095     0.0650766   0.0001206   0.5575045  -0.0000510  -0.0000130   0.0000009  -0.9405219   0.2883972
0.0621644     0.0651716   0.0000891   0.5574466  -0.0001283  -0.0000010  -0.0000074  -0.9405535   0.2885076
0.0629286     0.0651415   0.0001468   0.5574165  -0.0003122  -0.0000052  -0.0000012  -0.9404398   0.2884878
0.0637022     0.0651935   0.0001178   0.5573056  -0.0004760   0.0000020  -0.0000046  -0.9403573   0.2886245
0.0644853     0.0651726   0.0001157   0.5572288  -0.0006209  -0.0000014  -0.0000039  -0.9404157   0.2886764
0.0652780     0.0651097   0.0001321   0.5571361  -0.0007753   0.0000039  -0.0000084  -0.9403190   0.2886986
0.0660805     0.0652453   0.0001675   0.5571265  -0.0009241  -0.0000050  -0.0000067  -0.9402917   0.2888275
0.0668928     0.0652982   0.0001220   0.5570465  -0.0010512  -0.0000128  -0.0000122  -0.9402203   0.2888212
0.0677152     0.0652207   0.0001732   0.5569593  -0.0011606   0.0000000  -0.0000112  -0.9402024   0.2888230
0.0685476     0.0651909   0.0002075   0.5568928  -0.0013872  -0.0000072  -0.0000117  -0.9401862   0.2888922
0.0693903     0.0653106   0.0002497   0.5567556  -0.0014335  -0.0000004  -0.0000041  -0.9401122   0.2890172
0.0702433     0.0652749   0.0002191   0.5567500  -0.0016013  -0.0000029   0.0000041  -0.9401311   0.2890242
0.0711068     0.0653443   0.0001991   0.5567148  -0.0017409   0.0000037  -0.0000059  -0.9400895   0.2890692
0.0719810     0.0653433   0.0002844   0.5565741  -0.0018614  -0.0000091   0.0000050  -0.9400307   0.2890734
0.0728659     0.0654055   0.0002729   0.5564992  -0.0019963   0.0000052  -0.0000014  -0.9399982   0.2891921
0.0737616     0.0653849   0.0002506   0.5564100  -0.0021075  -0.0000012   0.0000004  -0.9399166   0.2892475
0.0746684     0.0654022   0.0002915   0.5564296  -0.0022620   0.0000073  -0.0000086  -0.9399425   0.2892933
0.0755863     0.0654151   0.0002916   0.5563106  -0.0024168  -0.0000051  -0.0000018  -0.9398644   0.2893296
0.0765155     0.0654866   0.0003291   0.5561629  -0.0025531  -0.0000040  -0.0000102  -0.9398543   0.2893451
0.0774561     0.0653674   0.0003727   0.5561711  -0.0026407   0.0000021  -0.0000132  -0.9397228   0.2894283
0.0784083     0.0653765   0.0003519   0.5560398  -0.0027813   0.0000033   0.0000006  -0.9396576   0.2894038
0.0793722     0.0654663   0.0004329   0.5559876  -0.0028912  -0.0000042  -0.0000104  -0.9396161   0.2895158
0.0803479     0.0655163   0.0003204   0.5559339  -0.0030372   0.0000014  -0.0000099  -0.9396115   0.2895176
0.0813357     0.0654983   0.0004646   0.5558126  -0.0031171  -0.0000006  -0.0000007  -0.9394970   0.2895606
0.0823356     0.0654424   0.0003576   0.5558063  -0.0032794  -0.0000053  -0.0000076  -0.9394075   0.2896695
0.0833477     0.0654947   0.0004300   0.5556721  -0.0033657   0.0000061  -0.0000029  -0.9393761   0.2896456
0.0843723     0.0655578   0.0003357   0.5556476  -0.0035174   0.0000086  -0.0000037  -0.9393115   0.2897923
0.0854095     0.0655935   0.0004846   0.5556129  -0.0036275  -0.0000026  -0.0000074  -0.9392051   0.2896720
0.0864595     0.0654592   0.0004468   0.5555517  -0.0036889  -0.0000029   0.0000073  -0.9391912   0.2898053
0.0875224     0.0656079   0.0004990   0.5554420  -0.0038421   0.0000034  -0.0000104  -0.9391330   0.2897833
0.0885983     0.0656730   0.0004888   0.5553673  -0.0039308  -0.0000022  -0.0000038  -0.9390844   0.2898074
0.0896875     0.0656423   0.0004948   0.5552951  -0.0040539   0.0000089  -0.0000091  -0.9389901   0.2898603
0.0907900     0.0657336   0.0004506   0.5552802  -0.0041459  -0.0000058  -0.0000009  -0.9389029   0.2897670
0.0919061     0.0656739   0.0004215   0.5551751  -0.0042549   0.0000026   0.0000009  -0.9387465   0.2898359
0.0930359     0.0657161   0.0004079   0.5551020  -0.0043292   0.0000012   0.0000016  -0.9387368   0.2897206
0.0941797     0.0657600   0.0005620   0.5550399  -0.0044215   0.0000025   0.0000095  -0.9386642   0.2897788
0.0953374     0.0656641   0.0005787   0.5549829  -0.0044995  -0.0000047   0.0000036  -0.9386589   0.2896874
0.0965094     0.0657226   0.0005645   0.5549128  -0.0046327   0.0000008  -0.0000022  -0.9385277   0.2897067
0.0976959     0.0657603   0.0005329   0.5548096  -0.0046932   0.0000064  -0.0000051  -0.9385353   0.2896980
0.0988969     0.0656929   0.0005899   0.5547499  -0.0048217  -0.0000068  -0.0000015  -0.9384663   0.2896201
0.1001126     0.0658040   0.0006684   0.5546492  -0.0048671  -0.0000042  -0.0000113  -0.9384273   0.2896009
0.1013433     0.0657847   0.0005385   0.5545217  -0.0049738  -0.0000066  -0.0000005  -0.9384162   0.2895283
0.1025892     0.0658647   0.0006675   0.5544739  -0.0050755  -0.0000089  -0.0000156  -0.9383242   0.2894642
0.1038503     0.0657146   0.0006168   0.5544120  -0.0051637  -0.0000061   0.0000026  -0.9383898   0.2893628
0.1051270     0.0657950   0.0006290   0.5543102  -0.0052201  -0.0000042   0.0000032  -0.9384645   0.2893710
0.1064193     0.0657914   0.0006449   0.5542259  -0.0053329  -0.0000009  -0.0000043  -0.9385210   0.2892712
0.1077276     0.0659128   0.0006353   0.5541147  -0.0053921  -0.0000010   0.0000042  -0.9385561   0.2893075
0.1090519     0.0658672   0.0006850   0.5540670  -0.0055085   0.0000081   0.0000023  -0.9386699   0.2891948
0.1103925     0.0658457   0.0005859   0.5539325  -0.0056326  -0.0000053  -0.0000082  -0.9386504   0.2892372
0.1117496     0.0658640   0.0005403   0.5538465  -0.0056821   0.0000070  -0.0000009  -0.9387449   0.2892651
0.1131233     0.0659117   0.0006534   0.5538296  -0.0057769  -0.0000109  -0.0000063  -0.9388706   0.2892237
0.1145140     0.0658425   0.0006167   0.5537230  -0.0058530  -0.0000020  -0.0000139  -0.9389367   0.2893050
0.1159217     0.0658831   0.0005982   0.5536577  -0.0059115  -0.0000058  -0.0000006  -0.9389502   0.2893045
0.1173468     0.0659045   0.0006533   0.5535406  -0.0060340   0.0000043  -0.0000100  -0.9390159   0.2893834
0.1187893     0.0658194   0.0005995   0.5535241  -0.0061126  -0.0000015  -0.0000112  -0.9391408   0.2894386
0.1202497     0.0659265   0.0005566   0.5534069  -0.0061597  -0.0000076  -0.0000202  -0.9391425   0.2894774
0.1217279     0.0659951   0.0007090   0.5532926  -0.0063044   0.0000047   0.0000067  -0.9391774   0.2895602
0.1232243     0.0659624   0.0006729   0.5532023  -0.0063216  -0.0000059  -0.0000097  -0.9393238   0.2897100
0.1247392     0.0660177   0.0006723   0.5531193  -0.0063940  -0.0000005  -0.0000021  -0.9393441   0.2897610
0.1262726     0.0660186   0.0006847   0.5529825  -0.0065031  -0.0000082  -0.0000107  -0.9393835   0.2898578
0.1278249     0.0659860   0.0006066   0.5529451  -0.0065356  -0.0000011  -0.0000062  -0.9393711   0.2899272
0.1293963     0.0659718   0.0006959   0.5528389  -0.0066104  -0.0000038  -0.0000042  -0.9394349   0.2900448
0.1309870     0.0661069   0.0006811   0.5528106  -0.0067012   0.0000004  -0.0000140  -0.9394403   0.2901690
0.1325973     0.0660246   0.0007945   0.5526795  -0.0067558  -0.0000006   0.0000020  -0.9394429   0.2901727
0.1342273     0.0660194   0.0007284   0.5525663  -0.0068421  -0.0000030  -0.0000066  -0.9395119   0.2902830
0.1358774     0.0661012   0.0006104   0.5525226  -0.0068882  -0.0000045   0.0000028  -0.9394840   0.2904587
0.1375478     0.0660464   0.0006988   0.5524366  -0.0069633   0.0000041  -0.0000011  -0.9395102   0.2904983
0.1392387     0.0660458   0.0006088   0.5523128  -0.0070240  -0.0000016  -0.0000030  -0.9394896   0.2906542
0.1409504     0.0660940   0.0006609   0.5522583  -0.0070745  -0.0000098  -0.0000030  -0.9395416   0.2907525
0.1426831     0.0660726   0.0007131   0.5521966  -0.0071529  -0.0000051  -0.0000032  -0.9395182   0.2907696
0.1444371     0.0661810   0.0005942   0.5521048  -0.0072477   0.0000040  -0.0000025  -0.9394529   0.2909111
0.1462127     0.0661072   0.0007507   0.5519791  -0.0073199   0.0000011  -0.0000080  -0.9395321   0.2910522
0.1480102     0.0661664   0.0007562   0.5519061  -0.0073356  -0.0000016  -0.0000117  -0.9394888   0.2911476
0.1498297     0.0661342   0.0007525   0.5518111  -0.0074302  -0.0000046   0.0000006  -0.9394295   0.2911965
0.1516716     0.0662289   0.0007013   0.5517378  -0.0074703  -0.0000031   0.0000037  -0.9394114   0.2913293
0.1535361     0.0661567   0.0007896   0.5516036  -0.0075473  -0.0000056  -0.0000089  -0.9394468   0.2914228
0.1554236     0.0662531   0.0007361   0.5515267  -0.0075717   0.0000006   0.0000022  -0.9394299   0.2915906
0.1573342     0.0662853   0.0006965   0.5514460  -0.0076383  -0.0000109  -0.0000090  -0.9393141   0.2916879
0.1592684     0.0663049   0.0007824   0.5513466  -0.0076889   0.0000048   0.0000032  -0.9394186   0.2917255
0.1612263     0.0662055   0.0007967   0.5513087  -0.0077365   0.0000049  -0.0000010  -0.9393069   0.2918717
0.1632083     0.0663523   0.0007450   0.5512012  -0.0078156   0.0000052  -0.0000046  -0.9393931   0.2919294
0.1652147     0.0662414   0.0007593   0.5511748  -0.0078492  -0.0000054   0.0000015  -0.9392935   0.2920767
0.1672457     0.0662538   0.0006771   0.5510766  -0.0079369   0.0000058  -0.0000092  -0.9392819   0.2921465
0.1693017     0.0663505   0.0007914   0.5509874  -0.0079573  -0.0000093  -0.0000026  -0.9392562   0.2921591
0.1713829     0.0662930   0.0007269   0.5508346  -0.0080066  -0.0000062  -0.0000029  -0.9392212   0.2923577
0.1734898     0.0663143   0.0007691   0.5507968  -0.0080727  -0.0000008   0.0000005  -0.9391912   0.2923584
0.1756225     0.0663127   0.0008411   0.5506938  -0.0081027   0.0000067  -0.0000024  -0.9391699   0.2925539
0.1777815     0.0664596   0.0008106   0.5506389  -0.0081509  -0.0000031  -0.0000086  -0.9390592   0.2925714
0.1799670     0.0663589   0.0008192   0.5505718  -0.0082414  -0.0000053  -0.0000102  -0.9390654   0.2927581
0.1821794     0.0663701   0.0007879   0.5504676  -0.0082381   0.0000027  -0.0000042  -0.9390483   0.2928551
0.1844190     0.0663037   0.0008008   0.5503560  -0.0082951  -0.0000014  -0.0000113  -0.9391059   0.2929285
0.1866861     0.0663971   0.0007461   0.5502997  -0.0083802  -0.0000025  -0.0000085  -0.9389236   0.2930493
0.1889811     0.0664485   0.0007300   0.5502171  -0.0083854  -0.0000052  -0.0000045  -0.9389341   0.2931909
0.1913043     0.0664387   0.0007754   0.5500853  -0.0084429  -0.0000022  -0.0000077  -0.9389398   0.2931881
0.1936560     0.0663157   0.0007159   0.5500441  -0.0084821  -0.0000029   0.0000011  -0.9388743   0.2934055
0.1960367     0.0663819   0.0006803   0.5499912  -0.0085635  -0.0000034  -0.0000113  -0.9388666   0.2935421
0.1984466     0.0663701   0.0008910   0.5498723  -0.0085500  -0.0000069  -0.0000007  -0.9388003   0.2935264
0.2008861     0.0663477   0.0007646   0.5498018  -0.0085823  -0.0000035  -0.0000135  -0.9388468   0.2937072
0.2033557     0.0664574   0.0007728   0.5496740  -0.0086467  -0.0000017  -0.0000072  -0.9388149   0.2937507
0.2058556     0.0664478   0.0007314   0.5495750  -0.0086927   0.0000063  -0.0000012  -0.9386165   0.2938308
0.2083862     0.0664601   0.0007559   0.5494543  -0.0087146  -0.0000007  -0.0000098  -0.9386430   0.2939738
0.2109480     0.0664819   0.0008305   0.5493871  -0.0087419  -0.0000041   0.0000037  -0.9386125   0.2940661
0.2135412     0.0664527   0.0008513   0.5493449  -0.0087845   0.0000026  -0.0000099  -0.9385548   0.2941996
0.2161663     0.0664414   0.0007935   0.5492983  -0.0087919   0.0000069  -0.0000061  -0.9385860   0.2942747
0.2188237     0.0664322   0.0008652   0.5492140  -0.0088820  -0.0000015  -0.0000051  -0.9385893   0.2944157
0.2215137     0.0665170   0.0007803   0.5491229  -0.0088817  -0.0000176  -0.0000081  -0.9384733   0.2944849
0.2242369     0.0664183   0.0008739   0.5490348  -0.0089179  -0.0000093  -0.0000156  -0.9383799   0.2946712
0.2269935     0.0664605   0.0007844   0.5489524  -0.0089322  -0.0000070  -0.0000102  -0.9383557   0.2947396
0.2297839     0.0665022   0.0007874   0.5488331  -0.0089849   0.0000008  -0.0000095  -0.9383288   0.2948782
0.2326087     0.0664827   0.0007583   0.5487764  -0.0089929  -0.0000072  -0.0000042  -0.9383012   0.2949777
0.2354682     0.0666355   0.0008338   0.5486560  -0.0090151   0.0000062  -0.0000025  -0.9382314   0.2950852
0.2383629     0.0666793   0.0008054   0.5485434  -0.0090722   0.0000095  -0.0000077  -0.9382402   0.2951383
0.2412932     0.0665558   0.0008156   0.5484147  -0.0090502  -0.0000204  -0.0000146  -0.9381400   0.2952565
0.2442594     0.0666245   0.0007478   0.5483893  -0.0091107  -0.0000093   0.0000065  -0.9381314   0.2954319
0.2472622     0.0665379   0.0007224   0.5483277  -0.0091209  -0.0000034  -0.0000044  -0.9381191   0.2955686
0.2503018     0.0665876   0.0008504   0.5482619  -0.0091736  -0.0000125  -0.0000093  -0.9379876   0.2957517
0.2533788     0.0666862   0.0008444   0.5481194  -0.0091645  -0.0000040   0.0000031  -0.9379655   0.2957465
0.2564937     0.0665820   0.0008040   0.5480832  -0.0092195  -0.0000017  -0.0000116  -0.9379517   0.2958429
0.2596468     0.0666597   0.0008024   0.5480023  -0.0092356  -0.0000103  -0.0000019  -0.9378675   0.2960615
0.2628387     0.0666865   0.0007509   0.5478977  -0.0092759   0.0000019   0.0000031  -0.9378421   0.2962113
0.2660699     0.0666267   0.0007165   0.5478403  -0.0092999   0.0000030  -0.0000001  -0.9377637   0.2962477
0.2693407     0.0666097   0.0006785   0.5477892  -0.0093227   0.0000029   0.0000017  -0.9376920   0.2964796
0.2726518     0.0667248   0.0007616   0.5476096  -0.0093247   0.0000098  -0.0000065  -0.9376563   0.2965318
0.2760036     0.0666575   0.0007610   0.5475353  -0.0093737  -0.0000009  -0.0000004  -0.9376370   0.2967253
0.2793966     0.0666782   0.0007865   0.5474661  -0.0093539   0.0000015  -0.0000069  -0.9375655   0.2967840
0.2828312     0.0667663   0.0007379   0.5473882  -0.0093789  -0.0000054  -0.0000065  -0.9375553   0.2969881
0.2863082     0.0666803   0.0007673   0.5473144  -0.0094154  -0.0000069  -0.0000156  -0.9374514   0.2970842
0.2898278     0.0667145   0.0007685   0.5471978  -0.0094377   0.0000011  -0.0000148  -0.9373987   0.2972562
0.2933907     0.0667375   0.0007971   0.5471889  -0.0094457  -0.0000071  -0.0000110  -0.9374491   0.2973166
0.2969975     0.0667458   0.0008512   0.5470453  -0.0094659   0.0000025  -0.0000002  -0.9373918   0.2974570
0.3006485     0.0667246   0.0007896   0.5469904  -0.0094947  -0.0000037  -0.0000003  -0.9372446   0.2976492
0.3043445     0.0667509   0.0007484   0.5468818  -0.0094957   0.0000030  -0.0000090  -0.9372233   0.2977212
0.3080858     0.0667636   0.0008508   0.5468183  -0.0095449   0.0000008  -0.0000047  -0.9371217   0.2978439
0.3118732     0.0668051   0.0007998   0.5467405  -0.0095115  -0.0000029  -0.0000037  -0.9370846   0.2981255
0.3157071     0.0668036   0.0008328   0.5467294  -0.0095341   0.0000001  -0.0000051  -0.9369519   0.2981806
0.3195882     0.0667579   0.0008212   0.5466255  -0.0095499  -0.0000056  -0.0000075  -0.9369621   0.2983713
0.3235170     0.0668004   0.0007602   0.5465580  -0.0095987   0.0000005  -0.0000101  -0.9368877   0.2985743
0.3274941     0.0666962   0.0008343   0.5464945  -0.0095992  -0.0000171  -0.0000030  -0.9368245   0.2986018
0.3315200     0.0666864   0.0006910   0.5463890  -0.0096040  -0.0000011  -0.0000002  -0.9366881   0.2987612
0.3355955     0.0668310   0.0008060   0.5462862  -0.0096022   0.0000024  -0.0000098  -0.9367534   0.2988743
0.3397210     0.0668379   0.0007800   0.5462080  -0.0096445  -0.0000033  -0.0000140  -0.9366286   0.2991156
0.3438973     0.0667659   0.0008300   0.5461512  -0.0096558   0.0000025  -0.0000018  -0.9365542   0.2991742
0.3481249     0.0668267   0.0007947   0.5460821  -0.0096667  -0.0000090  -0.0000003  -0.9365513   0.2993079
0.3524045     0.0668139   0.0008139   0.5460169  -0.0096825   0.0000071  -0.0000049  -0.9364981   0.2994654
0.3567367     0.0667647   0.0008214   0.5459758  -0.0096670   0.0000048  -0.0000006  -0.9364733   0.2996630
0.3611221     0.0668976   0.0007551   0.5458354  -0.0097151  -0.0000009  -0.0000053  -0.9363157   0.2998125
0.3655615     0.0667825   0.0008113   0.5457808  -0.0096805   0.0000008   0.0000035  -0.9362350   0.2999891
0.3700554     0.0669690   0.0006813   0.5456942  -0.0097168  -0.0000078   0.0000013  -0.9361766   0.3001423
0.3746046     0.0667608   0.0007957   0.5455927  -0.0097092  -0.0000074   0.0000052  -0.9360952   0.3002810
0.3792097     0.0669521   0.0007218   0.5455405  -0.0097337   0.0000027  -0.0000014  -0.9360310   0.3005167
0.3838714     0.0668986   0.0006869   0.5454473  -0.0097237  -0.0000147   0.0000006  -0.9360487   0.3006684
0.3885905     0.0668729   0.0006889   0.5454132  -0.0097359   0.0000014  -0.0000025  -0.9359445   0.3008066
0.3933675     0.0668183   0.0008079   0.5452824  -0.0097792  -0.0000064  -0.0000079  -0.9358374   0.3010662
0.3982033     0.0669011   0.0008158   0.5452591  -0.0097913   0.0000045  -0.0000028  -0.9357388   0.3011775
0.4030985     0.0668775   0.0007862   0.5451699  -0.0097786  -0.0000013  -0.0000019  -0.9356822   0.3013380
0.4080538     0.0668834   0.0008370   0.5451196  -0.0097795   0.0000088  -0.0000011  -0.9356213   0.3015114
0.4130701     0.0669312   0.0006751   0.5450222  -0.0098098  -0.0000030  -0.0000011  -0.9354990   0.3017008
0.4181481     0.0669828   0.0008112   0.5448933  -0.0098011  -0.0000217  -0.0000123  -0.9354835   0.3019167
0.4232885     0.0669866   0.0007697   0.5448746  -0.0098135   0.0000013  -0.0000042  -0.9353929   0.3020374
0.4284921     0.0668625   0.0007221   0.5448187  -0.0098297   0.0000050  -0.0000019  -0.9353126   0.3021829
0.4337597     0.0669695   0.0007226   0.5447346  -0.0098311  -0.0000025  -0.0000129  -0.9351899   0.3024178
0.4390920     0.0669504   0.0006386   0.5446668  -0.0098293   0.0000014  -0.0000040  -0.9351455   0.3026475
0.4444898     0.0669501   0.0007451   0.5445872  -0.0098310   0.0000003  -0.0000071  -0.9350953   0.3028394
0.4499541     0.0668935   0.0007024   0.5444887  -0.0098372   0.0000018   0.0000071  -0.9349420   0.3029515
0.4554854     0.0670245   0.0007107   0.5444952  -0.0098590  -0.0000024   0.0000004  -0.9349191   0.3031716
0.4610848     0.0669925   0.0006644   0.5443558  -0.0098566   0.0000036  -0.0000010  -0.9347462   0.3034583
0.4667531     0.0670558   0.0006718   0.5442543  -0.0098465  -0.0000048  -0.0000122  -0.9347264   0.3035858
0.4724910     0.0670058   0.0006723   0.5441937  -0.0098814   0.0000114  -0.0000039  -0.9345766   0.3037551
0.4782994     0.0669578   0.0007032   0.5441968  -0.0098486  -0.0000062  -0.0000052  -0.9345650   0.3040264
0.4841793     0.0669931   0.0008036   0.5441086  -0.0098547   0.0000106   0.0000023  -0.9344129   0.3041643
0.4901314     0.0669727   0.0006691   0.5440743  -0.0098844   0.0000062  -0.0000086  -0.9344641   0.3044346
0.4961567     0.0671003   0.0007130   0.5439706  -0.0098892  -0.0000058  -0.0000014  -0.9343045   0.3046205
0.5022561     0.0670603   0.0006180   0.5438917  -0.0098958  -0.0000017  -0.0000053  -0.9341865   0.3048411
0.5084304     0.0670913   0.0006961   0.5438589  -0.0099110  -0.0000013  -0.0000019  -0.9340425   0.3051119
0.5146807     0.0669478   0.0007592   0.5437786  -0.0099048  -0.0000092  -0.0000063  -0.9339961   0.3052493
0.5210078     0.0669930   0.0006500   0.5436968  -0.0099116   0.0000043  -0.0000041  -0.9338725   0.3054744
0.5274126     0.0670871   0.0007081   0.5436450  -0.0099235  -0.0000064  -0.0000075  -0.9338402   0.3057256
0.5338963     0.0670839   0.0006802   0.5435857  -0.0099226   0.0000003   0.0000057  -0.9337405   0.3059158
0.5404596     0.0671405   0.0007170   0.5435042  -0.0099252  -0.0000084   0.0000050  -0.9336710   0.3062319
0.5471036     0.0671432   0.0007119   0.5434323  -0.0099398  -0.0000094  -0.0000065  -0.9335276   0.3063257
0.5538292     0.0670911   0.0006063   0.5433267  -0.0099301   0.0000020  -0.0000054  -0.9334165   0.3066357
0.5606376     0.0671273   0.0006613   0.5432840  -0.0099337  -0.0000026  -0.0000073  -0.9332411   0.3068205
0.5675297     0.0670544   0.0006398   0.5432378  -0.0099439  -0.0000022  -0.0000028  -0.9331879   0.3071370
0.5745064     0.0672027   0.0007179   0.5431683  -0.0099257   0.0000018   0.0000011  -0.9330557   0.3073340
0.5815690     0.0670943   0.0007072   0.5430364  -0.0099522   0.0000020   0.0000047  -0.9330523   0.3075216
0.5887183     0.0672080   0.0006344   0.5429746  -0.0099753  -0.0000109  -0.0000114  -0.9328489   0.3077647
0.5959556     0.0671445   0.0006186   0.5429605  -0.0099869  -0.0000057  -0.0000093  -0.9327533   0.3080503
0.6032818     0.0672200   0.0007322   0.5428834  -0.0099746  -0.0000051  -0.0000031  -0.9326622   0.3083318
0.6106981     0.0671662   0.0006765   0.5428482  -0.0099751   0.0000033  -0.0000101  -0.9325332   0.3086434
0.6182056     0.0672068   0.0006708   0.5427484  -0.0099969   0.0000045  -0.0000047  -0.9324797   0.3087512
0.6258053     0.0672217   0.0005781   0.5427360  -0.0100013  -0.0000036   0.0000009  -0.9323100   0.3090988
0.6334985     0.0672259   0.0006767   0.5426241  -0.0099685   0.0000043  -0.0000057  -0.9322906   0.3093580
0.6412862     0.0671532   0.0007573   0.5425717  -0.0100113  -0.0000087  -0.0000039  -0.9320162   0.3096498
0.6491697     0.0672685   0.0006213   0.5424720  -0.0099897  -0.0000025   0.0000017  -0.9320639   0.3099768
0.6571501     0.0672024   0.0007191   0.5424475  -0.0100320  -0.0000156  -0.0000076  -0.9318527   0.3101546
0.6652286     0.0672659   0.0006672   0.5423637  -0.0100348   0.0000013  -0.0000025  -0.9317385   0.3105023
0.6734064     0.0672028   0.0006761   0.5422814  -0.0100186  -0.0000007  -0.0000128  -0.9316249   0.3107810
0.6816848     0.0672043   0.0006228   0.5422439  -0.0100696  -0.0000108  -0.0000052  -0.9314518   0.3109770
0.6900649     0.0672509   0.0005413   0.5421991  -0.0100763  -0.0000001  -0.0000024  -0.9313558   0.3112493
0.6985480     0.0672686   0.0006276   0.5421826  -0.0100681  -0.0000011  -0.0000022  -0.9312130   0.3116300
0.7071355     0.0671532   0.0006691   0.5419668  -0.0100603   0.0000024  -0.0000047  -0.9311384   0.3119213
0.7158284     0.0672239   0.0005503   0.5419733  -0.0100739   0.0000018  -0.0000044  -0.9310515   0.3121998
0.7246283     0.0672910   0.0005466   0.5419084  -0.0100919  -0.0000065  -0.0000022  -0.9308397   0.3124587
0.7335363     0.0672669   0.0005881   0.5419305  -0.0101026   0.0000072  -0.0000030  -0.9308036   0.3127722
0.7425539     0.0673143   0.0006078   0.5418114  -0.0101071  -0.0000014  -0.0000051  -0.9306783   0.3131388
0.7516822     0.0672889   0.0005943   0.5417202  -0.0101182  -0.0000061   0.0000039  -0.9304417   0.3133883
0.7609229     0.0672432   0.0005861   0.5417031  -0.0101090  -0.0000108  -0.0000073  -0.9302693   0.3136903
0.7702771     0.0673272   0.0005953   0.5416515  -0.0101279   0.0000060  -0.0000118  -0.9301103   0.3139566
0.7797463     0.0673099   0.0004771   0.5415742  -0.0101576  -0.0000053  -0.0000039  -0.9299867   0.3143409
0.7893319     0.0672995   0.0005057   0.5415203  -0.0101677  -0.0000011  -0.0000039  -0.9298566   0.3146606
0.7990353     0.0674260   0.0005297   0.5414324  -0.0101813   0.0000108   0.0000006  -0.9297423   0.3149845
0.8088580     0.0673071   0.0006192   0.5414131  -0.0101917  -0.0000011  -0.0000043  -0.9295781   0.3153214
0.8188015     0.0672720   0.0005855   0.5413339  -0.0101846  -0.0000041  -0.0000032  -0.9294537   0.3156519
0.8288673     0.0672872   0.0005676   0.5413303  -0.0102029  -0.0000032  -0.0000065  -0.9292674   0.3159989
0.8390567     0.0672738   0.0005755   0.5412668  -0.0102152   0.0000029  -0.0000167  -0.9291964   0.3163791
0.8493714     0.0673482   0.0005606   0.5412257  -0.0102343   0.0000081  -0.0000012  -0.9290133   0.3166715
0.8598130     0.0673153   0.0006096   0.5411522  -0.0102563   0.0000073  -0.0000083  -0.9288463   0.3170546
0.8703829     0.0673890   0.0005470   0.5410765  -0.0102539   0.0000037  -0.0000044  -0.9286617   0.3173866
0.8810827     0.0674104   0.0005990   0.5410441  -0.0102696  -0.0000029  -0.0000054  -0.9285109   0.3178376
0.8919140     0.0674016   0.0005558   0.5409544  -0.0103041   0.0000023  -0.0000108  -0.9283561   0.3181357
0.9028786     0.0673523   0.0006071   0.5408879  -0.0102749  -0.0000092   0.0000004  -0.9281942   0.3185210
0.9139779     0.0673499   0.0004717   0.5408703  -0.0103250  -0.0000026  -0.0000067  -0.9280326   0.3189216
0.9252136     0.0672790   0.0005560   0.5408259  -0.0103427  -0.0000001  -0.0000139  -0.9278553   0.3192816
0.9365875     0.0673610   0.0005772   0.5407062  -0.0103533  -0.0000034   0.0000006  -0.9276938   0.3196557
0.9481012     0.0673718   0.0005176   0.5406642  -0.0103540  -0.0000017  -0.0000055  -0.9275186   0.3200543
0.9597564     0.0673694   0.0004764   0.5406450  -0.0103829  -0.0000017  -0.0000023  -0.9273121   0.3204456
0.9715549     0.0673594   0.0005508   0.5406119  -0.0104077  -0.0000036  -0.0000012  -0.9271461   0.3208858
0.9834985     0.0673355   0.0003650   0.5405899  -0.0104194  -0.0000065  -0.0000013  -0.9270109   0.3212321
0.9955889     0.0672921   0.0004724   0.5405215  -0.0104326  -0.0000032  -0.0000050  -0.9268638   0.3216050
1.0078279     0.0673586   0.0004277   0.5404162  -0.0104725   0.0000107  -0.0000079  -0.9265545   0.3220619
1.0202173     0.0674183   0.0004772   0.5403973  -0.0104636   0.0000011  -0.0000053  -0.9264578   0.3224213
1.0327591     0.0674150   0.0004387   0.5403382  -0.0104605  -0.0000039  -0.0000004  -0.9262505   0.3229331
1.0454551     0.0674266   0.0004809   0.5403018  -0.0105130   0.0000008  -0.0000101  -0.9260666   0.3233381
1.0583071     0.0674350   0.0005336   0.5402174  -0.0105626  -0.0000013   0.0000049  -0.9258682   0.3237213
1.0713171     0.0674363   0.0004849   0.5401935  -0.0105289  -0.0000064   0.0000018  -0.9255917   0.3241481
1.0844871     0.0674383   0.0005153   0.5401749  -0.0105722  -0.0000048   0.0000027  -0.9254617   0.3245377
1.0978189     0.0674216   0.0005051   0.5400654  -0.0105873   0.0000007   0.0000068  -0.9252756   0.3250599
1.1113147     0.0674651   0.0005022   0.5400049  -0.0106398  -0.0000006  -0.0000055  -0.9250334   0.3254274
1.1249763     0.0674135   0.0004176   0.5399254  -0.0106193  -0.0000013  -0.0000018  -0.9248774   0.3259905
1.1388059     0.0674575   0.0004512   0.5398588  -0.0106479  -0.0000019  -0.0000060  -0.9247198   0.3264517
1.1528056     0.0674756   0.0004110   0.5398245  -0.0106679  -0.0000044  -0.0000036  -0.9244583   0.3268988
1.1669773     0.0675038   0.0004110   0.5397381  -0.0106930  -0.0000009  -0.0000082  -0.9242727   0.3273953
1.1813232     0.0674248   0.0003796   0.5396983  -0.0107135  -0.0000031  -0.0000048  -0.9240773   0.3278585
1.1958455     0.0674620   0.0004139   0.5396216  -0.0107535   0.0000009   0.0000004  -0.9238039   0.3283554
1.2105463     0.0674533   0.0004000   0.5396073  -0.0107691  -0.0000031  -0.0000085  -0.9236208   0.3288517
1.2254278     0.0673957   0.0003380   0.5395326  -0.0108058  -0.0000064   0.0000002  -0.9233540   0.3293477
1.2404923     0.0674756   0.0003902   0.5394670  -0.0108606   0.0000005  -0.0000006  -0.9232183   0.3298264
1.2557420     0.0676063   0.0003926   0.5394557  -0.0108434   0.0000060  -0.0000034  -0.9229541   0.3303611
1.2711791     0.0674062   0.0004074   0.5394226  -0.0109132   0.0000058   0.0000032  -0.9226769   0.3308420
1.2868060     0.0674331   0.0003082   0.5393227  -0.0109376  -0.0000086   0.0000018  -0.9224299   0.3313969
1.3026251     0.0674913   0.0004020   0.5393148  -0.0109698   0.0000010  -0.0000178  -0.9221532   0.3319239
1.3186385     0.0674757   0.0003629   0.5392509  -0.0110022  -0.0000032  -0.0000001  -0.9219294   0.3324706
1.3348489     0.0675752   0.0003006   0.5392110  -0.0110072  -0.0000022  -0.0000067  -0.9217568   0.3330027
1.3512585     0.0674125   0.0003084   0.5391414  -0.0110656  -0.0000067  -0.0000152  -0.9214508   0.3335168
1.3678698     0.0675851   0.0003889   0.5391124  -0.0110848  -0.0000091  -0.0000157  -0.9212825   0.3340755
1.3846854     0.0675173   0.0003760   0.5390323  -0.0110885   0.0000027  -0.0000135  -0.9210106   0.3347380
1.4017077     0.0675375   0.0003617   0.5390286  -0.0111304   0.0000041   0.0000045  -0.9207423   0.3352204
1.4189392     0.0675249   0.0003858   0.5389520  -0.0111881   0.0000006   0.0000001  -0.9205003   0.3357456
1.4363825     0.0674981   0.0004250   0.5388573  -0.0111787  -0.0000072  -0.0000012  -0.9202484   0.3363581
1.4540403     0.0675814   0.0003812   0.5388077  -0.0112461  -0.0000064  -0.0000011  -0.9199559   0.3369570
1.4719152     0.0675458   0.0003246   0.5387761  -0.0112978   0.0000078   0.0000075  -0.9197156   0.3376479
1.4900098     0.0676262   0.0003066   0.5387394  -0.0113173   0.0000059  -0.0000025  -0.9193985   0.3381595
1.5083269     0.0675035   0.0002966   0.5386911  -0.0113506  -0.0000053   0.0000013  -0.9191216   0.3387463
1.5268691     0.0676011   0.0003635   0.5386252  -0.0113913   0.0000075  -0.0000016  -0.9188447   0.3393919
1.5456392     0.0675251   0.0002049   0.5385294  -0.0114354  -0.0000034  -0.0000016  -0.9186352   0.3399954
1.5646402     0.0675694   0.0002168   0.5385463  -0.0114564   0.0000027  -0.0000022  -0.9183255   0.3407034
1.5838747     0.0674828   0.0003330   0.5384864  -0.0115110  -0.0000058   0.0000018  -0.9180071   0.3413056
1.6033456     0.0675433   0.0003173   0.5384144  -0.0115492  -0.0000038   0.0000005  -0.9178175   0.3419714
1.6230559     0.0675522   0.0003519   0.5383738  -0.0115561   0.0000040  -0.0000088  -0.9174998   0.3426997
1.6430085     0.0676167   0.0002852   0.5383388  -0.0116104  -0.0000092  -0.0000087  -0.9171685   0.3433497
1.6632064     0.0675792   0.0002556   0.5381954  -0.0116594  -0.0000108  -0.0000073  -0.9168588   0.3440620
1.6836526     0.0675820   0.0002822   0.5381394  -0.0116954   0.0000037  -0.0000099  -0.9166106   0.3447857
1.7043502     0.0676203   0.0002851   0.5380904  -0.0117343   0.0000002  -0.0000113  -0.9161800   0.3455200
1.7253021     0.0676258   0.0003010   0.5380698  -0.0117731  -0.0000079  -0.0000040  -0.9159925   0.3461715
1.7465117     0.0676333   0.0001535   0.5380653  -0.0118314   0.0000025  -0.0000055  -0.9157903   0.3469968
1.7679820     0.0676929   0.0002548   0.5379429  -0.0118889  -0.0000045   0.0000031  -0.9154066   0.3477171
1.7897162     0.0676325   0.0002631   0.5378702  -0.0119468  -0.0000016  -0.0000074  -0.9151174   0.3484560
1.8117176     0.0676200   0.0001642   0.5378726  -0.0119819  -0.0000088  -0.0000035  -0.9147761   0.3493066
1.8339895     0.0676188   0.0001869   0.5377899  -0.0120355  -0.0000118  -0.0000034  -0.9144893   0.3500739
1.8565352     0.0676144   0.0002369   0.5377567  -0.0120771  -0.0000061  -0.0000007  -0.9141587   0.3508992
1.8793580     0.0675860   0.0002659   0.5376697  -0.0121139   0.0000050  -0.0000067  -0.9138773   0.3516445
1.9024614     0.0677067   0.0002250   0.5375817  -0.0121810   0.0000034   0.0000019  -0.9136433   0.3524820
1.9258488     0.0676726   0.0002206   0.5375485  -0.0122247  -0.0000040  -0.0000066  -0.9132013   0.3533232
1.9495237     0.0676190   0.0002210   0.5375045  -0.0122809  -0.0000036  -0.0000086  -0.9128573   0.3542622
1.9734897     0.0677173   0.0001646   0.5374154  -0.0122990  -0.0000027  -0.0000027  -0.9124967   0.3551210
1.9977503     0.0677269   0.0002105   0.5373900  -0.0123621  -0.0000022  -0.0000100  -0.9121862   0.3560367
2.0223091     0.0676865   0.0002123   0.5373921  -0.0124548   0.0000036  -0.0000066  -0.9117146   0.3569520
2.0471698     0.0676547   0.0001772   0.5373386  -0.0124964   0.0000021  -0.0000058  -0.9112576   0.3578717
2.0723362     0.0676010   0.0000608   0.5372316  -0.0125440  -0.0000052  -0.0000109  -0.9108508   0.3587810
2.0978119     0.0676739   0.0001975   0.5371823  -0.0125891  -0.0000046  -0.0000081  -0.9103719   0.3597379
2.1236008     0.0677490   0.0002704   0.5371908  -0.0126484  -0.0000093  -0.0000004  -0.9098752   0.3606545
2.1497067     0.0677471   0.0001027   0.5371438  -0.0127002  -0.0000046  -0.0000022  -0.9093895   0.3616367
2.1761336     0.0677331   0.0001215   0.5370861  -0.0127576  -0.0000068  -0.0000094  -0.9089004   0.3624516
2.2028853     0.0677915   0.0001399   0.5370270  -0.0128169  -0.0000069  -0.0000036  -0.9082573   0.3634525
2.2299659     0.0677629   0.0001556   0.5369717  -0.0128703  -0.0000041  -0.0000103  -0.9079217   0.3643863
2.2573794     0.0676991   0.0000495   0.5369224  -0.0129331  -0.0000005   0.0000045  -0.9073349   0.3653268
2.2851299     0.0677597   0.0001018   0.5369079  -0.0129909  -0.0000203  -0.0000078  -0.9067572   0.3662666
2.3132216     0.0677616   0.0001133   0.5367636  -0.0130556  -0.0000061  -0.0000051  -0.9062437   0.3671181
2.3416586     0.0677716   0.0000047   0.5367682  -0.0131361   0.0000013  -0.0000147  -0.9056892   0.3680784
2.3704451     0.0677603   0.0000787   0.5367624  -0.0132076  -0.0000051  -0.0000091  -0.9051684   0.3691096
2.3995856     0.0676941  -0.0000269   0.5367032  -0.0132696  -0.0000066  -0.0000082  -0.9045189   0.3700807
2.4290843     0.0677697   0.0001225   0.5366123  -0.0133412  -0.0000003  -0.0000136  -0.9041214   0.3709168
2.4589456     0.0677592   0.0000337   0.5365800  -0.0133826  -0.0000015  -0.0000055  -0.9035454   0.3719175
2.4891740     0.0678285   0.0000317   0.5365844  -0.0134455   0.0000065   0.0000046  -0.9030067   0.3729132
2.5197740     0.0676891   0.0001016   0.5365074  -0.0135653  -0.0000101  -0.0000049  -0.9025121   0.3739415
2.5507502     0.0677867   0.0000621   0.5364681  -0.0136019  -0.0000041   0.0000006  -0.9019500   0.3748543
2.5821072     0.0677380   0.0000305   0.5364605  -0.0136500   0.0000005  -0.0000009  -0.9013914   0.3758758
2.6138496     0.0678199  -0.0000504   0.5363983  -0.0137412  -0.0000073  -0.0000027  -0.9007222   0.3768633
2.6459823     0.0676876  -0.0000075   0.5363358  -0.0138238  -0.0000029   0.0000048  -0.9001987   0.3779199
2.6785100     0.0677668   0.0000417   0.5363002  -0.0138821  -0.0000082  -0.0000121  -0.8996597   0.3790409
2.7114376     0.0678257  -0.0000292   0.5362621  -0.0139705  -0.0000063  -0.0000062  -0.8990225   0.3800620
2.7447699     0.0678216   0.0000406   0.5362240  -0.0140258   0.0000017  -0.0000063  -0.8984440   0.3810689
2.7785120     0.0678299  -0.0000295   0.5361887  -0.0141035  -0.0000026  -0.0000068  -0.8978285   0.3821643
2.8126689     0.0678146   0.0000411   0.5361706  -0.0142081  -0.0000122   0.0000035  -0.8973122   0.3833147
2.8472457     0.0678546  -0.0001454   0.5360848  -0.0143110  -0.0000035  -0.0000070  -0.8967607   0.3844286
2.8822476     0.0678114  -0.0001506   0.5360228  -0.0143466   0.0000060   0.0000022  -0.8961782   0.3855124
2.9176798     0.0678239  -0.0000652   0.5360325  -0.0144106  -0.0000007  -0.0000141  -0.8955195   0.3866086
2.9535475     0.0677977  -0.0000504   0.5359601  -0.0145098  -0.0000058  -0.0000054  -0.8949483   0.3878070
2.9898562     0.0678852  -0.0001516   0.5359004  -0.0145884  -0.0000028  -0.0000049  -0.8942470   0.3890268
3.0266112     0.0677781  -0.0000801   0.5358548  -0.0146683  -0.0000014  -0.0000102  -0.8936296   0.3901293
3.0638180     0.0678725  -0.0001707   0.5358229  -0.0147702  -0.0000027  -0.0000106  -0.8929854   0.3913348
3.1014823     0.0679226  -0.0000880   0.5358130  -0.0148539   0.0000122   0.0000001  -0.8923790   0.3926033
3.1396096     0.0677998  -0.0001733   0.5357726  -0.0149733   0.0000007  -0.0000151  -0.8916534   0.3937399
3.1782055     0.0677757  -0.0001316   0.5357285  -0.0150256  -0.0000052  -0.0000060  -0.8910269   0.3950064
3.2172760     0.0678451  -0.0001746   0.5356646  -0.0151244  -0.0000021  -0.0000025  -0.8903442   0.3962763
3.2568267     0.0679209  -0.0002590   0.5355160  -0.0152261   0.0000000   0.0000010  -0.8897056   0.3975141
3.2968637     0.0678694  -0.0001388   0.5355247  -0.0153043   0.0000079  -0.0000071  -0.8889123   0.3988380
3.3373928     0.0678228  -0.0001262   0.5355087  -0.0154061  -0.0000055  -0.0000043  -0.8882090   0.4000991
3.3784202     0.0679114  -0.0002292   0.5354660  -0.0154766   0.0000017  -0.0000115  -0.8874257   0.4014749
3.4199519     0.0678875  -0.0001778   0.5353956  -0.0155810  -0.0000018  -0.0000072  -0.8867184   0.4027799
3.4619942     0.0678730  -0.0002417   0.5353280  -0.0156988   0.0000094  -0.0000015  -0.8859021   0.4040620
3.5045533     0.0678371  -0.0002411   0.5352495  -0.0158057  -0.0000130  -0.0000043  -0.8851955   0.4055343
3.5476356     0.0678662  -0.0002612   0.5352198  -0.0158796  -0.0000032  -0.0000072  -0.8844131   0.4068135
3.5912475     0.0679136  -0.0002579   0.5351956  -0.0159893   0.0000050  -0.0000068  -0.8835820   0.4081858
3.6353956     0.0678585  -0.0002750   0.5351470  -0.0161100  -0.0000033   0.0000033  -0.8828196   0.4096963
3.6800864     0.0678187  -0.0002454   0.5350785  -0.0162077  -0.0000019  -0.0000012  -0.8820544   0.4111741
3.7253266     0.0678915  -0.0002133   0.5350157  -0.0162974  -0.0000012   0.0000029  -0.8812237   0.4125975
3.7711229     0.0679582  -0.0003033   0.5349737  -0.0164033   0.0000036  -0.0000073  -0.8804596   0.4140384
3.8174822     0.0678902  -0.0003629   0.5349683  -0.0165080   0.0000054  -0.0000037  -0.8795996   0.4154965
3.8644115     0.0679967  -0.0003533   0.5348878  -0.0166201  -0.0000027  -0.0000005  -0.8788628   0.4170898
3.9119176     0.0679572  -0.0003292   0.5348203  -0.0167322   0.0000050  -0.0000047  -0.8780034   0.4186069
3.9600077     0.0678987  -0.0003358   0.5348290  -0.0168618  -0.0000003  -0.0000106  -0.8772529   0.4201030
4.0086890     0.0679622  -0.0003865   0.5347466  -0.0169390  -0.0000001  -0.0000011  -0.8762245   0.4216955
4.0579688     0.0679636  -0.0003149   0.5347017  -0.0170901   0.0000105  -0.0000087  -0.8753939   0.4232443
4.1078544     0.0679377  -0.0004247   0.5346508  -0.0171916   0.0000009  -0.0000062  -0.8745147   0.4247613
4.1583532     0.0679729  -0.0004041   0.5345605  -0.0172989  -0.0000076  -0.0000134  -0.8735491   0.4263804
4.2094729     0.0679636  -0.0004544   0.5345082  -0.0174444  -0.0000130  -0.0000085  -0.8727399   0.4279787
4.2612209     0.0679105  -0.0003682   0.5344802  -0.0175507   0.0000049  -0.0000003  -0.8717528   0.4295703
4.3136051     0.0678878  -0.0004192   0.5344119  -0.0176989   0.0000094  -0.0000038  -0.8707551   0.4312195
4.3666333     0.0679466  -0.0004920   0.5343704  -0.0177951  -0.0000042  -0.0000094  -0.8698497   0.4329018
4.4203134     0.0680147  -0.0004911   0.5343025  -0.0179546  -0.0000094  -0.0000055  -0.8687537   0.4345216
4.4746534     0.0679871  -0.0004652   0.5342468  -0.0180561  -0.0000100  -0.0000040  -0.8676684   0.4362446
4.5296613     0.0679291  -0.0004344   0.5341683  -0.0181754  -0.0000140  -0.0000062  -0.8666960   0.4379928
4.5853455     0.0679804  -0.0004482   0.5341307  -0.0183387   0.0000126  -0.0000056  -0.8655878   0.4397037
4.6417143     0.0679732  -0.0005434   0.5341468  -0.0184580   0.0000038  -0.0000010  -0.8644354   0.4412928
4.6987760     0.0680215  -0.0005010   0.5340982  -0.0186252  -0.0000146  -0.0000077  -0.8633619   0.4429503
4.7565392     0.0681297  -0.0005959   0.5340506  -0.0187353  -0.0000048  -0.0000118  -0.8622112   0.4446939
4.8150125     0.0680105  -0.0005963   0.5339546  -0.0188638   0.0000012  -0.0000054  -0.8610678   0.4463435
4.8742045     0.0680501  -0.0005794   0.5339052  -0.0190126   0.0000013  -0.0000100  -0.8598778   0.4479819
4.9341243     0.0680288  -0.0005115   0.5338742  -0.0191366  -0.0000079  -0.0000109  -0.8588102   0.4494953
4.9947807     0.0680805  -0.0006351   0.5338215  -0.0192743  -0.0000006  -0.0000013  -0.8578174   0.4510817
5.0561827     0.0679966  -0.0006646   0.5337912  -0.0194394  -0.0000007  -0.0000055  -0.8568059   0.4527803
5.1183396     0.0679342  -0.0005650   0.5337731  -0.0195641   0.0000014  -0.0000067  -0.8558557   0.4544847
5.1812606     0.0680176  -0.0007233   0.5336852  -0.0197037   0.0000041   0.0000007  -0.8549632   0.4562606
5.2449550     0.0680572  -0.0006413   0.5336703  -0.0198590  -0.0000038  -0.0000165  -0.8540537   0.4582926
5.3094325     0.0680079  -0.0006804   0.5336461  -0.0200176  -0.0000002  -0.0000129  -0.8530595   0.4601084
5.3747026     0.0680042  -0.0006545   0.5335820  -0.0201676  -0.0000032  -0.0000010  -0.8520304   0.4623129
5.4407751     0.0679843  -0.0006781   0.5334654  -0.0203443   0.0000050  -0.0000045  -0.8508710   0.4642557
5.5076599     0.0680610  -0.0007565   0.5334608  -0.0204818  -0.0000117  -0.0000096  -0.8497691   0.4663224
5.5753669     0.0679892  -0.0007561   0.5334177  -0.0206484   0.0000046  -0.0000046  -0.8485973   0.4684798
5.6439062     0.0680572  -0.0007619   0.5333671  -0.0208053   0.0000020  -0.0000020  -0.8474325   0.4705647
5.7132881     0.0681133  -0.0007946   0.5332617  -0.0209606  -0.0000053  -0.0000021  -0.8461542   0.4727491
5.7835229     0.0680525  -0.0008162   0.5332276  -0.0211331   0.0000120  -0.0000015  -0.8448744   0.4749231
5.8546211     0.0680474  -0.0008296   0.5331758  -0.0212892   0.0000019  -0.0000059  -0.8436650   0.4771559
5.9265934     0.0681544  -0.0008563   0.5330792  -0.0214984   0.0000031  -0.0000032  -0.8422969   0.4793258
5.9994504     0.0680178  -0.0008486   0.5330525  -0.0216656  -0.0000047  -0.0000054  -0.8409209   0.4814409
6.0732031     0.0680492  -0.0009238   0.5330568  -0.0218332  -0.0000113  -0.0000100  -0.8395623   0.4836481
6.1478624     0.0681603  -0.0009136   0.5329650  -0.0220264   0.0000063  -0.0000045  -0.8381859   0.4858738
6.2234396     0.0681318  -0.0008926   0.5329143  -0.0221815  -0.0000013  -0.0000036  -0.8366054   0.4881844
6.2999458     0.0681288  -0.0009719   0.5328744  -0.0223741  -0.0000015  -0.0000074  -0.8352632   0.4904485
6.3773925     0.0680658  -0.0008789   0.5328586  -0.0225689  -0.0000065  -0.0000109  -0.8337530   0.4927246
6.4557914     0.0680467  -0.0010109   0.5327973  -0.0227494   0.0000019  -0.0000044  -0.8322471   0.4949631
6.5351539     0.0680716  -0.0009997   0.5327059  -0.0229447  -0.0000016   0.0000001  -0.8307492   0.4973691
6.6154922     0.0680601  -0.0011109   0.5326454  -0.0231278   0.0000017  -0.0000067  -0.8291662   0.4997310
6.6968180     0.0680332  -0.0010916   0.5325769  -0.0233117  -0.0000013  -0.0000054  -0.8275994   0.5021189
6.7791436     0.0682530  -0.0010680   0.5325415  -0.0235161  -0.0000036  -0.0000061  -0.8260330   0.5044637
6.8624812     0.0681663  -0.0010673   0.5324695  -0.0236891  -0.0000017  -0.0000108  -0.8244187   0.5069328
6.9468433     0.0681706  -0.0011734   0.5324372  -0.0239001  -0.0000075   0.0000006  -0.8228260   0.5093485
7.0322425     0.0680459  -0.0010949   0.5324173  -0.0241094  -0.0000001  -0.0000017  -0.8211146   0.5118158
7.1186916     0.0681486  -0.0011635   0.5323278  -0.0243238   0.0000055  -0.0000068  -0.8194095   0.5143454
7.2062034     0.0681478  -0.0011911   0.5322943  -0.0245465  -0.0000054  -0.0000028  -0.8176992   0.5169044
7.2947909     0.0680664  -0.0011999   0.5321944  -0.0247146  -0.0000060  -0.0000003  -0.8159561   0.5194736
7.3844675     0.0681682  -0.0012012   0.5321576  -0.0249555  -0.0000109  -0.0000018  -0.8142863   0.5220747
7.4752466     0.0680956  -0.0012149   0.5321019  -0.0251586   0.0000062  -0.0000064  -0.8124937   0.5246904
7.5671416     0.0682321  -0.0013621   0.5320313  -0.0253785  -0.0000101   0.0000033  -0.8107805   0.5273408
7.6601662     0.0681516  -0.0011840   0.5320035  -0.0256129  -0.0000032  -0.0000058  -0.8089321   0.5300260
7.7543345     0.0681153  -0.0013297   0.5319272  -0.0258568  -0.0000011  -0.0000027  -0.8070409   0.5328550
7.8496604     0.0681656  -0.0014093   0.5318756  -0.0260829  -0.0000081  -0.0000079  -0.8052010   0.5356596
7.9461581     0.0681454  -0.0014429   0.5318326  -0.0263142  -0.0000041  -0.0000001  -0.8031845   0.5385086
8.0438422     0.0681685  -0.0013965   0.5317551  -0.0265584  -0.0000019   0.0000034  -0.8012046   0.5413537
8.1427270     0.0681659  -0.0014435   0.5317015  -0.0267835   0.0000042   0.0000010  -0.7990345   0.5443276
8.2428275     0.0681918  -0.0014316   0.5316317  -0.0269993   0.0000016   0.0000028  -0.7968067   0.5471867
8.3441586     0.0682260  -0.0014420   0.5315762  -0.0272752  -0.0000017   0.0000017  -0.7946318   0.5499687
8.4467353     0.0681699  -0.0014663   0.5315961  -0.0275088   0.0000085  -0.0000037  -0.7923743   0.5529673
8.5505731     0.0682528  -0.0013897   0.5314708  -0.0277649   0.0000036  -0.0000037  -0.7900742   0.5557386
8.6556873     0.0681353  -0.0015008   0.5314934  -0.0280073   0.0000022  -0.0000069  -0.7877981   0.5586649
8.7620937     0.0682094  -0.0016401   0.5314569  -0.0282533  -0.0000146  -0.0000022  -0.7855033   0.5615264
8.8698082     0.0682904  -0.0016358   0.5313824  -0.0285412   0.0000006  -0.0000076  -0.7831491   0.5644380
8.9788469     0.0681817  -0.0016840   0.5313311  -0.0287846   0.0000057  -0.0000060  -0.7808526   0.5673655
9.0892260     0.0682095  -0.0017436   0.5312416  -0.0290550  -0.0000017  -0.0000065  -0.7784899   0.5703176
9.2009621     0.0682403  -0.0016613   0.5312005  -0.0293305  -0.0000012  -0.0000011  -0.7759998   0.5733714
9.3140717     0.0682632  -0.0016790   0.5310986  -0.0295749   0.0000038   0.0000058  -0.7735743   0.5763568
9.4285718     0.0682647  -0.0017547   0.5310670  -0.0298561  -0.0000053  -0.0000121  -0.7711036   0.5794398
9.5444795     0.0682338  -0.0018264   0.5310250  -0.0301240  -0.0000082   0.0000062  -0.7685506   0.5825374
9.6618121     0.0681693  -0.0017400   0.5309630  -0.0304266   0.0000018  -0.0000043  -0.7660223   0.5856292
9.7805870     0.0682456  -0.0018335   0.5308876  -0.0306843   0.0000009   0.0000032  -0.7634060   0.5888029
9.9008221     0.0681935  -0.0018525   0.5308404  -0.0309772   0.0000039  -0.0000012  -0.7607542   0.5920226
10.0225353    0.0682373  -0.0018583   0.5307971  -0.0312516  -0.0000049  -0.0000083  -0.7581033   0.5951324
10.1457447    0.0681869  -0.0019396   0.5307769  -0.0315621  -0.0000039  -0.0000058  -0.7553612   0.5984296
10.2704688    0.0682553  -0.0018883   0.5306996  -0.0318617  -0.0000041  -0.0000085  -0.7526769   0.6017045
10.3967261    0.0682653  -0.0019943   0.5306687  -0.0321758  -0.0000061  -0.0000066  -0.7498397   0.6050384
10.5245356    0.0682081  -0.0019639   0.5306139  -0.0324662  -0.0000079  -0.0000076  -0.7469667   0.6082174
10.6539162    0.0682330  -0.0020356   0.5305471  -0.0327785   0.0000029   0.0000029  -0.7440703   0.6115378
10.7848873    0.0682828  -0.0022223   0.5305122  -0.0330840   0.0000005  -0.0000063  -0.7411368   0.6149778
10.9174685    0.0682740  -0.0021557   0.5304423  -0.0334085  -0.0000070  -0.0000035  -0.7381281   0.6183689
11.0516796    0.0682206  -0.0021924   0.5303851  -0.0337280  -0.0000045   0.0000037  -0.7349763   0.6217995
11.1875405    0.0682216  -0.0022316   0.5303627  -0.0340401   0.0000009  -0.0000076  -0.7319551   0.6253218
11.3250716    0.0681685  -0.0021711   0.5303010  -0.0343930  -0.0000013  -0.0000002  -0.7288001   0.6287838
11.4642934    0.0683719  -0.0022431   0.5302490  -0.0347215  -0.0000070  -0.0000020  -0.7255736   0.6322627
11.6052267    0.0682128  -0.0023037   0.5302032  -0.0350696  -0.0000104  -0.0000051  -0.7223402   0.6358978
11.7478926    0.0682534  -0.0023628   0.5301507  -0.0354019  -0.0000036   0.0000009  -0.7190147   0.6394037
11.8923122    0.0682236  -0.0023348   0.5300934  -0.0357699   0.0000007   0.0000002  -0.7156511   0.6429700
12.0385073    0.0682403  -0.0024668   0.5300632  -0.0361175  -0.0000075  -0.0000003  -0.7121713   0.6466395
12.1864995    0.0681957  -0.0024640   0.5299849  -0.0364628  -0.0000044  -0.0000095  -0.7086981   0.6502674
12.3363111    0.0681683  -0.0025620   0.5299614  -0.0368593  -0.0000098  -0.0000015  -0.7052440   0.6539590
12.4879643    0.0682896  -0.0025316   0.5298481  -0.0372264  -0.0000047  -0.0000026  -0.7015574   0.6576797
12.6414818    0.0682393  -0.0025532   0.5297792  -0.0375766   0.0000050  -0.0000068  -0.6978449   0.6613944
12.7968866    0.0682847  -0.0025307   0.5297381  -0.0379888   0.0000019  -0.0000131  -0.6941116   0.6651428
12.9542018    0.0682517  -0.0026763   0.5296362  -0.0383655   0.0000027   0.0000004  -0.6903715   0.6689079
13.1134509    0.0683239  -0.0027131   0.5295612  -0.0387456  -0.0000100  -0.0000035  -0.6864955   0.6727020
13.2746577    0.0682518  -0.0028285   0.5295252  -0.0391442  -0.0000033  -0.0000037  -0.6825288   0.6765492
13.4378462    0.0683091  -0.0027198   0.5294478  -0.0395285   0.0000116  -0.0000093  -0.6785797   0.6805044
13.6030409    0.0682176  -0.0028314   0.5293966  -0.0399386   0.0000024  -0.0000091  -0.6744924   0.6843455
13.7702663    0.0683189  -0.0028668   0.5293318  -0.0403586  -0.0000078   0.0000053  -0.6703140   0.6882447
13.9395475    0.0682615  -0.0029220   0.5293126  -0.0407484  -0.0000009  -0.0000010  -0.6661352   0.6921232
14.1109097    0.0683142  -0.0029220   0.5292424  -0.0411698  -0.0000038  -0.0000051  -0.6618006   0.6961022
14.2843785    0.0683282  -0.0030501   0.5292105  -0.0415919   0.0000052   0.0000030  -0.6574447   0.7000021
14.4599797    0.0682932  -0.0030017   0.5290675  -0.0420359   0.0000036  -0.0000067  -0.6530176   0.7040575
14.6377397    0.0682757  -0.0029546   0.5290021  -0.0424530  -0.0000093  -0.0000076  -0.6485291   0.7080584
14.8176850    0.0683062  -0.0031544   0.5289309  -0.0429077  -0.0000131   0.0000027  -0.6439510   0.7120446
14.9998423    0.0682551  -0.0030892   0.5288847  -0.0433392  -0.0000022  -0.0000131  -0.6392536   0.7161155
15.1842390    0.0682483  -0.0031764   0.5288082  -0.0437933  -0.0000130   0.0000049  -0.6344815   0.7202062
15.3709024    0.0683128  -0.0031700   0.5287427  -0.0442680  -0.0000048   0.0000017  -0.6297241   0.7242485
15.5598606    0.0682961  -0.0033147   0.5286883  -0.0447265  -0.0000054  -0.0000108  -0.6248621   0.7283607
15.7511417    0.0682692  -0.0033391   0.5285924  -0.0451901   0.0000019  -0.0000063  -0.6198680   0.7325479
15.9447743    0.0682813  -0.0033201   0.5284969  -0.0456622   0.0000020  -0.0000005  -0.6148227   0.7366409
16.1407872    0.0682200  -0.0034751   0.5284511  -0.0461601  -0.0000153  -0.0000110  -0.6095775   0.7408179
16.3392097    0.0682924  -0.0034823   0.5283660  -0.0466166  -0.0000056   0.0000011  -0.6043237   0.7450111
16.5400716    0.0682526  -0.0035002   0.5282593  -0.0471206  -0.0000077   0.0000002  -0.5990279   0.7492048
16.7434026    0.0683119  -0.0036007   0.5282630  -0.0476249  -0.0000112  -0.0000024  -0.5935454   0.7533613
16.9492333    0.0682331  -0.0036413   0.5281809  -0.0481609   0.0000049   0.0000022  -0.5880423   0.7577115
17.1575942    0.0682987  -0.0037158   0.5281005  -0.0486254  -0.0000039   0.0000064  -0.5824226   0.7618352
17.3685166    0.0682245  -0.0037531   0.5280321  -0.0491621  -0.0000002   0.0000013  -0.5767305   0.7661086
17.5820320    0.0682652  -0.0037864   0.5279413  -0.0496888  -0.0000036  -0.0000010  -0.5708657   0.7702965
17.7981721    0.0682966  -0.0038077   0.5278685  -0.0502221  -0.0000008  -0.0000063  -0.5649477   0.7746078
18.0169693    0.0682566  -0.0039286   0.5278068  -0.0507620  -0.0000148   0.0000015  -0.5589829   0.7788677
18.2384562    0.0682402  -0.0039400   0.5277338  -0.0512904  -0.0000088  -0.0000066  -0.5528978   0.7832294
18.4626659    0.0682066  -0.0040784   0.5276243  -0.0518375   0.0000017  -0.0000043  -0.5466180   0.7874117
18.6896319    0.0681739  -0.0040481   0.5275348  -0.0524111  -0.0000066   0.0000047  -0.5403799   0.7916946
18.9193880    0.0682629  -0.0040855   0.5274529  -0.0529569  -0.0000040  -0.0000020  -0.5338648   0.7960754
19.1519686    0.0682008  -0.0042181   0.5273657  -0.0535733   0.0000009  -0.0000067  -0.5272533   0.8003731
19.3874083    0.0682723  -0.0043049   0.5272653  -0.0541314  -0.0000090  -0.0000072  -0.5205907   0.8046701
19.6257423    0.0682251  -0.0043931   0.5271758  -0.0547189  -0.0000034  -0.0000054  -0.5139282   0.8090026
19.8670063    0.0682444  -0.0044099   0.5271158  -0.0553245  -0.0000003  -0.0000053  -0.5070653   0.8132444
20.1112361    0.0682823  -0.0045336   0.5270113  -0.0559292   0.0000014   0.0000039  -0.5000667   0.8175503
20.3584684    0.0682368  -0.0044299   0.5269796  -0.0565206  -0.0000109  -0.0000031  -0.4928451   0.8218131
20.6087399    0.0681549  -0.0045288   0.5268438  -0.0571600   0.0000064  -0.0000074  -0.4856078   0.8260492
20.8620881    0.0682922  -0.0046318   0.5267574  -0.0577631  -0.0000070   0.0000015  -0.4781752   0.8303917
21.1185507    0.0682137  -0.0045979   0.5266730  -0.0584035  -0.0000055   0.0000029  -0.4706816   0.8346281
21.3781661    0.0681197  -0.0047855   0.5265932  -0.0590449  -0.0000035  -0.0000010  -0.4630449   0.8387695
21.6409730    0.0682282  -0.0047625   0.5264865  -0.0596993  -0.0000039  -0.0000078  -0.4552968   0.8429882
21.9070107    0.0683069  -0.0048661   0.5263696  -0.0603482  -0.0000070   0.0000040  -0.4474480   0.8472129
22.1763188    0.0682342  -0.0049722   0.5262440  -0.0610376  -0.0000040   0.0000040  -0.4393970   0.8514093
22.4489376    0.0681363  -0.0049534   0.5261982  -0.0617157  -0.0000043  -0.0000038  -0.4312338   0.8556008
22.7249077    0.0681214  -0.0051903   0.5260783  -0.0624055  -0.0000006  -0.0000028  -0.4229033   0.8597198
23.0042705    0.0682189  -0.0051162   0.5259673  -0.0630925  -0.0000025   0.0000032  -0.4144679   0.8638397
23.2870675    0.0682264  -0.0051358   0.5258846  -0.0637740  -0.0000063   0.0000051  -0.4059703   0.8679089
23.5733409    0.0682162  -0.0052595   0.5257483  -0.0645008  -0.0000101  -0.0000119  -0.3971808   0.8719871
23.8631337    0.0682229  -0.0053517   0.5255898  -0.0652286  -0.0000095   0.0000009  -0.3882574   0.8759217
24.1564889    0.0682539  -0.0054849   0.5254814  -0.0659348  -0.0000145   0.0000020  -0.3793041   0.8799030
24.4534504    0.0682238  -0.0054141   0.5254095  -0.0666884  -0.0000039  -0.0000033  -0.3701540   0.8837846
24.7540625    0.0681846  -0.0055775   0.5252901  -0.0674285  -0.0000011  -0.0000056  -0.3608652   0.8877116
25.0583701    0.0681058  -0.0056741   0.5251810  -0.0681569   0.0000015  -0.0000007  -0.3513553   0.8915770
25.3664186    0.0681471  -0.0057002   0.5250552  -0.0689274  -0.0000058  -0.0000061  -0.3416299   0.8953736
25.6782541    0.0681842  -0.0057032   0.5248888  -0.0697269   0.0000039  -0.0000031  -0.3318719   0.8991532
25.9939230    0.0680899  -0.0058522   0.5247957  -0.0705024  -0.0000041  -0.0000050  -0.3219447   0.9027781
26.3134725    0.0681520  -0.0059736   0.5246720  -0.0712978   0.0000036  -0.0000035  -0.3118192   0.9063520
26.6369503    0.0682194  -0.0059953   0.5245221  -0.0720768  -0.0000030  -0.0000139  -0.3015927   0.9099376
26.9644047    0.0680872  -0.0060664   0.5243982  -0.0729220   0.0000019   0.0000037  -0.2911556   0.9134289
27.2958846    0.0680964  -0.0061421   0.5242675  -0.0737263  -0.0000076   0.0000021  -0.2805167   0.9167797
27.6314394    0.0681450  -0.0062557   0.5241274  -0.0745784  -0.0000017  -0.0000051  -0.2698048   0.9201340
27.9711193    0.0681675  -0.0063182   0.5240503  -0.0754319   0.0000071  -0.0000031  -0.2588429   0.9232956
28.3149750    0.0680927  -0.0064564   0.5237785  -0.0762522   0.0000039  -0.0000051  -0.2477763   0.9264440
28.6630578    0.0680093  -0.0065149   0.5237073  -0.0771357  -0.0000087  -0.0000003  -0.2365017   0.9294491
29.0154196    0.0681408  -0.0065748   0.5235756  -0.0780082  -0.0000064  -0.0000030  -0.2250419   0.9323611
29.3721131    0.0680904  -0.0066801   0.5233796  -0.0789036   0.0000014  -0.0000039  -0.2134533   0.9351741
29.7331915    0.0680711  -0.0067464   0.5232194  -0.0797928  -0.0000054  -0.0000036  -0.2016027   0.9379710
30.0987087    0.0681739  -0.0068268   0.5230726  -0.0807133  -0.0000033   0.0000123  -0.1897006   0.9405994
30.4687194    0.0679903  -0.0069058   0.5229183  -0.0816313  -0.0000021  -0.0000058  -0.1775500   0.9431766
30.8432786    0.0679814  -0.0070020   0.5227427  -0.0825549  -0.0000102   0.0000030  -0.1652043   0.9454509
31.2224424    0.0679998  -0.0071114   0.5225404  -0.0834931   0.0000061   0.0000027  -0.1527992   0.9476807
31.6062674    0.0679826  -0.0072024   0.5223838  -0.0844749  -0.0000091  -0.0000072  -0.1400337   0.9498177
31.9948108    0.0679641  -0.0073073   0.5222151  -0.0854288   0.0000000   0.0000043  -0.1271896   0.9518871
32.3881306    0.0679870  -0.0073854   0.5220132  -0.0864021  -0.0000007  -0.0000042  -0.1141830   0.9537462
32.7862857    0.0679050  -0.0074880   0.5218125  -0.0873703  -0.0000070  -0.0000062  -0.1009629   0.9553778
33.1893353    0.0679654  -0.0075931   0.5216028  -0.0883907  -0.0000018  -0.0000006  -0.0875903   0.9570247
33.5973398    0.0679303  -0.0076939   0.5214299  -0.0893865   0.0000037  -0.0000116  -0.0740442   0.9583378
34.0103599    0.0679335  -0.0077711   0.5212212  -0.0904348  -0.0000011   0.0000036  -0.0602129   0.9594876
34.4284574    0.0677840  -0.0078607   0.5211085  -0.0914669  -0.0000075  -0.0000028  -0.0465159   0.9606917
34.8516946    0.0679034  -0.0079974   0.5208965  -0.0925348  -0.0000053   0.0000028  -0.0322434   0.9616950
35.2801349    0.0678228  -0.0081263   0.5206112  -0.0935873  -0.0000032  -0.0000036  -0.0177784   0.9624635
35.7138420    0.0678046  -0.0082377   0.5204546  -0.0946824  -0.0000069  -0.0000060  -0.0032039   0.9628964
36.1528808    0.0679055  -0.0082597   0.5202082  -0.0957751  -0.0000086  -0.0000063   0.0115347   0.9632563
36.5973168    0.0678298  -0.0083816   0.5200182  -0.0968586   0.0000000  -0.0000055   0.0264333   0.9633738
37.0472164    0.0677855  -0.0084828   0.5198626  -0.0979989  -0.0000010  -0.0000025   0.0415912   0.9631242
37.5026467    0.0677630  -0.0086608   0.5195604  -0.0991333   0.0000005  -0.0000051   0.0569194   0.9628974
37.9636757    0.0677900  -0.0087451   0.5192139  -0.1002743  -0.0000025  -0.0000048   0.0726387   0.9619464
38.4303722    0.0677333  -0.0088264   0.5189817  -0.1013902   0.0000012  -0.0000023   0.0881824   0.9611452
38.9028060    0.0676903  -0.0089606   0.5187545  -0.1025895   0.0000032   0.0000041   0.1040381   0.9599848
39.3810475    0.0677596  -0.0090521   0.5184547  -0.1037644  -0.0000019   0.0000034   0.1201362   0.9586652
39.8651681    0.0676802  -0.0091788   0.5182527  -0.1049891  -0.0000008   0.0000047   0.1362896   0.9569852
40.3552402    0.0677074  -0.0092563   0.5180108  -0.1062079   0.0000052   0.0000025   0.1527017   0.9550329
40.8513368    0.0676123  -0.0094210   0.5177245  -0.1074222  -0.0000009  -0.0000083   0.1693457   0.9526915
41.3535320    0.0676281  -0.0095257   0.5174763  -0.1086679  -0.0000069  -0.0000035   0.1860114   0.9501695
41.8619009    0.0675867  -0.0094985   0.5171814  -0.1099370  -0.0000012   0.0000013   0.2030277   0.9472720
42.3765193    0.0676897  -0.0097162   0.5168746  -0.1112010   0.0000010  -0.0000008   0.2201222   0.9440599
42.8974639    0.0675728  -0.0098202   0.5165894  -0.1125036  -0.0000026   0.0000052   0.2373514   0.9404513
43.4248127    0.0675007  -0.0099949   0.5162871  -0.1138104   0.0000010  -0.0000060   0.2547651   0.9366341
43.9586443    0.0674984  -0.0101020   0.5159312  -0.1151440   0.0000045  -0.0000092   0.2723270   0.9323410
44.4990385    0.0675014  -0.0102286   0.5156218  -0.1164919  -0.0000060   0.0000010   0.2900678   0.9276746
45.0460758    0.0674591  -0.0103946   0.5152983  -0.1178215   0.0000030   0.0000042   0.3079234   0.9226692
45.5998380    0.0674913  -0.0104090   0.5149733  -0.1192151  -0.0000014  -0.0000026   0.3258964   0.9172927
46.1604077    0.0675471  -0.0106719   0.5146136  -0.1205793  -0.0000057  -0.0000096   0.3439905   0.9114112
46.7278686    0.0674837  -0.0108305   0.5142876  -0.1220055  -0.0000078  -0.0000061   0.3622095   0.9051561
47.3023055    0.0673789  -0.0108881   0.5139127  -0.1234209  -0.0000035   0.0000063   0.3805383   0.8984954
47.8838040    0.0673621  -0.0110904   0.5135776  -0.1248327   0.0000035  -0.0000116   0.3990787   0.8913030
48.4724511    0.0673666  -0.0111604   0.5131699  -0.1262929  -0.0000043   0.0000037   0.4175483   0.8837820
49.0683345    0.0673795  -0.0112736   0.5127980  -0.1277688  -0.0000065   0.0000016   0.4362200   0.8757527
49.6715433    0.0672609  -0.0113761   0.5124270  -0.1292549  -0.0000056  -0.0000091   0.4548566   0.8672616
50.2821675    0.0672681  -0.0116616   0.5120469  -0.1307394  -0.0000049  -0.0000026   0.4737366   0.8581977
50.9002982    0.0671608  -0.0117024   0.5116197  -0.1323034  -0.0000001  -0.0000023   0.4925113   0.8486204
51.5260277    0.0672136  -0.0118388   0.5112100  -0.1338326   0.0000016  -0.0000145   0.5114078   0.8386844
52.1594495    0.0671494  -0.0120475   0.5107609  -0.1354078   0.0000007  -0.0000111   0.5302185   0.8281260
52.8006581    0.0670941  -0.0122563   0.5103351  -0.1369752   0.0000019  -0.0000070   0.5491565   0.8169084
53.4497492    0.0670267  -0.0123284   0.5099001  -0.1385347   0.0000038  -0.0000035   0.5682259   0.8053365
54.1068198    0.0670303  -0.0124939   0.5094276  -0.1401362   0.0000014  -0.0000070   0.5870810   0.7931806
54.7719678    0.0670016  -0.0126499   0.5089412  -0.1417756  -0.0000080  -0.0000108   0.6059003   0.7804755
55.4452927    0.0669639  -0.0127293   0.5084786  -0.1434465  -0.0000031   0.0000036   0.6248029   0.7668483
56.1268950    0.0669215  -0.0129094   0.5079600  -0.1450955  -0.0000012  -0.0000006   0.6436129   0.7528409
56.8168763    0.0668952  -0.0130065   0.5074692  -0.1467912  -0.0000113  -0.0000002   0.6623330   0.7382715
57.5153398    0.0669912  -0.0132222   0.5070316  -0.1485270  -0.0000006  -0.0000099   0.6809259   0.7230836
58.2223896    0.0668321  -0.0134199   0.5064726  -0.1502474   0.0000062  -0.0000063   0.6993919   0.7071741
58.9381314    0.0667038  -0.0135677   0.5058793  -0.1519579   0.0000077  -0.0000018   0.7177304   0.6906869
59.6626719    0.0666986  -0.0137162   0.5053572  -0.1537758   0.0000018  -0.0000044   0.7358872   0.6734457
60.3961194    0.0666928  -0.0139011   0.5048117  -0.1555523  -0.0000076  -0.0000076   0.7539451   0.6555725
61.1385834    0.0666537  -0.0140510   0.5041975  -0.1573423   0.0000077  -0.0000151   0.7717916   0.6369847
61.8901746    0.0666607  -0.0142030   0.5036027  -0.1591857  -0.0000007  -0.0000055   0.7892939   0.6177425
62.6510053    0.0665716  -0.0144139   0.5030124  -0.1610338  -0.0000042  -0.0000129   0.8065969   0.5978861
63.4211891    0.0664929  -0.0145136   0.5024245  -0.1629152  -0.0000005   0.0000010   0.8236544   0.5771804
64.2008409    0.0664525  -0.0147439   0.5017736  -0.1648039  -0.0000013  -0.0000071   0.8403290   0.5559154
64.9900772    0.0664048  -0.0149187   0.5011207  -0.1666932   0.0000060  -0.0000039   0.8567017   0.5338548
65.7890158    0.0663495  -0.0151272   0.5004427  -0.1686259   0.0000066  -0.0000067   0.8726612   0.5111127
66.5977759    0.0663764  -0.0153454   0.4997525  -0.1706078  -0.0000110   0.0000004   0.8881822   0.4875516
67.4164783    0.0663234  -0.0155121   0.4990490  -0.1725896   0.0000024  -0.0000098   0.9034119   0.4632958
68.2452452    0.0662299  -0.0156908   0.4984064  -0.1745636  -0.0000016  -0.0000030   0.9180764   0.4384124
69.0842003    0.0661763  -0.0157787   0.4976889  -0.1765761  -0.0000021  -0.0000152   0.9322427   0.4127304
69.9334689    0.0660493  -0.0160963   0.4970358  -0.1786439  -0.0000106  -0.0000085   0.9455765   0.3863505
70.7931778    0.0660752  -0.0162761   0.4958866  -0.1806629   0.0000082  -0.0000021   0.9591080   0.3591561
71.6634552    0.0660046  -0.0165133   0.4952053  -0.1827331  -0.0000035  -0.0000070   0.9716677   0.3310241
72.5444312    0.0659084  -0.0166149   0.4944169  -0.1848284   0.0000123   0.0000005   0.9836817   0.3023485
73.4362373    0.0658067  -0.0168366   0.4936900  -0.1869793  -0.0000012  -0.0000107   0.9948434   0.2729349
74.3390065    0.0658194  -0.0169752   0.4930248  -0.1891974   0.0000080  -0.0000129   1.0046945   0.2431284
75.2528737    0.0657160  -0.0172185   0.4920497  -0.1913554  -0.0000040  -0.0000102   1.0143737   0.2123149
76.1779753    0.0656703  -0.0174399   0.4911794  -0.1935384  -0.0000051  -0.0000124   1.0232854   0.1808396
77.1144493    0.0655477  -0.0176677   0.4902272  -0.1957491  -0.0000026  -0.0000045   1.0313023   0.1486103
78.0624357    0.0655083  -0.0179141   0.4893356  -0.1980344  -0.0000029  -0.0000080   1.0384154   0.1157628
79.0220759    0.0654473  -0.0180356   0.4883545  -0.2002864   0.0000002  -0.0000036   1.0445212   0.0821697
79.9935132    0.0653891  -0.0183242   0.4874229  -0.2025750   0.0000041  -0.0000131   1.0496229   0.0480313
80.9768926    0.0653467  -0.0184389   0.4864394  -0.2048824  -0.0000064  -0.0000116   1.0537186   0.0132410
81.9723609    0.0651694  -0.0187266   0.4853919  -0.2072422   0.0000053  -0.0000071   1.0567157  -0.0222640
82.9800667    0.0651547  -0.0189231   0.4844250  -0.2096260  -0.0000016  -0.0000180   1.0586042  -0.0582525
84.0001605    0.0650306  -0.0192235   0.4832985  -0.2119838   0.0000053  -0.0000160   1.0593000  -0.0947391
85.0327946    0.0649274  -0.0193510   0.4821921  -0.2144067   0.0000022  -0.0000081   1.0586965  -0.1319093
86.0781231    0.0649085  -0.0196649   0.4810684  -0.2168422   0.0000029  -0.0000101   1.0568105  -0.1694968
87.1363020    0.0648091  -0.0198572   0.4799201  -0.2192811   0.0000048  -0.0000041   1.0536046  -0.2074041
88.2074894    0.0646778  -0.0200934   0.4787246  -0.2217845  -0.0000051  -0.0000155   1.0489040  -0.2458368
89.2918452    0.0645938  -0.0203212   0.4775808  -0.2242725  -0.0000005  -0.0000021   1.0430306  -0.2849234
90.3895312    0.0644350  -0.0206016   0.4763384  -0.2268509  -0.0000024  -0.0000180   1.0355088  -0.3237174
91.5007114    0.0645100  -0.0208430   0.4750337  -0.2293740  -0.0000084  -0.0000163   1.0264270  -0.3630294
92.6255515    0.0643040  -0.0210894   0.4737703  -0.2319554  -0.0000034  -0.0000041   1.0155656  -0.4024850
93.7642195    0.0642645  -0.0212853   0.4724529  -0.2345559  -0.0000052  -0.0000188   1.0031624  -0.4420937
94.9168855    0.0641489  -0.0215341   0.4711170  -0.2371997  -0.0000125  -0.0000104   0.9892346  -0.4818269
96.0837215    0.0640334  -0.0218750   0.4696821  -0.2398541  -0.0000039  -0.0000178   0.9734644  -0.5215695
97.2649017    0.0640100  -0.0219784   0.4682657  -0.2425418  -0.0000004  -0.0000104   0.9559370  -0.5609835
98.4606024    0.0638462  -0.0223531   0.4668192  -0.2452419  -0.0000038  -0.0000064   0.9365502  -0.6005025
99.6710021    0.0636927  -0.0226095   0.4652872  -0.2479459  -0.0000145  -0.0000062   0.9153443  -0.6396754
100.8962816   0.0636020  -0.0227205   0.4638248  -0.2507153  -0.0000102  -0.0000124   0.8922365  -0.6784421
102.1366237   0.0635217  -0.0230386   0.4622872  -0.2535259   0.0000052  -0.0000179   0.8671283  -0.7166929
103.3922136   0.0634469  -0.0233680   0.4606727  -0.2562765  -0.0000096  -0.0000112   0.8401955  -0.7544722
104.6632389   0.0632297  -0.0235768   0.4590916  -0.2591367  -0.0000105  -0.0000055   0.8113415  -0.7912682
105.9498891   0.0630740  -0.0238503   0.4576472  -0.2617229  -0.0000069  -0.0000089   0.7803574  -0.8250929
107.2523564   0.0630953  -0.0241508   0.4554929  -0.2649081  -0.0000016  -0.0000085   0.7458400  -0.8653272
108.5708353   0.0629211  -0.0244200   0.4537592  -0.2680012  -0.0000106  -0.0000041   0.7121824  -0.8993932
109.9055225   0.0627137  -0.0246856   0.4518601  -0.2706550   0.0000076  -0.0000064   0.6774515  -0.9319120
111.2566174   0.0625475  -0.0250879   0.4503360  -0.2735553  -0.0000017  -0.0000120   0.6366632  -0.9623526
112.6243216   0.0624526  -0.0252871   0.4484395  -0.2766034   0.0000017  -0.0000150   0.5956314  -0.9930429
114.0088393   0.0622553  -0.0255179   0.4464734  -0.2795626  -0.0000127  -0.0000032   0.5528684  -1.0220177
115.4103773   0.0621798  -0.0258837   0.4445308  -0.2826232  -0.0000076  -0.0000214   0.5080600  -1.0493846
116.8291446   0.0620338  -0.0261841   0.4425271  -0.2856593   0.0000125  -0.0000049   0.4616156  -1.0748125
118.2653533   0.0618512  -0.0264284   0.4404799  -0.2887372  -0.0000004  -0.0000118   0.4131618  -1.0983546
119.7192175   0.0617082  -0.0266786   0.4383906  -0.2918201  -0.0000147  -0.0000006   0.3630310  -1.1198741
121.1909545   0.0615567  -0.0270540   0.4362380  -0.2949336  -0.0000096  -0.0000137   0.3112472  -1.1389094
122.6807839   0.0613077  -0.0273778   0.4340400  -0.2980492  -0.0000186  -0.0000183   0.2578829  -1.1556283
124.1889281   0.0611677  -0.0277848   0.4317416  -0.3011708   0.0000025  -0.0000021   0.2030196  -1.1697805
125.7156123   0.0611388  -0.0279855   0.4294329  -0.3042322  -0.0000108  -0.0000053   0.1468018  -1.1813263
127.2610644   0.0608463  -0.0283014   0.4271008  -0.3075958  -0.0000061  -0.0000096   0.0899457  -1.1898236
128.8255151   0.0606834  -0.0285415   0.4246454  -0.3107116  -0.0000125  -0.0000101   0.0310541  -1.1954536
130.4091980   0.0605240  -0.0289692   0.4222596  -0.3139231  -0.0000132  -0.0000125  -0.0282397  -1.1979713
132.0123495   0.0602279  -0.0292413   0.4196696  -0.3171926  -0.0000062  -0.0000027  -0.0885005  -1.1971293
133.6352088   0.0601502  -0.0295708   0.4171564  -0.3204847  -0.0000239  -0.0000059  -0.1491135  -1.1931309
135.2780184   0.0599839  -0.0298460   0.4145682  -0.3237565  -0.0000031  -0.0000057  -0.2103454  -1.1854267
136.9410235   0.0597130  -0.0302570   0.4119260  -0.3271265  -0.0000093  -0.0000137  -0.2717939  -1.1740384
138.6244722   0.0594697  -0.0305183   0.4091300  -0.3304286  -0.0000096  -0.0000023  -0.3330388  -1.1591738
140.3286160   0.0592197  -0.0308799   0.4063094  -0.3338007  -0.0000127  -0.0000127  -0.3943408  -1.1406394
142.0537093   0.0589686  -0.0312362   0.4036787  -0.3372478  -0.0000183  -0.0000196  -0.4577303  -1.1193078
143.8000095   0.0587597  -0.0315684   0.4005592  -0.3406311  -0.0000058   0.0000000  -0.5114804  -1.0920313
145.5677774   0.0586355  -0.0319598   0.3973206  -0.3439771   0.0000058  -0.0000122  -0.5686752  -1.0596310
147.3572769   0.0586101  -0.0322582   0.3944008  -0.3473048  -0.0000021  -0.0000169  -0.6296031  -1.0274029
149.1687752   0.0580332  -0.0326419   0.3912132  -0.3507142   0.0000015  -0.0000091  -0.6842854  -0.9897038
151.0025426   0.0579378  -0.0328557   0.3880192  -0.3541384  -0.0000053  -0.0000193  -0.7376444  -0.9478988
152.8588530   0.0575642  -0.0331498   0.3847522  -0.3576029  -0.0000013  -0.0000092  -0.7884430  -0.9023780
154.7379834   0.0573312  -0.0336741   0.3814165  -0.3610794  -0.0000086  -0.0000110  -0.8368112  -0.8532143
156.6402144   0.0570445  -0.0339677   0.3780074  -0.3645120  -0.0000084  -0.0000061  -0.8822036  -0.8005717
158.5658301   0.0570054  -0.0342442   0.3744923  -0.3679939  -0.0000037   0.0000147  -0.9241073  -0.7445390
160.5151177   0.0566126  -0.0346127   0.3710082  -0.3713311   0.0000014  -0.0000065  -0.9630209  -0.6849737
162.4883685   0.0562858  -0.0350418   0.3669588  -0.3751358   0.0000013  -0.0000028  -0.9967976  -0.6237559
164.4858769   0.0559283  -0.0353430   0.3635096  -0.3783874   0.0000046  -0.0000033  -1.0278789  -0.5582318
166.5079411   0.0556357  -0.0356457   0.3596947  -0.3819324  -0.0000070  -0.0000102  -1.0539276  -0.4910024
168.5548630   0.0554488  -0.0361346   0.3557943  -0.3853984  -0.0000107   0.0000016  -1.0755896  -0.4214285
170.6269483   0.0550701  -0.0364561   0.3517154  -0.3888624  -0.0000006  -0.0000172  -1.0920161  -0.3500769
172.7245062   0.0549303  -0.0368924   0.3477470  -0.3924226   0.0000046  -0.0000030  -1.1035268  -0.2774294
174.8478498   0.0544254  -0.0374153   0.3436198  -0.3958583   0.0000061  -0.0000036  -1.1094082  -0.2032648
176.9972963   0.0539784  -0.0376914   0.3393102  -0.3993462   0.0000235  -0.0000062  -1.1102204  -0.1277967
179.1731664   0.0534564  -0.0382620   0.3333151  -0.4057550  -0.0000187  -0.0000088  -1.1019377  -0.0580540
181.3757850   0.0531866  -0.0383932   0.3297918  -0.4054865  -0.0000020  -0.0000058  -1.0923748   0.0172629
183.6054809   0.0531029  -0.0386925   0.3262178  -0.4097011  -0.0000115  -0.0000014  -1.0773858   0.0954521
185.8625870   0.0528494  -0.0389985   0.3216394  -0.4132046  -0.0000271  -0.0000083  -1.0548059   0.1676861
188.1474402   0.0525644  -0.0395688   0.3170166  -0.4166256  -0.0000045  -0.0000041  -1.0266452   0.2388777
190.4603817   0.0522179  -0.0397621   0.3122834  -0.4200378  -0.0000241  -0.0000166  -0.9928692   0.3077410
192.8017567   0.0519174  -0.0403991   0.3074433  -0.4234868   0.0000113  -0.0000080  -0.9528826   0.3737659
195.1719148   0.0511472  -0.0409224   0.3025267  -0.4269415  -0.0000411   0.0000164  -0.9079903   0.4365081
197.5712099   0.0508831  -0.0409833   0.2971967  -0.4298166   0.0000064  -0.0000064  -0.8584258   0.4960860
200.0000000   0.0505960  -0.0414503   0.2925975  -0.4335546  -0.0000129  -0.0000066  -0.8026131   0.5505821
