! ListType=Log
# MHZ S RI R 50
0.0010000    -0.9992879  -0.0000826  -0.0000009   0.0000069  -0.0000115  -0.0000299  -0.9088780   0.2599563
0.0010123    -0.9996981   0.0001554   0.0000022  -0.0000117   0.0000121  -0.0000287  -0.9094622   0.2603417
0.0010247    -0.9984502  -0.0001129   0.0000548  -0.0000230  -0.0000157   0.0000266  -0.9095897   0.2591301
0.0010373    -0.9994944  -0.0000907   0.0000417  -0.0000303  -0.0000085  -0.0000056  -0.9097936   0.2598523
0.0010501    -0.9987386   0.0005007   0.0000072   0.0000104  -0.0000136  -0.0000118  -0.9091506   0.2596915
0.0010630    -1.0002203  -0.0001586   0.0000001  -0.0000157   0.0000229   0.0000125  -0.9105505   0.2595735
0.0010761    -0.9990264  -0.0006732   0.0000362  -0.0000319  -0.0000149   0.0000095  -0.9107037   0.2587981
0.0010893    -0.9999873   0.0002415  -0.0000042   0.0000291   0.0000198  -0.0000037  -0.9110865   0.2599258
0.0011027    -0.9990728  -0.0000198   0.0000257  -0.0000192   0.0000030  -0.0000187  -0.9110775   0.2587990
0.0011162    -0.9995483  -0.0004710   0.0000388  -0.0000420  -0.0000056   0.0000030  -0.9120701   0.2584382
0.0011300    -0.9991199   0.0000171   0.0000487  -0.0000236  -0.0000259  -0.0000173  -0.9112969   0.2587179
0.0011439    -0.9994002   0.0001781  -0.0000049  -0.0000509   0.0000190  -0.0000020  -0.9120502   0.2590832
0.0011579    -0.9987940  -0.0005325   0.0000286   0.0000016  -0.0000080   0.0000011  -0.9120575   0.2578675
0.0011721    -0.9992558   0.0000144   0.0000035   0.0000185   0.0000114  -0.0000118  -0.9124015   0.2585311
0.0011866    -0.9984464   0.0003057   0.0000325   0.0000149  -0.0000454  -0.0000152  -0.9122040   0.2582435
0.0012011    -0.9989937  -0.0002005   0.0000062   0.0000303  -0.0000151   0.0000003  -0.9128818   0.2582597
0.0012159    -0.9999282  -0.0001265  -0.0000005  -0.0000021   0.0000208   0.0000031  -0.9136437   0.2584854
0.0012309    -0.9990143  -0.0000988   0.0000063  -0.0000001   0.0000094   0.0000109  -0.9137401   0.2577885
0.0012460    -0.9990366   0.0004136   0.0000201   0.0000170  -0.0000062  -0.0000060  -0.9134154   0.2581256
0.0012613    -0.9997643  -0.0003909   0.0000148  -0.0000161   0.0000269  -0.0000021  -0.9147353   0.2579363
0.0012768    -0.9986627  -0.0000769   0.0000339   0.0000307  -0.0000207   0.0000053  -0.9141770   0.2576231
0.0012925    -0.9997663  -0.0003360  -0.0000262  -0.0000281   0.0000140   0.0000076  -0.9151106   0.2580592
0.0013084    -0.9990383  -0.0001909   0.0000399   0.0000212  -0.0000049   0.0000097  -0.9149123   0.2575421
0.0013245    -0.9998953   0.0000654   0.0000090   0.0000239   0.0000181  -0.0000016  -0.9155488   0.2580240
0.0013408    -0.9991126  -0.0001139   0.0000223   0.0000226   0.0000024  -0.0000096  -0.9153819   0.2572752
0.0013572    -0.9999272  -0.0000715   0.0000246  -0.0000296   0.0000187   0.0000077  -0.9163567   0.2576933
0.0013739    -0.9992477  -0.0000711   0.0000173  -0.0000040   0.0000133   0.0000164  -0.9162218   0.2575399
0.0013908    -0.9994979  -0.0004055   0.0000014  -0.0000136   0.0000136   0.0000045  -0.9169530   0.2576089
0.0014079    -0.9992645   0.0002933   0.0000032   0.0000176  -0.0000214  -0.0000005  -0.9167295   0.2573538
0.0014252    -0.9991765  -0.0006046   0.0000208  -0.0000012   0.0000186   0.0000247  -0.9176592   0.2572531
0.0014427    -0.9993485   0.0001131   0.0000146   0.0000066  -0.0000097  -0.0000156  -0.9173659   0.2571991
0.0014605    -0.9995769  -0.0003817  -0.0000166  -0.0000241   0.0000009  -0.0000180  -0.9180822   0.2573986
0.0014784    -0.9990068   0.0000259   0.0000133   0.0000032  -0.0000049   0.0000082  -0.9178605   0.2569127
0.0014966    -0.9993395   0.0006400   0.0000226   0.0000242   0.0000002  -0.0000287  -0.9186111   0.2574162
0.0015150    -0.9995660  -0.0002057   0.0000001  -0.0000351   0.0000270   0.0000241  -0.9189818   0.2573396
0.0015336    -0.9990121  -0.0001160  -0.0000019  -0.0000304  -0.0000074  -0.0000028  -0.9190102   0.2570696
0.0015525    -0.9992068   0.0003922   0.0000259   0.0000292  -0.0000076  -0.0000167  -0.9190290   0.2573496
0.0015716    -0.9991546  -0.0000722  -0.0000055   0.0000017   0.0000126  -0.0000211  -0.9196280   0.2571869
0.0015909    -0.9995130   0.0003592   0.0000175   0.0000050   0.0000100  -0.0000345  -0.9199847   0.2575694
0.0016104    -0.9990911  -0.0000895  -0.0000230  -0.0000193  -0.0000243   0.0000094  -0.9203199   0.2569523
0.0016302    -0.9995538   0.0002617   0.0000362   0.0000077   0.0000135  -0.0000063  -0.9203642   0.2573044
0.0016503    -0.9994947  -0.0001968  -0.0000295   0.0000097   0.0000088  -0.0000100  -0.9213751   0.2574882
0.0016706    -0.9991916   0.0000747   0.0000242   0.0000096   0.0000033  -0.0000045  -0.9211996   0.2574022
0.0016911    -0.9989827  -0.0005297   0.0000186   0.0000706  -0.0000210  -0.0000159  -0.9218180   0.2570958
0.0017119    -0.9990809   0.0001609  -0.0000026  -0.0000005  -0.0000161  -0.0000298  -0.9218589   0.2574357
0.0017329    -0.9989089  -0.0005879   0.0000112   0.0000074  -0.0000031   0.0000134  -0.9220861   0.2573962
0.0017542    -0.9992055  -0.0006901  -0.0000080  -0.0000218   0.0000071   0.0000175  -0.9225671   0.2571541
0.0017758    -0.9994048  -0.0001024  -0.0000140  -0.0000183  -0.0000018  -0.0000029  -0.9227763   0.2574617
0.0017976    -0.9991817  -0.0002651   0.0000344  -0.0000209   0.0000059  -0.0000063  -0.9233452   0.2574793
0.0018197    -0.9989201  -0.0001435   0.0000485   0.0000079  -0.0000150  -0.0000040  -0.9231438   0.2573279
0.0018421    -0.9992141  -0.0000244   0.0000145  -0.0000047   0.0000151  -0.0000070  -0.9238326   0.2577191
0.0018648    -0.9991905   0.0000327   0.0000208  -0.0000246  -0.0000028   0.0000040  -0.9239003   0.2574820
0.0018877    -0.9991990   0.0002477   0.0000024  -0.0000017  -0.0000105  -0.0000158  -0.9239804   0.2577066
0.0019109    -0.9992369  -0.0000578   0.0000185   0.0000264  -0.0000036   0.0000066  -0.9248491   0.2579357
0.0019344    -0.9990275  -0.0001953  -0.0000146   0.0000023  -0.0000050  -0.0000064  -0.9247153   0.2577397
0.0019582    -0.9988400   0.0000721   0.0000243  -0.0000071   0.0000018  -0.0000051  -0.9248236   0.2579512
0.0019822    -0.9994287  -0.0001066   0.0000052  -0.0000269   0.0000061   0.0000007  -0.9256894   0.2580907
0.0020066    -0.9990697   0.0001576   0.0000103  -0.0000130   0.0000030   0.0000010  -0.9257598   0.2582423
0.0020313    -0.9992036  -0.0003512   0.0000238  -0.0000021   0.0000072   0.0000076  -0.9261621   0.2581689
0.0020562    -0.9990931  -0.0003427   0.0000114  -0.0000010  -0.0000161  -0.0000018  -0.9265384   0.2580705
0.0020815    -0.9990980   0.0001744   0.0000003  -0.0000045   0.0000003  -0.0000015  -0.9265952   0.2584793
0.0021071    -0.9991231  -0.0001761   0.0000228   0.0000004  -0.0000104  -0.0000033  -0.9270215   0.2585237
0.0021330    -0.9993390   0.0001520   0.0000035  -0.0000093  -0.0000010  -0.0000229  -0.9272019   0.2587586
0.0021592    -0.9993177   0.0001700  -0.0000040  -0.0000186  -0.0000025  -0.0000190  -0.9277383   0.2588852
0.0021858    -0.9992432  -0.0003420   0.0000157   0.0000009  -0.0000026  -0.0000044  -0.9279115   0.2586740
0.0022126    -0.9992002   0.0001025   0.0000001   0.0000292  -0.0000054  -0.0000144  -0.9280733   0.2590422
0.0022398    -0.9992516   0.0000211  -0.0000134  -0.0000037  -0.0000122   0.0000062  -0.9283379   0.2590142
0.0022674    -0.9996662   0.0001152   0.0000221  -0.0000002   0.0000047  -0.0000181  -0.9287816   0.2593020
0.0022953    -0.9994385   0.0001311   0.0000037  -0.0000037   0.0000060  -0.0000025  -0.9290308   0.2594769
0.0023235    -0.9991475  -0.0004119  -0.0000020  -0.0000109  -0.0000061  -0.0000002  -0.9294341   0.2594680
0.0023520    -0.9990899   0.0000833   0.0000197  -0.0000228  -0.0000078  -0.0000054  -0.9292532   0.2594361
0.0023809    -0.9992524  -0.0001706  -0.0000220   0.0000013  -0.0000079   0.0000077  -0.9299422   0.2596373
0.0024102    -0.9992260  -0.0001091   0.0000181   0.0000113   0.0000131   0.0000064  -0.9298942   0.2598229
0.0024398    -0.9991869  -0.0001676   0.0000241  -0.0000114   0.0000033   0.0000032  -0.9303333   0.2599209
0.0024698    -0.9991260  -0.0000597  -0.0000024  -0.0000086   0.0000079  -0.0000170  -0.9305707   0.2602177
0.0025002    -0.9991461   0.0001409   0.0000263  -0.0000015  -0.0000013  -0.0000042  -0.9307198   0.2603729
0.0025309    -0.9990576   0.0001963   0.0000193  -0.0000018  -0.0000087  -0.0000112  -0.9309336   0.2606611
0.0025621    -0.9993727   0.0000048   0.0000238   0.0000024   0.0000070  -0.0000087  -0.9313972   0.2606534
0.0025935    -0.9993840  -0.0002858   0.0000265  -0.0000017  -0.0000057  -0.0000035  -0.9316742   0.2605261
0.0026254    -0.9993589  -0.0001457   0.0000144  -0.0000187  -0.0000042  -0.0000026  -0.9317934   0.2605545
0.0026577    -0.9990028   0.0000007   0.0000166   0.0000038  -0.0000107  -0.0000105  -0.9319015   0.2609742
0.0026904    -0.9991844   0.0000971   0.0000085  -0.0000016  -0.0000128  -0.0000062  -0.9320964   0.2613407
0.0027235    -0.9993617  -0.0002780  -0.0000143  -0.0000015  -0.0000013  -0.0000137  -0.9327563   0.2611832
0.0027569    -0.9990104  -0.0001022   0.0000294   0.0000030  -0.0000088  -0.0000033  -0.9327095   0.2612955
0.0027908    -0.9991719   0.0000521   0.0000163  -0.0000124   0.0000059  -0.0000083  -0.9327881   0.2617246
0.0028251    -0.9994090  -0.0001887   0.0000237   0.0000083   0.0000069   0.0000018  -0.9332618   0.2618815
0.0028599    -0.9994179  -0.0003049   0.0000023  -0.0000090  -0.0000022   0.0000010  -0.9334185   0.2618729
0.0028950    -0.9990802  -0.0001651   0.0000105  -0.0000050   0.0000031   0.0000025  -0.9336124   0.2618484
0.0029306    -0.9991527  -0.0002028   0.0000157   0.0000110  -0.0000042  -0.0000190  -0.9337557   0.2620064
0.0029666    -0.9992068  -0.0000937   0.0000146  -0.0000102   0.0000131  -0.0000065  -0.9339990   0.2622600
0.0030031    -0.9993220  -0.0001683   0.0000176  -0.0000128  -0.0000049   0.0000133  -0.9341076   0.2625548
0.0030400    -0.9993285  -0.0001362   0.0000038  -0.0000008  -0.0000027  -0.0000165  -0.9343379   0.2628196
0.0030774    -0.9990672  -0.0000148  -0.0000141   0.0000009  -0.0000097  -0.0000045  -0.9345217   0.2629743
0.0031152    -0.9992344  -0.0003762   0.0000154  -0.0000202   0.0000102   0.0000018  -0.9348862   0.2629809
0.0031535    -0.9991571  -0.0000547   0.0000048  -0.0000117  -0.0000035  -0.0000120  -0.9349260   0.2633534
0.0031923    -0.9993771  -0.0001784   0.0000120   0.0000031   0.0000126  -0.0000124  -0.9353236   0.2634966
0.0032315    -0.9991977  -0.0002567   0.0000045   0.0000098  -0.0000004  -0.0000064  -0.9355121   0.2636469
0.0032713    -0.9993431  -0.0002983   0.0000167  -0.0000017   0.0000023  -0.0000089  -0.9356770   0.2636865
0.0033115    -0.9993955  -0.0002095  -0.0000043   0.0000104   0.0000084  -0.0000006  -0.9357024   0.2639999
0.0033522    -0.9992598   0.0001282   0.0000143  -0.0000287  -0.0000109  -0.0000057  -0.9360229   0.2644064
0.0033934    -0.9994495  -0.0002407  -0.0000102  -0.0000180   0.0000014   0.0000021  -0.9362628   0.2642656
0.0034351    -0.9992202  -0.0000370  -0.0000167   0.0000211  -0.0000013   0.0000084  -0.9364516   0.2645556
0.0034773    -0.9991962   0.0001663  -0.0000170  -0.0000003   0.0000084  -0.0000086  -0.9364323   0.2647053
0.0035201    -0.9991963  -0.0001877  -0.0000039   0.0000018   0.0000056  -0.0000029  -0.9367876   0.2648143
0.0035634    -0.9992249  -0.0001234  -0.0000056   0.0000310   0.0000070  -0.0000048  -0.9368663   0.2649771
0.0036072    -0.9991851  -0.0001814   0.0000134  -0.0000036  -0.0000008  -0.0000046  -0.9369396   0.2652301
0.0036515    -0.9991899  -0.0000393   0.0000025   0.0000218  -0.0000051   0.0000044  -0.9372120   0.2655556
0.0036964    -0.9991611   0.0001909   0.0000118   0.0000007  -0.0000114   0.0000007  -0.9371598   0.2658447
0.0037418    -0.9993387  -0.0000502  -0.0000038   0.0000092   0.0000014  -0.0000077  -0.9373776   0.2659021
0.0037878    -0.9992856  -0.0001470   0.0000037  -0.0000110   0.0000009  -0.0000191  -0.9374859   0.2660117
0.0038344    -0.9992914  -0.0000519   0.0000033   0.0000151   0.0000059  -0.0000063  -0.9376847   0.2663411
0.0038815    -0.9991497  -0.0001665   0.0000008  -0.0000007  -0.0000009   0.0000041  -0.9378065   0.2664228
0.0039293    -0.9993283  -0.0001219   0.0000063  -0.0000017   0.0000049  -0.0000071  -0.9379777   0.2663981
0.0039776    -0.9993911  -0.0001593   0.0000075   0.0000218  -0.0000018  -0.0000120  -0.9381920   0.2668196
0.0040265    -0.9992533  -0.0002940   0.0000078   0.0000024   0.0000000   0.0000014  -0.9383100   0.2667670
0.0040759    -0.9992807   0.0000577  -0.0000050  -0.0000031  -0.0000007   0.0000008  -0.9384242   0.2671272
0.0041261    -0.9993155  -0.0003563   0.0000041  -0.0000149   0.0000015  -0.0000048  -0.9385339   0.2672093
0.0041768    -0.9992874  -0.0001254   0.0000069   0.0000012  -0.0000009   0.0000009  -0.9387328   0.2675105
0.0042281    -0.9993518  -0.0001075   0.0000094  -0.0000093   0.0000064  -0.0000054  -0.9388509   0.2677209
0.0042801    -0.9994163  -0.0000712  -0.0000002  -0.0000184   0.0000041  -0.0000002  -0.9389324   0.2679158
0.0043327    -0.9994829  -0.0000798   0.0000048  -0.0000138  -0.0000035  -0.0000042  -0.9390299   0.2683019
0.0043860    -0.9995292  -0.0000672   0.0000165   0.0000002  -0.0000025   0.0000091  -0.9392749   0.2683077
0.0044399    -0.9994794  -0.0002267   0.0000097  -0.0000141   0.0000007  -0.0000043  -0.9393379   0.2684832
0.0044945    -0.9992875  -0.0001738   0.0000025  -0.0000113  -0.0000065  -0.0000034  -0.9394909   0.2686169
0.0045497    -0.9993712  -0.0000624   0.0000015  -0.0000021  -0.0000109  -0.0000034  -0.9394766   0.2688047
0.0046057    -0.9994701  -0.0000348   0.0000027   0.0000113  -0.0000053   0.0000049  -0.9395575   0.2689400
0.0046623    -0.9992905   0.0000018   0.0000195  -0.0000138   0.0000035  -0.0000071  -0.9395089   0.2692334
0.0047196    -0.9993207   0.0000252  -0.0000204   0.0000206  -0.0000083  -0.0000009  -0.9398293   0.2694102
0.0047776    -0.9993030  -0.0001444   0.0000006  -0.0000056   0.0000065  -0.0000104  -0.9398891   0.2695281
0.0048363    -0.9994211  -0.0000282   0.0000003   0.0000220   0.0000003  -0.0000094  -0.9399332   0.2697804
0.0048958    -0.9993102  -0.0000043   0.0000048   0.0000119  -0.0000047  -0.0000137  -0.9400721   0.2700554
0.0049560    -0.9994064  -0.0000395   0.0000087  -0.0000079  -0.0000099  -0.0000067  -0.9402632   0.2701632
0.0050169    -0.9993272  -0.0001138   0.0000137  -0.0000037  -0.0000178   0.0000051  -0.9403351   0.2701639
0.0050786    -0.9994015  -0.0000582   0.0000014   0.0000018   0.0000062   0.0000011  -0.9403187   0.2703988
0.0051410    -0.9993719   0.0000349  -0.0000084  -0.0000228  -0.0000039  -0.0000105  -0.9404152   0.2706001
0.0052042    -0.9993559  -0.0002287   0.0000077  -0.0000270   0.0000035  -0.0000032  -0.9405021   0.2708001
0.0052682    -0.9994286  -0.0001168   0.0000162   0.0000144   0.0000060  -0.0000054  -0.9406327   0.2710467
0.0053330    -0.9994053  -0.0002299   0.0000062  -0.0000092  -0.0000089  -0.0000088  -0.9406896   0.2711812
0.0053985    -0.9994232  -0.0000370  -0.0000150  -0.0000032  -0.0000131  -0.0000073  -0.9407775   0.2713440
0.0054649    -0.9993823  -0.0001061   0.0000280  -0.0000008   0.0000164  -0.0000018  -0.9409076   0.2714998
0.0055321    -0.9994593  -0.0001143   0.0000243  -0.0000109  -0.0000015  -0.0000112  -0.9409565   0.2716945
0.0056001    -0.9994223  -0.0002203   0.0000069  -0.0000025   0.0000146   0.0000031  -0.9411138   0.2719386
0.0056689    -0.9993783  -0.0000972  -0.0000083  -0.0000023  -0.0000082  -0.0000200  -0.9411273   0.2720064
0.0057386    -0.9994644  -0.0001043   0.0000046  -0.0000147   0.0000036  -0.0000155  -0.9411893   0.2721200
0.0058091    -0.9992354  -0.0001099  -0.0000031   0.0000082   0.0000022   0.0000047  -0.9411386   0.2723728
0.0058806    -0.9992496  -0.0001143   0.0000030   0.0000016  -0.0000013  -0.0000061  -0.9411190   0.2724188
0.0059529    -0.9993352  -0.0002378   0.0000149   0.0000122  -0.0000054  -0.0000104  -0.9412062   0.2727041
0.0060260    -0.9993380  -0.0001319   0.0000175  -0.0000060  -0.0000053  -0.0000183  -0.9412507   0.2727098
0.0061001    -0.9993721  -0.0001259   0.0000065  -0.0000107  -0.0000142  -0.0000055  -0.9413455   0.2729546
0.0061751    -0.9993396  -0.0001341   0.0000154   0.0000226   0.0000003   0.0000049  -0.9413314   0.2731470
0.0062510    -0.9993361  -0.0001510   0.0000044  -0.0000081  -0.0000030  -0.0000002  -0.9415101   0.2732916
0.0063279    -0.9992114  -0.0001261   0.0000157  -0.0000083  -0.0000043  -0.0000012  -0.9416430   0.2734560
0.0064056    -0.9995082  -0.0002051   0.0000270  -0.0000122   0.0000044  -0.0000061  -0.9416371   0.2736081
0.0064844    -0.9992369  -0.0001267   0.0000057   0.0000154   0.0000000  -0.0000076  -0.9416977   0.2736701
0.0065641    -0.9992417  -0.0001187   0.0000232  -0.0000091  -0.0000063  -0.0000193  -0.9415242   0.2737903
0.0066448    -0.9992115  -0.0000852  -0.0000060  -0.0000116   0.0000005  -0.0000093  -0.9416728   0.2739591
0.0067265    -0.9992321  -0.0002282   0.0000111  -0.0000034  -0.0000082   0.0000041  -0.9417777   0.2741424
0.0068092    -0.9994164  -0.0001499   0.0000059  -0.0000255   0.0000036   0.0000010  -0.9418365   0.2743665
0.0068929    -0.9992863  -0.0001915   0.0000023   0.0000025   0.0000128  -0.0000086  -0.9418909   0.2744498
0.0069776    -0.9993328  -0.0000305   0.0000114  -0.0000088   0.0000024  -0.0000116  -0.9420478   0.2746782
0.0070634    -0.9993714  -0.0001449   0.0000004  -0.0000163   0.0000023  -0.0000052  -0.9419420   0.2748400
0.0071502    -0.9994425  -0.0000879   0.0000011  -0.0000075   0.0000031  -0.0000154  -0.9419125   0.2748555
0.0072381    -0.9992977  -0.0001765   0.0000081  -0.0000066  -0.0000033  -0.0000122  -0.9418756   0.2750367
0.0073271    -0.9993163  -0.0000609   0.0000063  -0.0000032  -0.0000089  -0.0000030  -0.9420109   0.2752536
0.0074172    -0.9992129  -0.0000897   0.0000210   0.0000075   0.0000121  -0.0000083  -0.9421284   0.2753567
0.0075084    -0.9993322  -0.0002833   0.0000011   0.0000049   0.0000064  -0.0000108  -0.9421577   0.2755385
0.0076007    -0.9993963  -0.0001409   0.0000014  -0.0000077   0.0000004  -0.0000116  -0.9421461   0.2756577
0.0076941    -0.9994015  -0.0000067   0.0000187  -0.0000120  -0.0000021   0.0000084  -0.9421786   0.2759126
0.0077887    -0.9994237  -0.0001723   0.0000122   0.0000063   0.0000107  -0.0000020  -0.9421820   0.2759312
0.0078844    -0.9992817  -0.0003209   0.0000178  -0.0000100  -0.0000035  -0.0000018  -0.9422685   0.2760016
0.0079814    -0.9994081  -0.0000254   0.0000165   0.0000017   0.0000006  -0.0000059  -0.9422404   0.2762762
0.0080795    -0.9994282  -0.0002057   0.0000141  -0.0000087   0.0000058  -0.0000034  -0.9423989   0.2763341
0.0081788    -0.9993334  -0.0001332   0.0000102  -0.0000017  -0.0000045   0.0000043  -0.9422137   0.2765218
0.0082793    -0.9992146  -0.0000801   0.0000093  -0.0000051  -0.0000005  -0.0000093  -0.9423942   0.2765888
0.0083811    -0.9994182  -0.0001567   0.0000059   0.0000087  -0.0000037   0.0000070  -0.9423573   0.2767983
0.0084842    -0.9994300  -0.0001409   0.0000031   0.0000035  -0.0000016   0.0000005  -0.9423313   0.2768930
0.0085885    -0.9994931  -0.0001005   0.0000096   0.0000003   0.0000015  -0.0000070  -0.9424398   0.2769427
0.0086940    -0.9992706  -0.0001450  -0.0000029   0.0000056   0.0000127  -0.0000141  -0.9423699   0.2771411
0.0088009    -0.9993544  -0.0002203  -0.0000078   0.0000083   0.0000002   0.0000062  -0.9423860   0.2772914
0.0089091    -0.9991861  -0.0002285   0.0000139   0.0000089   0.0000024  -0.0000112  -0.9423989   0.2774866
0.0090186    -0.9993367  -0.0001372   0.0000026  -0.0000056  -0.0000090  -0.0000046  -0.9424998   0.2774735
0.0091295    -0.9993486  -0.0001135   0.0000086   0.0000072   0.0000055  -0.0000005  -0.9425199   0.2777457
0.0092417    -0.9993465   0.0000105   0.0000084   0.0000118   0.0000093  -0.0000054  -0.9424069   0.2777833
0.0093553    -0.9992477  -0.0000940   0.0000008   0.0000181   0.0000041  -0.0000095  -0.9424297   0.2779104
0.0094703    -0.9994525  -0.0000690   0.0000034  -0.0000054   0.0000006   0.0000108  -0.9425230   0.2779699
0.0095868    -0.9992928  -0.0000921   0.0000113   0.0000171  -0.0000033  -0.0000074  -0.9424579   0.2781670
0.0097046    -0.9993366  -0.0001520   0.0000142   0.0000087  -0.0000017   0.0000127  -0.9425030   0.2781965
0.0098239    -0.9994150  -0.0000868  -0.0000192  -0.0000086  -0.0000008   0.0000001  -0.9425577   0.2783250
0.0099447    -0.9993348  -0.0000986  -0.0000014  -0.0000090  -0.0000004  -0.0000051  -0.9425478   0.2783615
0.0100669    -0.9994013  -0.0001875   0.0000056   0.0000016  -0.0000093  -0.0000186  -0.9425242   0.2785836
0.0101907    -0.9993472  -0.0000323  -0.0000031  -0.0000053  -0.0000033  -0.0000092  -0.9425358   0.2786114
0.0103160    -0.9992828  -0.0000438  -0.0000082   0.0000145   0.0000116  -0.0000083  -0.9425019   0.2787091
0.0104428    -0.9994276  -0.0001061   0.0000018   0.0000000  -0.0000035   0.0000003  -0.9425838   0.2789201
0.0105712    -0.9993300  -0.0000731   0.0000016   0.0000088   0.0000088   0.0000015  -0.9425830   0.2789347
0.0107011    -0.9993816  -0.0000714  -0.0000167   0.0000029   0.0000044  -0.0000051  -0.9426090   0.2791118
0.0108327    -0.9993871  -0.0000855   0.0000068   0.0000066   0.0000012  -0.0000062  -0.9425325   0.2791449
0.0109658    -0.9992481  -0.0001842   0.0000077  -0.0000099  -0.0000070  -0.0000045  -0.9426464   0.2792784
0.0111006    -0.9992723  -0.0001310   0.0000073  -0.0000092  -0.0000041  -0.0000068  -0.9426136   0.2795289
0.0112371    -0.9993211  -0.0000265  -0.0000115  -0.0000022  -0.0000054   0.0000003  -0.9426557   0.2794251
0.0113752    -0.9992991  -0.0001221   0.0000085   0.0000133  -0.0000107   0.0000007  -0.9425597   0.2795968
0.0115151    -0.9993393   0.0001441  -0.0000085   0.0000101   0.0000003  -0.0000004  -0.9427017   0.2798539
0.0116566    -0.9993389  -0.0002251   0.0000037  -0.0000053  -0.0000025  -0.0000093  -0.9425976   0.2797545
0.0117999    -0.9994282  -0.0000575   0.0000027  -0.0000065  -0.0000078  -0.0000039  -0.9426702   0.2800117
0.0119450    -0.9995384  -0.0013952  -0.0000062   0.0000063  -0.0000012   0.0000006  -0.9434624   0.2782170
0.0120918    -0.9993026   0.0000331  -0.0000083  -0.0000170   0.0000006  -0.0000104  -0.9426943   0.2801527
0.0122405    -0.9993802  -0.0001720   0.0000011   0.0000013  -0.0000107   0.0000039  -0.9427471   0.2801706
0.0123910    -0.9992700  -0.0001112   0.0000124  -0.0000204  -0.0000042  -0.0000100  -0.9426088   0.2804391
0.0125433    -0.9994187  -0.0001557   0.0000035  -0.0000031  -0.0000016   0.0000043  -0.9427097   0.2803775
0.0126975    -0.9993623  -0.0000509   0.0000023  -0.0000155  -0.0000036  -0.0000023  -0.9425424   0.2804387
0.0128536    -0.9993097  -0.0000430  -0.0000060   0.0000158   0.0000036  -0.0000033  -0.9426407   0.2806492
0.0130116    -0.9993342  -0.0002589  -0.0000051  -0.0000003   0.0000031   0.0000037  -0.9426215   0.2806846
0.0131716    -0.9993113  -0.0002685   0.0000081  -0.0000001  -0.0000045   0.0000010  -0.9426642   0.2806807
0.0133335    -0.9992996   0.0000552   0.0000058   0.0000080  -0.0000017  -0.0000095  -0.9425145   0.2809397
0.0134974    -0.9994678  -0.0000936  -0.0000060   0.0000159   0.0000014  -0.0000020  -0.9425677   0.2809175
0.0136633    -0.9993519  -0.0001104  -0.0000016  -0.0000040   0.0000013  -0.0000062  -0.9426221   0.2811150
0.0138313    -0.9994979  -0.0000659   0.0000113   0.0000035  -0.0000014  -0.0000050  -0.9425397   0.2811490
0.0140013    -0.9993566  -0.0001708   0.0000153   0.0000040  -0.0000043  -0.0000027  -0.9426175   0.2812854
0.0141734    -0.9992599  -0.0000028  -0.0000023   0.0000056  -0.0000133  -0.0000052  -0.9426482   0.2814176
0.0143477    -0.9994330  -0.0000296   0.0000094   0.0000137   0.0000019  -0.0000050  -0.9426134   0.2813920
0.0145240    -0.9994644  -0.0001806   0.0000005  -0.0000059   0.0000018   0.0000028  -0.9426510   0.2814696
0.0147026    -0.9993100  -0.0000559  -0.0000057   0.0000072   0.0000098  -0.0000082  -0.9425887   0.2815431
0.0148833    -0.9993000  -0.0000339   0.0000090  -0.0000035  -0.0000038  -0.0000085  -0.9425701   0.2817147
0.0150663    -0.9993630  -0.0000566   0.0000032  -0.0000048   0.0000025  -0.0000094  -0.9425500   0.2817628
0.0152515    -0.9992445  -0.0001051  -0.0000057   0.0000218  -0.0000064  -0.0000097  -0.9425577   0.2819218
0.0154390    -0.9994290  -0.0001046   0.0000052   0.0000178  -0.0000151   0.0000062  -0.9425825   0.2819117
0.0156288    -0.9993533  -0.0000414  -0.0000018  -0.0000069  -0.0000092  -0.0000074  -0.9426634   0.2819290
0.0158209    -0.9993669  -0.0001285  -0.0000024   0.0000010  -0.0000031  -0.0000088  -0.9425187   0.2819562
0.0160154    -0.9993565  -0.0002158  -0.0000082   0.0000060   0.0000012  -0.0000067  -0.9425096   0.2821765
0.0162123    -0.9993750  -0.0000329  -0.0000005  -0.0000019  -0.0000041  -0.0000005  -0.9424733   0.2823458
0.0164116    -0.9992500  -0.0000897   0.0000042   0.0000173   0.0000020  -0.0000133  -0.9425390   0.2823374
0.0166134    -0.9993106  -0.0000834   0.0000037   0.0000054   0.0000025   0.0000024  -0.9424725   0.2825105
0.0168176    -0.9993185  -0.0000311   0.0000142   0.0000165   0.0000023  -0.0000011  -0.9425681   0.2824212
0.0170243    -0.9993079  -0.0000122   0.0000155   0.0000038  -0.0000044  -0.0000021  -0.9425075   0.2825839
0.0172336    -0.9994006  -0.0000219   0.0000000  -0.0000020   0.0000039  -0.0000065  -0.9424701   0.2825693
0.0174455    -0.9992871  -0.0000832   0.0000042   0.0000164  -0.0000069   0.0000054  -0.9424511   0.2826684
0.0176599    -0.9994095  -0.0001522   0.0000066   0.0000097  -0.0000030  -0.0000096  -0.9424459   0.2827776
0.0178770    -0.9994644  -0.0001231  -0.0000112   0.0000025  -0.0000056   0.0000042  -0.9424224   0.2829245
0.0180968    -0.9993755  -0.0001176   0.0000155   0.0000120  -0.0000086  -0.0000035  -0.9424302   0.2828374
0.0183193    -0.9993601  -0.0002213  -0.0000009   0.0000032   0.0000087  -0.0000044  -0.9424509   0.2830002
0.0185445    -0.9993309  -0.0001343   0.0000061   0.0000010   0.0000103  -0.0000060  -0.9424455   0.2830423
0.0187724    -0.9993804  -0.0000967   0.0000282   0.0000196   0.0000036   0.0000011  -0.9423371   0.2830841
0.0190032    -0.9992306  -0.0000703  -0.0000029  -0.0000092  -0.0000030  -0.0000051  -0.9424280   0.2831313
0.0192368    -0.9993344  -0.0001117   0.0000013  -0.0000010   0.0000020   0.0000008  -0.9425254   0.2832695
0.0194733    -0.9994894  -0.0000799   0.0000085   0.0000092   0.0000098  -0.0000044  -0.9424154   0.2833488
0.0197127    -0.9993457  -0.0000368  -0.0000035   0.0000003  -0.0000072  -0.0000149  -0.9423865   0.2834325
0.0199550    -0.9993745   0.0000252   0.0000182  -0.0000035  -0.0000085  -0.0000115  -0.9424142   0.2834576
0.0202003    -0.9993370   0.0000119   0.0000095  -0.0000005  -0.0000027  -0.0000121  -0.9424186   0.2834956
0.0204487    -0.9992762  -0.0001662  -0.0000096   0.0000049  -0.0000126  -0.0000027  -0.9423482   0.2836018
0.0207001    -0.9993127   0.0000028   0.0000049   0.0000020  -0.0000050  -0.0000153  -0.9422820   0.2836091
0.0209545    -0.9995053  -0.0000116   0.0000195   0.0000027  -0.0000042  -0.0000062  -0.9422991   0.2836966
0.0212121    -0.9993893  -0.0001331  -0.0000048   0.0000094   0.0000013   0.0000014  -0.9422630   0.2838958
0.0214729    -0.9993172   0.0000194  -0.0000057  -0.0000039  -0.0000082  -0.0000137  -0.9423046   0.2839225
0.0217369    -0.9993225  -0.0001047   0.0000102  -0.0000162   0.0000177  -0.0000012  -0.9422967   0.2839207
0.0220041    -0.9994573  -0.0000908   0.0000018   0.0000052  -0.0000034  -0.0000052  -0.9423316   0.2839710
0.0222746    -0.9993524  -0.0001053   0.0000165  -0.0000087   0.0000044  -0.0000094  -0.9421834   0.2840686
0.0225484    -0.9993501  -0.0000716   0.0000190  -0.0000029  -0.0000069   0.0000029  -0.9421589   0.2840821
0.0228256    -0.9993547  -0.0000504   0.0000016   0.0000027  -0.0000015   0.0000000  -0.9422130   0.2841121
0.0231062    -0.9992680  -0.0000437   0.0000052   0.0000131  -0.0000071  -0.0000067  -0.9422103   0.2841453
0.0233902    -0.9993768  -0.0000882   0.0000024   0.0000108  -0.0000062   0.0000041  -0.9421501   0.2842650
0.0236778    -0.9994001  -0.0000438   0.0000124  -0.0000189   0.0000026  -0.0000065  -0.9421274   0.2843437
0.0239689    -0.9994663   0.0002140   0.0000011  -0.0000043  -0.0000034  -0.0000028  -0.9431943   0.2849166
0.0242635    -0.9993182  -0.0000932   0.0000038   0.0000079   0.0000020  -0.0000015  -0.9421554   0.2844378
0.0245618    -0.9993128  -0.0001091  -0.0000042   0.0000123  -0.0000175  -0.0000006  -0.9420997   0.2845678
0.0248637    -0.9993575  -0.0001487   0.0000246   0.0000029  -0.0000010  -0.0000011  -0.9421057   0.2846436
0.0251694    -0.9995114  -0.0000319   0.0000212   0.0000088  -0.0000045  -0.0000092  -0.9421237   0.2846718
0.0254788    -0.9993846  -0.0000818   0.0000018   0.0000155  -0.0000051  -0.0000060  -0.9420106   0.2847303
0.0257920    -0.9994432  -0.0001473   0.0000067  -0.0000006   0.0000011  -0.0000116  -0.9420984   0.2848583
0.0261091    -0.9994794  -0.0001960   0.0000048  -0.0000037   0.0000032  -0.0000093  -0.9419308   0.2848252
0.0264301    -0.9993821  -0.0000219  -0.0000029   0.0000052   0.0000051  -0.0000114  -0.9420806   0.2849199
0.0267550    -0.9993620  -0.0002181   0.0000027  -0.0000025  -0.0000017   0.0000036  -0.9419236   0.2849455
0.0270839    -0.9994702  -0.0000244   0.0000092   0.0000080  -0.0000150  -0.0000070  -0.9420152   0.2849370
0.0274168    -0.9993674  -0.0001065   0.0000148  -0.0000073  -0.0000071  -0.0000091  -0.9419723   0.2849874
0.0277539    -0.9994309  -0.0001603   0.0000089   0.0000144  -0.0000055  -0.0000124  -0.9418585   0.2850718
0.0280951    -0.9992943  -0.0001496   0.0000005   0.0000063  -0.0000084  -0.0000131  -0.9418695   0.2851680
0.0284404    -0.9994477  -0.0000587   0.0000011   0.0000102  -0.0000050  -0.0000027  -0.9418926   0.2852433
0.0287901    -0.9995064   0.0000242  -0.0000110  -0.0000053  -0.0000104  -0.0000071  -0.9419360   0.2851845
0.0291440    -0.9994346  -0.0000451  -0.0000122  -0.0000041   0.0000046  -0.0000088  -0.9418947   0.2853351
0.0295023    -0.9994464  -0.0002233  -0.0000128   0.0000136   0.0000158   0.0000033  -0.9418181   0.2853636
0.0298649    -0.9993838  -0.0000855   0.0000104   0.0000001   0.0000090  -0.0000008  -0.9418149   0.2853996
0.0302321    -0.9992538  -0.0002199  -0.0000057  -0.0000097   0.0000043  -0.0000058  -0.9417208   0.2854923
0.0306037    -0.9993274  -0.0000971   0.0000272   0.0000229  -0.0000045  -0.0000008  -0.9417143   0.2855678
0.0309799    -0.9993904  -0.0000892  -0.0000034   0.0000008  -0.0000045   0.0000013  -0.9418265   0.2855831
0.0313608    -0.9994202  -0.0000489   0.0000102   0.0000056   0.0000041  -0.0000197  -0.9417779   0.2856653
0.0317463    -0.9993166  -0.0001902  -0.0000042   0.0000066  -0.0000047   0.0000050  -0.9416988   0.2857371
0.0321366    -0.9994625  -0.0001341  -0.0000038   0.0000035   0.0000041  -0.0000031  -0.9417880   0.2857474
0.0325316    -0.9993705  -0.0000616   0.0000015   0.0000043   0.0000030  -0.0000159  -0.9416747   0.2858300
0.0329316    -0.9992694  -0.0001293  -0.0000142   0.0000064   0.0000071  -0.0000175  -0.9416642   0.2859160
0.0333364    -0.9993940  -0.0001484   0.0000057  -0.0000165   0.0000033  -0.0000037  -0.9416956   0.2859965
0.0337462    -0.9993645  -0.0001672  -0.0000016  -0.0000071   0.0000003   0.0000066  -0.9415459   0.2858363
0.0341610    -0.9994423  -0.0001253  -0.0000101  -0.0000044   0.0000031  -0.0000018  -0.9415890   0.2860550
0.0345810    -0.9995192  -0.0000874   0.0000002   0.0000092   0.0000025  -0.0000054  -0.9415994   0.2860402
0.0350061    -0.9994143  -0.0001854   0.0000126   0.0000118   0.0000041   0.0000028  -0.9416480   0.2861025
0.0354365    -0.9994459  -0.0000879   0.0000020   0.0000005   0.0000008  -0.0000113  -0.9415532   0.2862356
0.0358721    -0.9993564  -0.0002660   0.0000063   0.0000065   0.0000027   0.0000040  -0.9415274   0.2861881
0.0363131    -0.9993868  -0.0000551  -0.0000061  -0.0000093  -0.0000035  -0.0000022  -0.9415787   0.2862180
0.0367595    -0.9994437  -0.0000915   0.0000048   0.0000023  -0.0000029  -0.0000134  -0.9414277   0.2863980
0.0372114    -0.9993946  -0.0000451   0.0000182   0.0000037   0.0000021  -0.0000147  -0.9414660   0.2864445
0.0376688    -0.9993174  -0.0001135   0.0000061   0.0000081  -0.0000015  -0.0000004  -0.9414265   0.2864517
0.0381319    -0.9992116  -0.0002117   0.0000002   0.0000102  -0.0000009  -0.0000148  -0.9414994   0.2864761
0.0386006    -0.9994357  -0.0000827  -0.0000028   0.0000195  -0.0000001  -0.0000062  -0.9414738   0.2866139
0.0390752    -0.9993833  -0.0002239   0.0000038   0.0000167   0.0000058  -0.0000044  -0.9413666   0.2865701
0.0395555    -0.9994216  -0.0000920   0.0000155   0.0000048  -0.0000018  -0.0000008  -0.9413887   0.2866159
0.0400418    -0.9993585  -0.0000700   0.0000085   0.0000055  -0.0000059  -0.0000090  -0.9414225   0.2867169
0.0405340    -0.9993165  -0.0001885   0.0000104  -0.0000045   0.0000032  -0.0000083  -0.9413678   0.2866962
0.0410323    -0.9993559  -0.0001108   0.0000084   0.0000147   0.0000113  -0.0000063  -0.9412536   0.2867964
0.0415368    -0.9992891  -0.0001670   0.0000006  -0.0000028  -0.0000101   0.0000046  -0.9413906   0.2868516
0.0420474    -0.9993257  -0.0001448  -0.0000029   0.0000138  -0.0000032  -0.0000059  -0.9413047   0.2867908
0.0425643    -0.9993649  -0.0001138   0.0000100   0.0000009   0.0000041  -0.0000041  -0.9412317   0.2868349
0.0430875    -0.9993818  -0.0002439   0.0000050   0.0000051   0.0000041  -0.0000004  -0.9413051   0.2869693
0.0436172    -0.9993936  -0.0000854   0.0000044   0.0000007  -0.0000077  -0.0000074  -0.9412355   0.2870156
0.0441534    -0.9993726  -0.0002751  -0.0000065  -0.0000078   0.0000004  -0.0000073  -0.9411886   0.2871031
0.0446962    -0.9993595  -0.0000489  -0.0000054  -0.0000053  -0.0000045  -0.0000057  -0.9411981   0.2871376
0.0452457    -0.9993752  -0.0002321  -0.0000012   0.0000095   0.0000028  -0.0000074  -0.9411458   0.2871384
0.0458019    -0.9993642  -0.0001501  -0.0000072   0.0000031   0.0000017  -0.0000085  -0.9411226   0.2871739
0.0463649    -0.9992420  -0.0002227   0.0000091   0.0000071   0.0000098   0.0000013  -0.9410879   0.2872438
0.0469349    -0.9993616  -0.0002045   0.0000039   0.0000141  -0.0000076  -0.0000056  -0.9410962   0.2873527
0.0475119    -0.9994669  -0.0002131   0.0000067   0.0000008   0.0000017  -0.0000071  -0.9410704   0.2873649
0.0480960    -0.9993314  -0.0001553   0.0000157   0.0000222  -0.0000044  -0.0000019  -0.9409973   0.2874680
0.0486872    -0.9994368  -0.0001443   0.0000096   0.0000069  -0.0000129  -0.0000110  -0.9409651   0.2874875
0.0492857    -0.9993841  -0.0001501  -0.0000050   0.0000152  -0.0000002  -0.0000042  -0.9409461   0.2875644
0.0498916    -0.9993170  -0.0001262   0.0000063   0.0000054  -0.0000045  -0.0000018  -0.9408737   0.2876173
0.0505050    -0.9993713  -0.0001338   0.0000025  -0.0000016  -0.0000103  -0.0000166  -0.9409469   0.2876108
0.0511258    -0.9993561  -0.0002081   0.0000034   0.0000003  -0.0000017  -0.0000074  -0.9409396   0.2877756
0.0517543    -0.9994751  -0.0002222   0.0000017   0.0000131  -0.0000078  -0.0000062  -0.9409543   0.2877150
0.0523906    -0.9994655  -0.0001859  -0.0000085   0.0000087   0.0000057  -0.0000072  -0.9408638   0.2877875
0.0530346    -0.9994022  -0.0001173   0.0000015   0.0000036   0.0000032  -0.0000115  -0.9408033   0.2878187
0.0536866    -0.9993773  -0.0000389   0.0000059   0.0000011  -0.0000095  -0.0000167  -0.9408350   0.2878571
0.0543466    -0.9993673  -0.0001034   0.0000082   0.0000107  -0.0000052  -0.0000006  -0.9407425   0.2878680
0.0550146    -0.9993386  -0.0001285   0.0000150  -0.0000060  -0.0000055  -0.0000045  -0.9407686   0.2879192
0.0556910    -0.9993412  -0.0001622   0.0000023   0.0000066  -0.0000121  -0.0000102  -0.9406990   0.2879734
0.0563756    -0.9992789  -0.0002549  -0.0000022   0.0000139   0.0000018  -0.0000108  -0.9407175   0.2881117
0.0570686    -0.9993811  -0.0001512   0.0000134  -0.0000043   0.0000006  -0.0000166  -0.9406780   0.2881488
0.0577702    -0.9994282  -0.0001003   0.0000050  -0.0000021  -0.0000013  -0.0000054  -0.9406106   0.2882546
0.0584804    -0.9992965  -0.0002111   0.0000033   0.0000002   0.0000011  -0.0000075  -0.9405687   0.2881916
0.0591993    -0.9993675  -0.0001683   0.0000068   0.0000085   0.0000087   0.0000003  -0.9405477   0.2882490
0.0599270    -0.9993073  -0.0002879   0.0000092   0.0000045   0.0000084  -0.0000020  -0.9406534   0.2883762
0.0606637    -0.9993802  -0.0002015  -0.0000060   0.0000131  -0.0000008  -0.0000084  -0.9404613   0.2883609
0.0614095    -0.9994009  -0.0000362  -0.0000013   0.0000128  -0.0000130   0.0000009  -0.9405219   0.2883972
0.0621644    -0.9994034  -0.0001850  -0.0000090   0.0000018  -0.0000010  -0.0000074  -0.9405535   0.2885076
0.0629286    -0.9994279  -0.0001603  -0.0000070   0.0000055  -0.0000052  -0.0000012  -0.9404398   0.2884878
0.0637022    -0.9994066  -0.0001811  -0.0000012  -0.0000043   0.0000020  -0.0000046  -0.9403573   0.2886245
0.0644853    -0.9994319  -0.0001942   0.0000022   0.0000226  -0.0000014  -0.0000039  -0.9404157   0.2886764
0.0652780    -0.9993764  -0.0001778   0.0000078   0.0000067   0.0000039  -0.0000084  -0.9403190   0.2886986
0.0660805    -0.9994556  -0.0002013   0.0000124   0.0000018  -0.0000050  -0.0000067  -0.9402917   0.2888275
0.0668928    -0.9994474  -0.0001252  -0.0000025   0.0000093  -0.0000128  -0.0000122  -0.9402203   0.2888212
0.0677152    -0.9993995  -0.0002453  -0.0000060   0.0000017   0.0000000  -0.0000112  -0.9402024   0.2888230
0.0685476    -0.9993169  -0.0001004   0.0000089   0.0000124  -0.0000072  -0.0000117  -0.9401862   0.2888922
0.0693903    -0.9993384  -0.0002661   0.0000104   0.0000129  -0.0000004  -0.0000041  -0.9401122   0.2890172
0.0702433    -0.9993524  -0.0001925   0.0000025  -0.0000053  -0.0000029   0.0000041  -0.9401311   0.2890242
0.0711068    -0.9993404  -0.0001537   0.0000040  -0.0000002   0.0000037  -0.0000059  -0.9400895   0.2890692
0.0719810    -0.9993490  -0.0001313  -0.0000065  -0.0000032  -0.0000091   0.0000050  -0.9400307   0.2890734
0.0728659    -0.9993441  -0.0001989   0.0000003   0.0000171   0.0000052  -0.0000014  -0.9399982   0.2891921
0.0737616    -0.9994103  -0.0001095  -0.0000063   0.0000142  -0.0000012   0.0000004  -0.9399166   0.2892475
0.0746684    -0.9994658  -0.0002417   0.0000001   0.0000029   0.0000073  -0.0000086  -0.9399425   0.2892933
0.0755863    -0.9993884  -0.0003029   0.0000056   0.0000059  -0.0000051  -0.0000018  -0.9398644   0.2893296
0.0765155    -0.9994134  -0.0002490   0.0000183   0.0000056  -0.0000040  -0.0000102  -0.9398543   0.2893451
0.0774561    -0.9994607  -0.0002842   0.0000097   0.0000069   0.0000021  -0.0000132  -0.9397228   0.2894283
0.0784083    -0.9993338  -0.0002947   0.0000095  -0.0000075   0.0000033   0.0000006  -0.9396576   0.2894038
0.0793722    -0.9992275  -0.0002686   0.0000021   0.0000086  -0.0000042  -0.0000104  -0.9396161   0.2895158
0.0803479    -0.9995277  -0.0003098   0.0000066  -0.0000114   0.0000014  -0.0000099  -0.9396115   0.2895176
0.0813357    -0.9994818  -0.0003041   0.0000044  -0.0000012  -0.0000006  -0.0000007  -0.9394970   0.2895606
0.0823356    -0.9993249  -0.0003314  -0.0000001   0.0000008  -0.0000053  -0.0000076  -0.9394075   0.2896695
0.0833477    -0.9993254  -0.0002425   0.0000063  -0.0000042   0.0000061  -0.0000029  -0.9393761   0.2896456
0.0843723    -0.9994317  -0.0002449   0.0000154   0.0000126   0.0000086  -0.0000037  -0.9393115   0.2897923
0.0854095    -0.9993822  -0.0003448   0.0000031  -0.0000087  -0.0000026  -0.0000074  -0.9392051   0.2896720
0.0864595    -0.9993716  -0.0003401   0.0000022   0.0000034  -0.0000029   0.0000073  -0.9391912   0.2898053
0.0875224    -0.9993546  -0.0002483   0.0000013   0.0000071   0.0000034  -0.0000104  -0.9391330   0.2897833
0.0885983    -0.9994058  -0.0003093  -0.0000003  -0.0000097  -0.0000022  -0.0000038  -0.9390844   0.2898074
0.0896875    -0.9993305  -0.0002709   0.0000109   0.0000123   0.0000089  -0.0000091  -0.9389901   0.2898603
0.0907900    -0.9992860  -0.0002967  -0.0000009  -0.0000015  -0.0000058  -0.0000009  -0.9389029   0.2897670
0.0919061    -0.9995079  -0.0002839  -0.0000034  -0.0000119   0.0000026   0.0000009  -0.9387465   0.2898359
0.0930359    -0.9993343  -0.0003516   0.0000106  -0.0000006   0.0000012   0.0000016  -0.9387368   0.2897206
0.0941797    -0.9992979  -0.0004213   0.0000038   0.0000186   0.0000025   0.0000095  -0.9386642   0.2897788
0.0953374    -0.9993443  -0.0002206   0.0000073   0.0000042  -0.0000047   0.0000036  -0.9386589   0.2896874
0.0965094    -0.9993114  -0.0003755   0.0000149   0.0000055   0.0000008  -0.0000022  -0.9385277   0.2897067
0.0976959    -0.9993905  -0.0004065  -0.0000072   0.0000034   0.0000064  -0.0000051  -0.9385353   0.2896980
0.0988969    -0.9994453  -0.0004164  -0.0000042   0.0000161  -0.0000068  -0.0000015  -0.9384663   0.2896201
0.1001126    -0.9993342  -0.0003387   0.0000084   0.0000107  -0.0000042  -0.0000113  -0.9384273   0.2896009
0.1013433    -0.9994398  -0.0003250   0.0000027  -0.0000058  -0.0000066  -0.0000005  -0.9384162   0.2895283
0.1025892    -0.9993568  -0.0004200   0.0000009  -0.0000077  -0.0000089  -0.0000156  -0.9383242   0.2894642
0.1038503    -0.9993831  -0.0003622   0.0000061   0.0000173  -0.0000061   0.0000026  -0.9383898   0.2893628
0.1051270    -0.9994097  -0.0004074  -0.0000068  -0.0000007  -0.0000042   0.0000032  -0.9384645   0.2893710
0.1064193    -0.9993799  -0.0004553  -0.0000096   0.0000008  -0.0000009  -0.0000043  -0.9385210   0.2892712
0.1077276    -0.9994140  -0.0003546   0.0000036   0.0000026  -0.0000010   0.0000042  -0.9385561   0.2893075
0.1090519    -0.9994582  -0.0003833   0.0000050  -0.0000100   0.0000081   0.0000023  -0.9386699   0.2891948
0.1103925    -0.9994141  -0.0003656   0.0000081   0.0000149  -0.0000053  -0.0000082  -0.9386504   0.2892372
0.1117496    -0.9995193  -0.0004568   0.0000040   0.0000029   0.0000070  -0.0000009  -0.9387449   0.2892651
0.1131233    -0.9994715  -0.0004291   0.0000144   0.0000050  -0.0000109  -0.0000063  -0.9388706   0.2892237
0.1145140    -0.9994948  -0.0004495   0.0000137   0.0000102  -0.0000020  -0.0000139  -0.9389367   0.2893050
0.1159217    -0.9994895  -0.0003996   0.0000113   0.0000177  -0.0000058  -0.0000006  -0.9389502   0.2893045
0.1173468    -0.9994427  -0.0004572   0.0000026   0.0000018   0.0000043  -0.0000100  -0.9390159   0.2893834
0.1187893    -0.9994209  -0.0004054  -0.0000013  -0.0000008  -0.0000015  -0.0000112  -0.9391408   0.2894386
0.1202497    -0.9994758  -0.0004896   0.0000020  -0.0000047  -0.0000076  -0.0000202  -0.9391425   0.2894774
0.1217279    -0.9994840  -0.0004388   0.0000050   0.0000198   0.0000047   0.0000067  -0.9391774   0.2895602
0.1232243    -0.9994518  -0.0003599  -0.0000077   0.0000129  -0.0000059  -0.0000097  -0.9393238   0.2897100
0.1247392    -0.9994379  -0.0003261  -0.0000026   0.0000036  -0.0000005  -0.0000021  -0.9393441   0.2897610
0.1262726    -0.9994702  -0.0003672  -0.0000049  -0.0000028  -0.0000082  -0.0000107  -0.9393835   0.2898578
0.1278249    -0.9994833  -0.0004845  -0.0000067   0.0000053  -0.0000011  -0.0000062  -0.9393711   0.2899272
0.1293963    -0.9993134  -0.0004186   0.0000098  -0.0000013  -0.0000038  -0.0000042  -0.9394349   0.2900448
0.1309870    -0.9994896  -0.0004278   0.0000152   0.0000088   0.0000004  -0.0000140  -0.9394403   0.2901690
0.1325973    -0.9994476  -0.0005377   0.0000077   0.0000156  -0.0000006   0.0000020  -0.9394429   0.2901727
0.1342273    -0.9993746  -0.0004672   0.0000128   0.0000046  -0.0000030  -0.0000066  -0.9395119   0.2902830
0.1358774    -0.9994571  -0.0004972   0.0000140   0.0000141  -0.0000045   0.0000028  -0.9394840   0.2904587
0.1375478    -0.9993975  -0.0004484   0.0000007   0.0000000   0.0000041  -0.0000011  -0.9395102   0.2904983
0.1392387    -0.9993417  -0.0003607   0.0000013   0.0000039  -0.0000016  -0.0000030  -0.9394896   0.2906542
0.1409504    -0.9994103  -0.0004439   0.0000079  -0.0000003  -0.0000098  -0.0000030  -0.9395416   0.2907525
0.1426831    -0.9994171  -0.0003729  -0.0000055  -0.0000050  -0.0000051  -0.0000032  -0.9395182   0.2907696
0.1444371    -0.9994756  -0.0005231   0.0000093   0.0000051   0.0000040  -0.0000025  -0.9394529   0.2909111
0.1462127    -0.9995048  -0.0005435   0.0000010   0.0000107   0.0000011  -0.0000080  -0.9395321   0.2910522
0.1480102    -0.9994473  -0.0003920  -0.0000026   0.0000076  -0.0000016  -0.0000117  -0.9394888   0.2911476
0.1498297    -0.9994907  -0.0005333   0.0000137   0.0000178  -0.0000046   0.0000006  -0.9394295   0.2911965
0.1516716    -0.9994554  -0.0005041   0.0000025   0.0000002  -0.0000031   0.0000037  -0.9394114   0.2913293
0.1535361    -0.9993438  -0.0004184  -0.0000141   0.0000002  -0.0000056  -0.0000089  -0.9394468   0.2914228
0.1554236    -0.9994032  -0.0005051   0.0000039  -0.0000017   0.0000006   0.0000022  -0.9394299   0.2915906
0.1573342    -0.9994295  -0.0004195   0.0000088   0.0000070  -0.0000109  -0.0000090  -0.9393141   0.2916879
0.1592684    -0.9994755  -0.0004584  -0.0000038  -0.0000073   0.0000048   0.0000032  -0.9394186   0.2917255
0.1612263    -0.9994065  -0.0005661  -0.0000007   0.0000215   0.0000049  -0.0000010  -0.9393069   0.2918717
0.1632083    -0.9995605  -0.0005460   0.0000066   0.0000020   0.0000052  -0.0000046  -0.9393931   0.2919294
0.1652147    -0.9994798  -0.0005170   0.0000032   0.0000152  -0.0000054   0.0000015  -0.9392935   0.2920767
0.1672457    -0.9994009  -0.0005648  -0.0000024   0.0000080   0.0000058  -0.0000092  -0.9392819   0.2921465
0.1693017    -0.9995126  -0.0006361  -0.0000105   0.0000068  -0.0000093  -0.0000026  -0.9392562   0.2921591
0.1713829    -0.9994770  -0.0005344   0.0000012   0.0000033  -0.0000062  -0.0000029  -0.9392212   0.2923577
0.1734898    -0.9994229  -0.0005417  -0.0000106   0.0000032  -0.0000008   0.0000005  -0.9391912   0.2923584
0.1756225    -0.9993817  -0.0004284  -0.0000144   0.0000004   0.0000067  -0.0000024  -0.9391699   0.2925539
0.1777815    -0.9995533  -0.0005015  -0.0000063  -0.0000035  -0.0000031  -0.0000086  -0.9390592   0.2925714
0.1799670    -0.9994585  -0.0005561   0.0000050  -0.0000129  -0.0000053  -0.0000102  -0.9390654   0.2927581
0.1821794    -0.9993689  -0.0006091   0.0000053  -0.0000016   0.0000027  -0.0000042  -0.9390483   0.2928551
0.1844190    -0.9994727  -0.0005410  -0.0000055  -0.0000013  -0.0000014  -0.0000113  -0.9391059   0.2929285
0.1866861    -0.9993739  -0.0005931   0.0000071   0.0000037  -0.0000025  -0.0000085  -0.9389236   0.2930493
0.1889811    -0.9995905  -0.0005739  -0.0000035   0.0000207  -0.0000052  -0.0000045  -0.9389341   0.2931909
0.1913043    -0.9994845  -0.0005768   0.0000068  -0.0000086  -0.0000022  -0.0000077  -0.9389398   0.2931881
0.1936560    -0.9995139  -0.0006696  -0.0000019   0.0000140  -0.0000029   0.0000011  -0.9388743   0.2934055
0.1960367    -0.9996735  -0.0006022   0.0000023   0.0000158  -0.0000034  -0.0000113  -0.9388666   0.2935421
0.1984466    -0.9994387  -0.0006173   0.0000016  -0.0000068  -0.0000069  -0.0000007  -0.9388003   0.2935264
0.2008861    -0.9993423  -0.0005517   0.0000058  -0.0000185  -0.0000035  -0.0000135  -0.9388468   0.2937072
0.2033557    -0.9994643  -0.0007199   0.0000071   0.0000061  -0.0000017  -0.0000072  -0.9388149   0.2937507
0.2058556    -0.9995091  -0.0006667   0.0000018   0.0000110   0.0000063  -0.0000012  -0.9386165   0.2938308
0.2083862    -0.9994217  -0.0006568  -0.0000041   0.0000070  -0.0000007  -0.0000098  -0.9386430   0.2939738
0.2109480    -0.9995060  -0.0006473  -0.0000012  -0.0000041  -0.0000041   0.0000037  -0.9386125   0.2940661
0.2135412    -0.9994488  -0.0006533   0.0000110  -0.0000028   0.0000026  -0.0000099  -0.9385548   0.2941996
0.2161663    -0.9995033  -0.0006552   0.0000121   0.0000071   0.0000069  -0.0000061  -0.9385860   0.2942747
0.2188237    -0.9994570  -0.0007114  -0.0000039  -0.0000089  -0.0000015  -0.0000051  -0.9385893   0.2944157
0.2215137    -0.9994597  -0.0006716  -0.0000035   0.0000115  -0.0000176  -0.0000081  -0.9384733   0.2944849
0.2242369    -0.9994883  -0.0006213  -0.0000044   0.0000012  -0.0000093  -0.0000156  -0.9383799   0.2946712
0.2269935    -0.9995165  -0.0006058  -0.0000100  -0.0000014  -0.0000070  -0.0000102  -0.9383557   0.2947396
0.2297839    -0.9996289  -0.0006193  -0.0000057   0.0000171   0.0000008  -0.0000095  -0.9383288   0.2948782
0.2326087    -0.9995099  -0.0006913  -0.0000052   0.0000051  -0.0000072  -0.0000042  -0.9383012   0.2949777
0.2354682    -0.9994369  -0.0007919   0.0000022   0.0000103   0.0000062  -0.0000025  -0.9382314   0.2950852
0.2383629    -0.9994373  -0.0007766   0.0000007   0.0000047   0.0000095  -0.0000077  -0.9382402   0.2951383
0.2412932    -0.9995139  -0.0006739   0.0000003   0.0000020  -0.0000204  -0.0000146  -0.9381400   0.2952565
0.2442594    -0.9995345  -0.0007513   0.0000027  -0.0000040  -0.0000093   0.0000065  -0.9381314   0.2954319
0.2472622    -0.9994838  -0.0007685   0.0000001   0.0000054  -0.0000034  -0.0000044  -0.9381191   0.2955686
0.2503018    -0.9994565  -0.0007726  -0.0000065   0.0000013  -0.0000125  -0.0000093  -0.9379876   0.2957517
0.2533788    -0.9994304  -0.0007693   0.0000036   0.0000202  -0.0000040   0.0000031  -0.9379655   0.2957465
0.2564937    -0.9994749  -0.0007351   0.0000022   0.0000158  -0.0000017  -0.0000116  -0.9379517   0.2958429
0.2596468    -0.9994415  -0.0008574   0.0000065  -0.0000020  -0.0000103  -0.0000019  -0.9378675   0.2960615
0.2628387    -0.9995525  -0.0006802   0.0000095  -0.0000079   0.0000019   0.0000031  -0.9378421   0.2962113
0.2660699    -0.9994017  -0.0008374  -0.0000079   0.0000074   0.0000030  -0.0000001  -0.9377637   0.2962477
0.2693407    -0.9994552  -0.0008947   0.0000042   0.0000081   0.0000029   0.0000017  -0.9376920   0.2964796
0.2726518    -0.9994560  -0.0007925   0.0000112  -0.0000133   0.0000098  -0.0000065  -0.9376563   0.2965318
0.2760036    -0.9996175  -0.0008933  -0.0000041  -0.0000119  -0.0000009  -0.0000004  -0.9376370   0.2967253
0.2793966    -0.9994724  -0.0007790   0.0000045  -0.0000004   0.0000015  -0.0000069  -0.9375655   0.2967840
0.2828312    -0.9994730  -0.0008251  -0.0000089   0.0000236  -0.0000054  -0.0000065  -0.9375553   0.2969881
0.2863082    -0.9994607  -0.0008453  -0.0000047   0.0000019  -0.0000069  -0.0000156  -0.9374514   0.2970842
0.2898278    -0.9995670  -0.0008570  -0.0000111   0.0000110   0.0000011  -0.0000148  -0.9373987   0.2972562
0.2933907    -0.9994542  -0.0007940  -0.0000017   0.0000066  -0.0000071  -0.0000110  -0.9374491   0.2973166
0.2969975    -0.9995626  -0.0008449   0.0000022   0.0000145   0.0000025  -0.0000002  -0.9373918   0.2974570
0.3006485    -0.9995790  -0.0008567   0.0000049   0.0000129  -0.0000037  -0.0000003  -0.9372446   0.2976492
0.3043445    -0.9994787  -0.0009638   0.0000045   0.0000049   0.0000030  -0.0000090  -0.9372233   0.2977212
0.3080858    -0.9996307  -0.0008815   0.0000012  -0.0000079   0.0000008  -0.0000047  -0.9371217   0.2978439
0.3118732    -0.9995600  -0.0008229   0.0000048   0.0000049  -0.0000029  -0.0000037  -0.9370846   0.2981255
0.3157071    -0.9993781  -0.0009671  -0.0000079   0.0000054   0.0000001  -0.0000051  -0.9369519   0.2981806
0.3195882    -0.9995702  -0.0009599   0.0000092   0.0000091  -0.0000056  -0.0000075  -0.9369621   0.2983713
0.3235170    -0.9995065  -0.0009015   0.0000079  -0.0000088   0.0000005  -0.0000101  -0.9368877   0.2985743
0.3274941    -0.9995415  -0.0007957   0.0000002   0.0000087  -0.0000171  -0.0000030  -0.9368245   0.2986018
0.3315200    -0.9996617  -0.0009910  -0.0000083   0.0000002  -0.0000011  -0.0000002  -0.9366881   0.2987612
0.3355955    -0.9995672  -0.0009694   0.0000162  -0.0000013   0.0000024  -0.0000098  -0.9367534   0.2988743
0.3397210    -0.9995463  -0.0009500   0.0000032   0.0000016  -0.0000033  -0.0000140  -0.9366286   0.2991156
0.3438973    -0.9994529  -0.0009880  -0.0000063   0.0000171   0.0000025  -0.0000018  -0.9365542   0.2991742
0.3481249    -0.9995677  -0.0010589  -0.0000048   0.0000049  -0.0000090  -0.0000003  -0.9365513   0.2993079
0.3524045    -0.9995647  -0.0009831   0.0000079   0.0000028   0.0000071  -0.0000049  -0.9364981   0.2994654
0.3567367    -0.9995384  -0.0011103  -0.0000059   0.0000105   0.0000048  -0.0000006  -0.9364733   0.2996630
0.3611221    -0.9995551  -0.0010555  -0.0000035   0.0000088  -0.0000009  -0.0000053  -0.9363157   0.2998125
0.3655615    -0.9994863  -0.0010579   0.0000171  -0.0000021   0.0000008   0.0000035  -0.9362350   0.2999891
0.3700554    -0.9995243  -0.0009943   0.0000050   0.0000026  -0.0000078   0.0000013  -0.9361766   0.3001423
0.3746046    -0.9995824  -0.0010049  -0.0000146   0.0000255  -0.0000074   0.0000052  -0.9360952   0.3002810
0.3792097    -0.9996649  -0.0010523  -0.0000027  -0.0000003   0.0000027  -0.0000014  -0.9360310   0.3005167
0.3838714    -0.9995604  -0.0009972  -0.0000097  -0.0000078  -0.0000147   0.0000006  -0.9360487   0.3006684
0.3885905    -0.9995262  -0.0010496  -0.0000080  -0.0000068   0.0000014  -0.0000025  -0.9359445   0.3008066
0.3933675    -0.9996426  -0.0011960   0.0000060   0.0000146  -0.0000064  -0.0000079  -0.9358374   0.3010662
0.3982033    -0.9996226  -0.0011429   0.0000038   0.0000141   0.0000045  -0.0000028  -0.9357388   0.3011775
0.4030985    -0.9994790  -0.0011397   0.0000015   0.0000075  -0.0000013  -0.0000019  -0.9356822   0.3013380
0.4080538    -0.9996380  -0.0011933  -0.0000071   0.0000158   0.0000088  -0.0000011  -0.9356213   0.3015114
0.4130701    -0.9996405  -0.0012282   0.0000005   0.0000205  -0.0000030  -0.0000011  -0.9354990   0.3017008
0.4181481    -0.9996001  -0.0012661  -0.0000007   0.0000000  -0.0000217  -0.0000123  -0.9354835   0.3019167
0.4232885    -0.9995868  -0.0011330   0.0000033   0.0000043   0.0000013  -0.0000042  -0.9353929   0.3020374
0.4284921    -0.9995581  -0.0011980   0.0000066  -0.0000005   0.0000050  -0.0000019  -0.9353126   0.3021829
0.4337597    -0.9994518  -0.0012585   0.0000095   0.0000160  -0.0000025  -0.0000129  -0.9351899   0.3024178
0.4390920    -0.9995260  -0.0011510   0.0000068   0.0000046   0.0000014  -0.0000040  -0.9351455   0.3026475
0.4444898    -0.9996103  -0.0011959   0.0000114   0.0000117   0.0000003  -0.0000071  -0.9350953   0.3028394
0.4499541    -0.9996238  -0.0011608   0.0000033   0.0000134   0.0000018   0.0000071  -0.9349420   0.3029515
0.4554854    -0.9995795  -0.0012023   0.0000039   0.0000141  -0.0000024   0.0000004  -0.9349191   0.3031716
0.4610848    -0.9995655  -0.0012660  -0.0000097   0.0000037   0.0000036  -0.0000010  -0.9347462   0.3034583
0.4667531    -0.9997447  -0.0013356   0.0000057   0.0000001  -0.0000048  -0.0000122  -0.9347264   0.3035858
0.4724910    -0.9996707  -0.0013713   0.0000165   0.0000018   0.0000114  -0.0000039  -0.9345766   0.3037551
0.4782994    -0.9996398  -0.0013706   0.0000032  -0.0000011  -0.0000062  -0.0000052  -0.9345650   0.3040264
0.4841793    -0.9995702  -0.0014262  -0.0000086   0.0000172   0.0000106   0.0000023  -0.9344129   0.3041643
0.4901314    -0.9994786  -0.0013086   0.0000090  -0.0000021   0.0000062  -0.0000086  -0.9344641   0.3044346
0.4961567    -0.9996370  -0.0013179   0.0000033   0.0000070  -0.0000058  -0.0000014  -0.9343045   0.3046205
0.5022561    -0.9996116  -0.0014010   0.0000055   0.0000059  -0.0000017  -0.0000053  -0.9341865   0.3048411
0.5084304    -0.9996972  -0.0013643   0.0000096   0.0000034  -0.0000013  -0.0000019  -0.9340425   0.3051119
0.5146807    -0.9996777  -0.0014131  -0.0000035  -0.0000123  -0.0000092  -0.0000063  -0.9339961   0.3052493
0.5210078    -0.9995806  -0.0013967   0.0000043  -0.0000079   0.0000043  -0.0000041  -0.9338725   0.3054744
0.5274126    -0.9996190  -0.0014537   0.0000047   0.0000008  -0.0000064  -0.0000075  -0.9338402   0.3057256
0.5338963    -0.9996594  -0.0014203  -0.0000010   0.0000310   0.0000003   0.0000057  -0.9337405   0.3059158
0.5404596    -0.9996334  -0.0014606   0.0000110   0.0000000  -0.0000084   0.0000050  -0.9336710   0.3062319
0.5471036    -0.9995671  -0.0014590  -0.0000078   0.0000029  -0.0000094  -0.0000065  -0.9335276   0.3063257
0.5538292    -0.9996866  -0.0015082  -0.0000111   0.0000130   0.0000020  -0.0000054  -0.9334165   0.3066357
0.5606376    -0.9997104  -0.0014722   0.0000019   0.0000043  -0.0000026  -0.0000073  -0.9332411   0.3068205
0.5675297    -0.9995892  -0.0015220  -0.0000044   0.0000006  -0.0000022  -0.0000028  -0.9331879   0.3071370
0.5745064    -0.9996608  -0.0015852  -0.0000062  -0.0000001   0.0000018   0.0000011  -0.9330557   0.3073340
0.5815690    -0.9995381  -0.0016183   0.0000089  -0.0000040   0.0000020   0.0000047  -0.9330523   0.3075216
0.5887183    -0.9996463  -0.0016632   0.0000125  -0.0000008  -0.0000109  -0.0000114  -0.9328489   0.3077647
0.5959556    -0.9996484  -0.0016089   0.0000143   0.0000126  -0.0000057  -0.0000093  -0.9327533   0.3080503
0.6032818    -0.9996528  -0.0016771   0.0000028   0.0000003  -0.0000051  -0.0000031  -0.9326622   0.3083318
0.6106981    -0.9996617  -0.0015806   0.0000034   0.0000020   0.0000033  -0.0000101  -0.9325332   0.3086434
0.6182056    -0.9996650  -0.0017791  -0.0000100   0.0000103   0.0000045  -0.0000047  -0.9324797   0.3087512
0.6258053    -0.9995938  -0.0017000  -0.0000052   0.0000031  -0.0000036   0.0000009  -0.9323100   0.3090988
0.6334985    -0.9996236  -0.0016257  -0.0000011   0.0000144   0.0000043  -0.0000057  -0.9322906   0.3093580
0.6412862    -0.9996407  -0.0016762   0.0000115   0.0000121  -0.0000087  -0.0000039  -0.9320162   0.3096498
0.6491697    -0.9997094  -0.0016987   0.0000034   0.0000021  -0.0000025   0.0000017  -0.9320639   0.3099768
0.6571501    -0.9996898  -0.0018300  -0.0000016   0.0000016  -0.0000156  -0.0000076  -0.9318527   0.3101546
0.6652286    -0.9996598  -0.0017991  -0.0000055  -0.0000146   0.0000013  -0.0000025  -0.9317385   0.3105023
0.6734064    -0.9996118  -0.0017615   0.0000008   0.0000137  -0.0000007  -0.0000128  -0.9316249   0.3107810
0.6816848    -0.9995988  -0.0018547  -0.0000052   0.0000050  -0.0000108  -0.0000052  -0.9314518   0.3109770
0.6900649    -0.9997413  -0.0017944   0.0000043   0.0000008  -0.0000001  -0.0000024  -0.9313558   0.3112493
0.6985480    -0.9996375  -0.0019386   0.0000075  -0.0000031  -0.0000011  -0.0000022  -0.9312130   0.3116300
0.7071355    -0.9996411  -0.0018662   0.0000067   0.0000172   0.0000024  -0.0000047  -0.9311384   0.3119213
0.7158284    -0.9996656  -0.0020086   0.0000104   0.0000102   0.0000018  -0.0000044  -0.9310515   0.3121998
0.7246283    -0.9997508  -0.0019364   0.0000017  -0.0000030  -0.0000065  -0.0000022  -0.9308397   0.3124587
0.7335363    -0.9996815  -0.0020836  -0.0000042  -0.0000040   0.0000072  -0.0000030  -0.9308036   0.3127722
0.7425539    -0.9996339  -0.0019160   0.0000049  -0.0000024  -0.0000014  -0.0000051  -0.9306783   0.3131388
0.7516822    -0.9995836  -0.0019558   0.0000022   0.0000092  -0.0000061   0.0000039  -0.9304417   0.3133883
0.7609229    -0.9996538  -0.0019836  -0.0000047   0.0000038  -0.0000108  -0.0000073  -0.9302693   0.3136903
0.7702771    -0.9996321  -0.0021058   0.0000096  -0.0000048   0.0000060  -0.0000118  -0.9301103   0.3139566
0.7797463    -0.9996828  -0.0020363   0.0000043  -0.0000027  -0.0000053  -0.0000039  -0.9299867   0.3143409
0.7893319    -0.9996822  -0.0020632   0.0000233   0.0000032  -0.0000011  -0.0000039  -0.9298566   0.3146606
0.7990353    -0.9995855  -0.0021795   0.0000021   0.0000057   0.0000108   0.0000006  -0.9297423   0.3149845
0.8088580    -0.9995101  -0.0021980  -0.0000052   0.0000142  -0.0000011  -0.0000043  -0.9295781   0.3153214
0.8188015    -0.9997390  -0.0021429   0.0000090  -0.0000041  -0.0000041  -0.0000032  -0.9294537   0.3156519
0.8288673    -0.9996667  -0.0020969   0.0000146   0.0000038  -0.0000032  -0.0000065  -0.9292674   0.3159989
0.8390567    -0.9996678  -0.0022521  -0.0000033   0.0000144   0.0000029  -0.0000167  -0.9291964   0.3163791
0.8493714    -0.9997300  -0.0022009   0.0000084  -0.0000002   0.0000081  -0.0000012  -0.9290133   0.3166715
0.8598130    -0.9995642  -0.0022052   0.0000055   0.0000053   0.0000073  -0.0000083  -0.9288463   0.3170546
0.8703829    -0.9998152  -0.0023716   0.0000036   0.0000045   0.0000037  -0.0000044  -0.9286617   0.3173866
0.8810827    -0.9996429  -0.0022616  -0.0000052  -0.0000057  -0.0000029  -0.0000054  -0.9285109   0.3178376
0.8919140    -0.9998021  -0.0022552  -0.0000131   0.0000006   0.0000023  -0.0000108  -0.9283561   0.3181357
0.9028786    -0.9997653  -0.0022686   0.0000044   0.0000086  -0.0000092   0.0000004  -0.9281942   0.3185210
0.9139779    -0.9996882  -0.0024470   0.0000040   0.0000053  -0.0000026  -0.0000067  -0.9280326   0.3189216
0.9252136    -0.9996985  -0.0024524   0.0000054  -0.0000083  -0.0000001  -0.0000139  -0.9278553   0.3192816
0.9365875    -0.9997702  -0.0024378   0.0000118  -0.0000051  -0.0000034   0.0000006  -0.9276938   0.3196557
0.9481012    -0.9996586  -0.0024048  -0.0000187   0.0000074  -0.0000017  -0.0000055  -0.9275186   0.3200543
0.9597564    -0.9996737  -0.0024677   0.0000071   0.0000014  -0.0000017  -0.0000023  -0.9273121   0.3204456
0.9715549    -0.9997326  -0.0024177   0.0000041   0.0000151  -0.0000036  -0.0000012  -0.9271461   0.3208858
0.9834985    -0.9996621  -0.0026195  -0.0000144  -0.0000006  -0.0000065  -0.0000013  -0.9270109   0.3212321
0.9955889    -0.9995846  -0.0025734   0.0000134  -0.0000066  -0.0000032  -0.0000050  -0.9268638   0.3216050
1.0078279    -0.9997410  -0.0026448   0.0000033   0.0000070   0.0000107  -0.0000079  -0.9265545   0.3220619
1.0202173    -0.9998011  -0.0026216   0.0000134   0.0000045   0.0000011  -0.0000053  -0.9264578   0.3224213
1.0327591    -0.9997245  -0.0026456   0.0000026   0.0000082  -0.0000039  -0.0000004  -0.9262505   0.3229331
1.0454551    -0.9996503  -0.0026777  -0.0000126   0.0000038   0.0000008  -0.0000101  -0.9260666   0.3233381
1.0583071    -0.9997759  -0.0026255   0.0000065  -0.0000002  -0.0000013   0.0000049  -0.9258682   0.3237213
1.0713171    -0.9995645  -0.0026530   0.0000090   0.0000011  -0.0000064   0.0000018  -0.9255917   0.3241481
1.0844871    -0.9996595  -0.0026536   0.0000149   0.0000037  -0.0000048   0.0000027  -0.9254617   0.3245377
1.0978189    -0.9997787  -0.0027500  -0.0000007   0.0000151   0.0000007   0.0000068  -0.9252756   0.3250599
1.1113147    -0.9996577  -0.0028976   0.0000017   0.0000013  -0.0000006  -0.0000055  -0.9250334   0.3254274
1.1249763    -0.9998315  -0.0028951   0.0000084   0.0000081  -0.0000013  -0.0000018  -0.9248774   0.3259905
1.1388059    -0.9997958  -0.0028677   0.0000009   0.0000104  -0.0000019  -0.0000060  -0.9247198   0.3264517
1.1528056    -0.9997250  -0.0029254   0.0000056   0.0000052  -0.0000044  -0.0000036  -0.9244583   0.3268988
1.1669773    -0.9997467  -0.0029714   0.0000014   0.0000151  -0.0000009  -0.0000082  -0.9242727   0.3273953
1.1813232    -0.9997824  -0.0029941   0.0000124   0.0000078  -0.0000031  -0.0000048  -0.9240773   0.3278585
1.1958455    -0.9996351  -0.0030980   0.0000021   0.0000085   0.0000009   0.0000004  -0.9238039   0.3283554
1.2105463    -0.9997148  -0.0030523  -0.0000020   0.0000220  -0.0000031  -0.0000085  -0.9236208   0.3288517
1.2254278    -0.9996407  -0.0030244  -0.0000043  -0.0000046  -0.0000064   0.0000002  -0.9233540   0.3293477
1.2404923    -0.9997203  -0.0031624  -0.0000051   0.0000028   0.0000005  -0.0000006  -0.9232183   0.3298264
1.2557420    -0.9998353  -0.0031286   0.0000058  -0.0000042   0.0000060  -0.0000034  -0.9229541   0.3303611
1.2711791    -0.9998771  -0.0032208   0.0000036   0.0000000   0.0000058   0.0000032  -0.9226769   0.3308420
1.2868060    -0.9997978  -0.0031180  -0.0000013   0.0000161  -0.0000086   0.0000018  -0.9224299   0.3313969
1.3026251    -0.9998118  -0.0032350  -0.0000019   0.0000022   0.0000010  -0.0000178  -0.9221532   0.3319239
1.3186385    -0.9997074  -0.0032908   0.0000046  -0.0000005  -0.0000032  -0.0000001  -0.9219294   0.3324706
1.3348489    -0.9997329  -0.0033105  -0.0000064   0.0000170  -0.0000022  -0.0000067  -0.9217568   0.3330027
1.3512585    -0.9996797  -0.0034229   0.0000029   0.0000060  -0.0000067  -0.0000152  -0.9214508   0.3335168
1.3678698    -0.9998293  -0.0033435  -0.0000092   0.0000068  -0.0000091  -0.0000157  -0.9212825   0.3340755
1.3846854    -0.9999035  -0.0034433  -0.0000029   0.0000071   0.0000027  -0.0000135  -0.9210106   0.3347380
1.4017077    -0.9998047  -0.0035212   0.0000019   0.0000115   0.0000041   0.0000045  -0.9207423   0.3352204
1.4189392    -0.9997902  -0.0035155   0.0000069   0.0000119   0.0000006   0.0000001  -0.9205003   0.3357456
1.4363825    -0.9997573  -0.0035435   0.0000191   0.0000051  -0.0000072  -0.0000012  -0.9202484   0.3363581
1.4540403    -0.9997753  -0.0035456   0.0000044   0.0000005  -0.0000064  -0.0000011  -0.9199559   0.3369570
1.4719152    -0.9997567  -0.0037158   0.0000028   0.0000081   0.0000078   0.0000075  -0.9197156   0.3376479
1.4900098    -0.9998054  -0.0037230   0.0000008   0.0000097   0.0000059  -0.0000025  -0.9193985   0.3381595
1.5083269    -0.9998775  -0.0036975  -0.0000011  -0.0000056  -0.0000053   0.0000013  -0.9191216   0.3387463
1.5268691    -0.9998829  -0.0037709  -0.0000032   0.0000189   0.0000075  -0.0000016  -0.9188447   0.3393919
1.5456392    -0.9998919  -0.0038653   0.0000115   0.0000070  -0.0000034  -0.0000016  -0.9186352   0.3399954
1.5646402    -0.9998707  -0.0039117   0.0000026   0.0000095   0.0000027  -0.0000022  -0.9183255   0.3407034
1.5838747    -0.9998442  -0.0039526  -0.0000044   0.0000192  -0.0000058   0.0000018  -0.9180071   0.3413056
1.6033456    -0.9998136  -0.0039414  -0.0000037   0.0000111  -0.0000038   0.0000005  -0.9178175   0.3419714
1.6230559    -0.9999349  -0.0040254  -0.0000055   0.0000144   0.0000040  -0.0000088  -0.9174998   0.3426997
1.6430085    -0.9998577  -0.0040517   0.0000069   0.0000038  -0.0000092  -0.0000087  -0.9171685   0.3433497
1.6632064    -0.9997846  -0.0040788   0.0000010   0.0000033  -0.0000108  -0.0000073  -0.9168588   0.3440620
1.6836526    -0.9998391  -0.0041324   0.0000040   0.0000083   0.0000037  -0.0000099  -0.9166106   0.3447857
1.7043502    -0.9998840  -0.0043796  -0.0000049   0.0000028   0.0000002  -0.0000113  -0.9161800   0.3455200
1.7253021    -0.9998294  -0.0042242   0.0000010   0.0000136  -0.0000079  -0.0000040  -0.9159925   0.3461715
1.7465117    -0.9998397  -0.0042727  -0.0000033   0.0000184   0.0000025  -0.0000055  -0.9157903   0.3469968
1.7679820    -0.9999211  -0.0043409   0.0000032   0.0000074  -0.0000045   0.0000031  -0.9154066   0.3477171
1.7897162    -0.9998002  -0.0043783   0.0000071   0.0000110  -0.0000016  -0.0000074  -0.9151174   0.3484560
1.8117176    -0.9998711  -0.0043872   0.0000049   0.0000011  -0.0000088  -0.0000035  -0.9147761   0.3493066
1.8339895    -0.9998340  -0.0044808  -0.0000126   0.0000089  -0.0000118  -0.0000034  -0.9144893   0.3500739
1.8565352    -0.9998237  -0.0045931  -0.0000026   0.0000147  -0.0000061  -0.0000007  -0.9141587   0.3508992
1.8793580    -0.9999019  -0.0045541  -0.0000106  -0.0000038   0.0000050  -0.0000067  -0.9138773   0.3516445
1.9024614    -0.9998436  -0.0046768  -0.0000017  -0.0000143   0.0000034   0.0000019  -0.9136433   0.3524820
1.9258488    -0.9998188  -0.0047478  -0.0000007  -0.0000029  -0.0000040  -0.0000066  -0.9132013   0.3533232
1.9495237    -0.9997839  -0.0048072   0.0000025   0.0000130  -0.0000036  -0.0000086  -0.9128573   0.3542622
1.9734897    -0.9998628  -0.0048257  -0.0000019   0.0000126  -0.0000027  -0.0000027  -0.9124967   0.3551210
1.9977503    -0.9998566  -0.0047978  -0.0000091   0.0000211  -0.0000022  -0.0000100  -0.9121862   0.3560367
2.0223091    -0.9998671  -0.0048940  -0.0000081   0.0000164   0.0000036  -0.0000066  -0.9117146   0.3569520
2.0471698    -0.9999835  -0.0050823   0.0000167   0.0000122   0.0000021  -0.0000058  -0.9112576   0.3578717
2.0723362    -0.9999316  -0.0050304  -0.0000133   0.0000001  -0.0000052  -0.0000109  -0.9108508   0.3587810
2.0978119    -0.9998326  -0.0051175   0.0000059   0.0000052  -0.0000046  -0.0000081  -0.9103719   0.3597379
2.1236008    -0.9999170  -0.0051521   0.0000101   0.0000148  -0.0000093  -0.0000004  -0.9098752   0.3606545
2.1497067    -0.9998479  -0.0052701   0.0000053  -0.0000004  -0.0000046  -0.0000022  -0.9093895   0.3616367
2.1761336    -0.9998792  -0.0052514   0.0000042   0.0000108  -0.0000068  -0.0000094  -0.9089004   0.3624516
2.2028853    -0.9998705  -0.0053518   0.0000057   0.0000063  -0.0000069  -0.0000036  -0.9082573   0.3634525
2.2299659    -0.9999647  -0.0053417  -0.0000064   0.0000057  -0.0000041  -0.0000103  -0.9079217   0.3643863
2.2573794    -0.9999518  -0.0054682   0.0000197   0.0000047  -0.0000005   0.0000045  -0.9073349   0.3653268
2.2851299    -0.9999693  -0.0054992  -0.0000029   0.0000092  -0.0000203  -0.0000078  -0.9067572   0.3662666
2.3132216    -0.9999845  -0.0055653   0.0000021   0.0000028  -0.0000061  -0.0000051  -0.9062437   0.3671181
2.3416586    -0.9999493  -0.0057270   0.0000069   0.0000134   0.0000013  -0.0000147  -0.9056892   0.3680784
2.3704451    -0.9999847  -0.0056595  -0.0000109   0.0000110  -0.0000051  -0.0000091  -0.9051684   0.3691096
2.3995856    -0.9999148  -0.0058684   0.0000041   0.0000125  -0.0000066  -0.0000082  -0.9045189   0.3700807
2.4290843    -0.9998741  -0.0058555  -0.0000031   0.0000221  -0.0000003  -0.0000136  -0.9041214   0.3709168
2.4589456    -0.9999634  -0.0059239   0.0000076   0.0000061  -0.0000015  -0.0000055  -0.9035454   0.3719175
2.4891740    -0.9998171  -0.0060256  -0.0000065   0.0000031   0.0000065   0.0000046  -0.9030067   0.3729132
2.5197740    -0.9999628  -0.0061540   0.0000108   0.0000038  -0.0000101  -0.0000049  -0.9025121   0.3739415
2.5507502    -0.9999977  -0.0061785   0.0000139   0.0000169  -0.0000041   0.0000006  -0.9019500   0.3748543
2.5821072    -1.0000377  -0.0062040   0.0000013   0.0000142   0.0000005  -0.0000009  -0.9013914   0.3758758
2.6138496    -0.9999642  -0.0063435  -0.0000032   0.0000097  -0.0000073  -0.0000027  -0.9007222   0.3768633
2.6459823    -0.9999943  -0.0064231  -0.0000063   0.0000284  -0.0000029   0.0000048  -0.9001987   0.3779199
2.6785100    -0.9999640  -0.0063754  -0.0000026   0.0000024  -0.0000082  -0.0000121  -0.8996597   0.3790409
2.7114376    -1.0000230  -0.0063883   0.0000051   0.0000129  -0.0000063  -0.0000062  -0.8990225   0.3800620
2.7447699    -0.9999394  -0.0064444   0.0000117   0.0000083   0.0000017  -0.0000063  -0.8984440   0.3810689
2.7785120    -0.9999889  -0.0066855   0.0000022   0.0000115  -0.0000026  -0.0000068  -0.8978285   0.3821643
2.8126689    -0.9999817  -0.0067184   0.0000079   0.0000073  -0.0000122   0.0000035  -0.8973122   0.3833147
2.8472457    -0.9999830  -0.0068637  -0.0000035   0.0000138  -0.0000035  -0.0000070  -0.8967607   0.3844286
2.8822476    -0.9999724  -0.0069687   0.0000117   0.0000136   0.0000060   0.0000022  -0.8961782   0.3855124
2.9176798    -1.0000566  -0.0070439  -0.0000058   0.0000020  -0.0000007  -0.0000141  -0.8955195   0.3866086
2.9535475    -1.0000920  -0.0070159  -0.0000100  -0.0000037  -0.0000058  -0.0000054  -0.8949483   0.3878070
2.9898562    -1.0000244  -0.0072167   0.0000120   0.0000267  -0.0000028  -0.0000049  -0.8942470   0.3890268
3.0266112    -0.9999309  -0.0072501  -0.0000038   0.0000138  -0.0000014  -0.0000102  -0.8936296   0.3901293
3.0638180    -1.0000818  -0.0072973   0.0000077   0.0000026  -0.0000027  -0.0000106  -0.8929854   0.3913348
3.1014823    -0.9999689  -0.0074308   0.0000090   0.0000099   0.0000122   0.0000001  -0.8923790   0.3926033
3.1396096    -1.0000199  -0.0074621  -0.0000055   0.0000003   0.0000007  -0.0000151  -0.8916534   0.3937399
3.1782055    -0.9999871  -0.0075967   0.0000081   0.0000018  -0.0000052  -0.0000060  -0.8910269   0.3950064
3.2172760    -1.0000563  -0.0076201  -0.0000076   0.0000071  -0.0000021  -0.0000025  -0.8903442   0.3962763
3.2568267    -1.0000898  -0.0076818  -0.0000035   0.0000135   0.0000000   0.0000010  -0.8897056   0.3975141
3.2968637    -1.0001297  -0.0078520   0.0000041  -0.0000112   0.0000079  -0.0000071  -0.8889123   0.3988380
3.3373928    -1.0000268  -0.0079652   0.0000101   0.0000114  -0.0000055  -0.0000043  -0.8882090   0.4000991
3.3784202    -1.0000811  -0.0080552   0.0000097   0.0000063   0.0000017  -0.0000115  -0.8874257   0.4014749
3.4199519    -1.0000845  -0.0082410   0.0000082  -0.0000013  -0.0000018  -0.0000072  -0.8867184   0.4027799
3.4619942    -1.0000152  -0.0082788  -0.0000013   0.0000115   0.0000094  -0.0000015  -0.8859021   0.4040620
3.5045533    -1.0000406  -0.0083112   0.0000021   0.0000080  -0.0000130  -0.0000043  -0.8851955   0.4055343
3.5476356    -1.0000042  -0.0084461  -0.0000002   0.0000004  -0.0000032  -0.0000072  -0.8844131   0.4068135
3.5912475    -1.0001395  -0.0084321   0.0000013  -0.0000015   0.0000050  -0.0000068  -0.8835820   0.4081858
3.6353956    -1.0000545  -0.0086405   0.0000051   0.0000008  -0.0000033   0.0000033  -0.8828196   0.4096963
3.6800864    -1.0000497  -0.0087521   0.0000118   0.0000144  -0.0000019  -0.0000012  -0.8820544   0.4111741
3.7253266    -1.0000735  -0.0088901   0.0000001   0.0000021  -0.0000012   0.0000029  -0.8812237   0.4125975
3.7711229    -1.0001274  -0.0088442  -0.0000162   0.0000089   0.0000036  -0.0000073  -0.8804596   0.4140384
3.8174822    -1.0001509  -0.0089793  -0.0000001   0.0000015   0.0000054  -0.0000037  -0.8795996   0.4154965
3.8644115    -1.0001688  -0.0090861  -0.0000025   0.0000066  -0.0000027  -0.0000005  -0.8788628   0.4170898
3.9119176    -1.0000258  -0.0092347   0.0000219   0.0000126   0.0000050  -0.0000047  -0.8780034   0.4186069
3.9600077    -1.0002045  -0.0094690  -0.0000033   0.0000102  -0.0000003  -0.0000106  -0.8772529   0.4201030
4.0086890    -1.0001575  -0.0094039   0.0000042   0.0000182  -0.0000001  -0.0000011  -0.8762245   0.4216955
4.0579688    -1.0001284  -0.0095405   0.0000059   0.0000043   0.0000105  -0.0000087  -0.8753939   0.4232443
4.1078544    -1.0000213  -0.0097893   0.0000052   0.0000081   0.0000009  -0.0000062  -0.8745147   0.4247613
4.1583532    -1.0000987  -0.0097750  -0.0000016  -0.0000047  -0.0000076  -0.0000134  -0.8735491   0.4263804
4.2094729    -1.0001516  -0.0099230   0.0000018   0.0000050  -0.0000130  -0.0000085  -0.8727399   0.4279787
4.2612209    -1.0000841  -0.0099766  -0.0000031   0.0000104   0.0000049  -0.0000003  -0.8717528   0.4295703
4.3136051    -1.0002045  -0.0101073   0.0000028   0.0000096   0.0000094  -0.0000038  -0.8707551   0.4312195
4.3666333    -1.0001138  -0.0101965  -0.0000020   0.0000094  -0.0000042  -0.0000094  -0.8698497   0.4329018
4.4203134    -1.0001142  -0.0104739   0.0000034   0.0000154  -0.0000094  -0.0000055  -0.8687537   0.4345216
4.4746534    -1.0002009  -0.0105850   0.0000059   0.0000063  -0.0000100  -0.0000040  -0.8676684   0.4362446
4.5296613    -1.0002154  -0.0105125   0.0000009   0.0000063  -0.0000140  -0.0000062  -0.8666960   0.4379928
4.5853455    -1.0001218  -0.0107958   0.0000047   0.0000117   0.0000126  -0.0000056  -0.8655878   0.4397037
4.6417143    -1.0002102  -0.0109146   0.0000096   0.0000039   0.0000038  -0.0000010  -0.8644354   0.4412928
4.6987760    -1.0002388  -0.0111080  -0.0000009   0.0000019  -0.0000146  -0.0000077  -0.8633619   0.4429503
4.7565392    -1.0000948  -0.0111357   0.0000177   0.0000124  -0.0000048  -0.0000118  -0.8622112   0.4446939
4.8150125    -1.0002774  -0.0111895  -0.0000050   0.0000220   0.0000012  -0.0000054  -0.8610678   0.4463435
4.8742045    -1.0001929  -0.0114984   0.0000000   0.0000072   0.0000013  -0.0000100  -0.8598778   0.4479819
4.9341243    -1.0002441  -0.0115703  -0.0000011   0.0000097  -0.0000079  -0.0000109  -0.8588102   0.4494953
4.9947807    -1.0001160  -0.0116530   0.0000046   0.0000105  -0.0000006  -0.0000013  -0.8578174   0.4510817
5.0561827    -1.0001895  -0.0118387  -0.0000082   0.0000214  -0.0000007  -0.0000055  -0.8568059   0.4527803
5.1183396    -1.0002394  -0.0119936   0.0000150   0.0000045   0.0000014  -0.0000067  -0.8558557   0.4544847
5.1812606    -1.0001908  -0.0121194   0.0000011   0.0000125   0.0000041   0.0000007  -0.8549632   0.4562606
5.2449550    -1.0001239  -0.0121995   0.0000105   0.0000063  -0.0000038  -0.0000165  -0.8540537   0.4582926
5.3094325    -1.0002223  -0.0123914   0.0000152   0.0000079  -0.0000002  -0.0000129  -0.8530595   0.4601084
5.3747026    -1.0002190  -0.0125738   0.0000083   0.0000087  -0.0000032  -0.0000010  -0.8520304   0.4623129
5.4407751    -1.0001716  -0.0126944  -0.0000010   0.0000103   0.0000050  -0.0000045  -0.8508710   0.4642557
5.5076599    -1.0001998  -0.0128388  -0.0000070   0.0000109  -0.0000117  -0.0000096  -0.8497691   0.4663224
5.5753669    -1.0002510  -0.0130017   0.0000120   0.0000125   0.0000046  -0.0000046  -0.8485973   0.4684798
5.6439062    -1.0002774  -0.0132285  -0.0000016   0.0000009   0.0000020  -0.0000020  -0.8474325   0.4705647
5.7132881    -1.0001335  -0.0133762   0.0000147   0.0000173  -0.0000053  -0.0000021  -0.8461542   0.4727491
5.7835229    -1.0003427  -0.0134350   0.0000019   0.0000010   0.0000120  -0.0000015  -0.8448744   0.4749231
5.8546211    -1.0003370  -0.0137510   0.0000050   0.0000098   0.0000019  -0.0000059  -0.8436650   0.4771559
5.9265934    -1.0001591  -0.0138661   0.0000049   0.0000114   0.0000031  -0.0000032  -0.8422969   0.4793258
5.9994504    -1.0002562  -0.0140425  -0.0000109   0.0000164  -0.0000047  -0.0000054  -0.8409209   0.4814409
6.0732031    -1.0003582  -0.0142893   0.0000126   0.0000209  -0.0000113  -0.0000100  -0.8395623   0.4836481
6.1478624    -1.0002809  -0.0143916   0.0000023   0.0000076   0.0000063  -0.0000045  -0.8381859   0.4858738
6.2234396    -1.0002781  -0.0144953  -0.0000078   0.0000057  -0.0000013  -0.0000036  -0.8366054   0.4881844
6.2999458    -1.0001877  -0.0145491  -0.0000042   0.0000113  -0.0000015  -0.0000074  -0.8352632   0.4904485
6.3773925    -1.0002895  -0.0147975   0.0000127   0.0000025  -0.0000065  -0.0000109  -0.8337530   0.4927246
6.4557914    -1.0003788  -0.0151363   0.0000076   0.0000180   0.0000019  -0.0000044  -0.8322471   0.4949631
6.5351539    -1.0003793  -0.0151502   0.0000068   0.0000215  -0.0000016   0.0000001  -0.8307492   0.4973691
6.6154922    -1.0004383  -0.0154650   0.0000112   0.0000208   0.0000017  -0.0000067  -0.8291662   0.4997310
6.6968180    -1.0004083  -0.0156079   0.0000204   0.0000085  -0.0000013  -0.0000054  -0.8275994   0.5021189
6.7791436    -1.0002277  -0.0157169   0.0000030   0.0000117  -0.0000036  -0.0000061  -0.8260330   0.5044637
6.8624812    -1.0003101  -0.0159112   0.0000092   0.0000026  -0.0000017  -0.0000108  -0.8244187   0.5069328
6.9468433    -1.0002760  -0.0161448   0.0000094   0.0000005  -0.0000075   0.0000006  -0.8228260   0.5093485
7.0322425    -1.0002551  -0.0163236   0.0000037   0.0000109  -0.0000001  -0.0000017  -0.8211146   0.5118158
7.1186916    -1.0003102  -0.0164760  -0.0000001   0.0000147   0.0000055  -0.0000068  -0.8194095   0.5143454
7.2062034    -1.0002978  -0.0166996   0.0000022   0.0000136  -0.0000054  -0.0000028  -0.8176992   0.5169044
7.2947909    -1.0003153  -0.0169234   0.0000057   0.0000034  -0.0000060  -0.0000003  -0.8159561   0.5194736
7.3844675    -1.0003238  -0.0171170   0.0000088   0.0000098  -0.0000109  -0.0000018  -0.8142863   0.5220747
7.4752466    -1.0003496  -0.0173334   0.0000108   0.0000143   0.0000062  -0.0000064  -0.8124937   0.5246904
7.5671416    -1.0003346  -0.0175852   0.0000057   0.0000007  -0.0000101   0.0000033  -0.8107805   0.5273408
7.6601662    -1.0002937  -0.0176853   0.0000018   0.0000105  -0.0000032  -0.0000058  -0.8089321   0.5300260
7.7543345    -1.0003774  -0.0179632  -0.0000043  -0.0000046  -0.0000011  -0.0000027  -0.8070409   0.5328550
7.8496604    -1.0004330  -0.0181318  -0.0000045   0.0000010  -0.0000081  -0.0000079  -0.8052010   0.5356596
7.9461581    -1.0004061  -0.0183944   0.0000109   0.0000155  -0.0000041  -0.0000001  -0.8031845   0.5385086
8.0438422    -1.0004398  -0.0185922  -0.0000084   0.0000027  -0.0000019   0.0000034  -0.8012046   0.5413537
8.1427270    -1.0004571  -0.0188218   0.0000067   0.0000021   0.0000042   0.0000010  -0.7990345   0.5443276
8.2428275    -1.0003958  -0.0189877   0.0000031   0.0000134   0.0000016   0.0000028  -0.7968067   0.5471867
8.3441586    -1.0002850  -0.0193028   0.0000013   0.0000159  -0.0000017   0.0000017  -0.7946318   0.5499687
8.4467353    -1.0004716  -0.0195061  -0.0000070   0.0000052   0.0000085  -0.0000037  -0.7923743   0.5529673
8.5505731    -1.0004768  -0.0197108  -0.0000015   0.0000223   0.0000036  -0.0000037  -0.7900742   0.5557386
8.6556873    -1.0003117  -0.0199914   0.0000045   0.0000045   0.0000022  -0.0000069  -0.7877981   0.5586649
8.7620937    -1.0004322  -0.0202820  -0.0000011   0.0000217  -0.0000146  -0.0000022  -0.7855033   0.5615264
8.8698082    -1.0003687  -0.0204823   0.0000108   0.0000175   0.0000006  -0.0000076  -0.7831491   0.5644380
8.9788469    -1.0004224  -0.0206950  -0.0000005   0.0000265   0.0000057  -0.0000060  -0.7808526   0.5673655
9.0892260    -1.0004026  -0.0208900   0.0000036   0.0000197  -0.0000017  -0.0000065  -0.7784899   0.5703176
9.2009621    -1.0003869  -0.0212093   0.0000068   0.0000029  -0.0000012  -0.0000011  -0.7759998   0.5733714
9.3140717    -1.0004978  -0.0214766   0.0000206   0.0000133   0.0000038   0.0000058  -0.7735743   0.5763568
9.4285718    -1.0003963  -0.0217338  -0.0000051   0.0000095  -0.0000053  -0.0000121  -0.7711036   0.5794398
9.5444795    -1.0005121  -0.0220169   0.0000063   0.0000006  -0.0000082   0.0000062  -0.7685506   0.5825374
9.6618121    -1.0004649  -0.0221794   0.0000037   0.0000184   0.0000018  -0.0000043  -0.7660223   0.5856292
9.7805870    -1.0004325  -0.0224288   0.0000029   0.0000244   0.0000009   0.0000032  -0.7634060   0.5888029
9.9008221    -1.0004792  -0.0227280   0.0000031   0.0000020   0.0000039  -0.0000012  -0.7607542   0.5920226
10.0225353   -1.0005220  -0.0230203   0.0000160  -0.0000044  -0.0000049  -0.0000083  -0.7581033   0.5951324
10.1457447   -1.0004745  -0.0233782   0.0000005   0.0000125  -0.0000039  -0.0000058  -0.7553612   0.5984296
10.2704688   -1.0004343  -0.0235468  -0.0000068   0.0000102  -0.0000041  -0.0000085  -0.7526769   0.6017045
10.3967261   -1.0004865  -0.0238381  -0.0000080   0.0000014  -0.0000061  -0.0000066  -0.7498397   0.6050384
10.5245356   -1.0005013  -0.0242588   0.0000067   0.0000178  -0.0000079  -0.0000076  -0.7469667   0.6082174
10.6539162   -1.0004577  -0.0244359  -0.0000006   0.0000186   0.0000029   0.0000029  -0.7440703   0.6115378
10.7848873   -1.0005752  -0.0247065   0.0000038   0.0000088   0.0000005  -0.0000063  -0.7411368   0.6149778
10.9174685   -1.0005168  -0.0250223  -0.0000007   0.0000137  -0.0000070  -0.0000035  -0.7381281   0.6183689
11.0516796   -1.0005602  -0.0253436   0.0000005   0.0000173  -0.0000045   0.0000037  -0.7349763   0.6217995
11.1875405   -1.0005635  -0.0256052  -0.0000136   0.0000037   0.0000009  -0.0000076  -0.7319551   0.6253218
11.3250716   -1.0004584  -0.0259802   0.0000122   0.0000083  -0.0000013  -0.0000002  -0.7288001   0.6287838
11.4642934   -1.0004898  -0.0262747  -0.0000002   0.0000119  -0.0000070  -0.0000020  -0.7255736   0.6322627
11.6052267   -1.0004603  -0.0265182  -0.0000060   0.0000075  -0.0000104  -0.0000051  -0.7223402   0.6358978
11.7478926   -1.0005032  -0.0269186   0.0000195   0.0000196  -0.0000036   0.0000009  -0.7190147   0.6394037
11.8923122   -1.0005188  -0.0271867   0.0000032   0.0000351   0.0000007   0.0000002  -0.7156511   0.6429700
12.0385073   -1.0004672  -0.0276283  -0.0000019   0.0000145  -0.0000075  -0.0000003  -0.7121713   0.6466395
12.1864995   -1.0004532  -0.0278023  -0.0000053   0.0000231  -0.0000044  -0.0000095  -0.7086981   0.6502674
12.3363111   -1.0005506  -0.0281667  -0.0000049  -0.0000018  -0.0000098  -0.0000015  -0.7052440   0.6539590
12.4879643   -1.0004871  -0.0285285  -0.0000004   0.0000032  -0.0000047  -0.0000026  -0.7015574   0.6576797
12.6414818   -1.0005457  -0.0288238  -0.0000052   0.0000136   0.0000050  -0.0000068  -0.6978449   0.6613944
12.7968866   -1.0005958  -0.0292209   0.0000039   0.0000118   0.0000019  -0.0000131  -0.6941116   0.6651428
12.9542018   -1.0005406  -0.0296370   0.0000020   0.0000109   0.0000027   0.0000004  -0.6903715   0.6689079
13.1134509   -1.0005528  -0.0299287  -0.0000088   0.0000021  -0.0000100  -0.0000035  -0.6864955   0.6727020
13.2746577   -1.0005689  -0.0302862   0.0000028  -0.0000013  -0.0000033  -0.0000037  -0.6825288   0.6765492
13.4378462   -1.0004051  -0.0306179   0.0000037   0.0000197   0.0000116  -0.0000093  -0.6785797   0.6805044
13.6030409   -1.0005000  -0.0310079  -0.0000079   0.0000102   0.0000024  -0.0000091  -0.6744924   0.6843455
13.7702663   -1.0005640  -0.0314218   0.0000043   0.0000018  -0.0000078   0.0000053  -0.6703140   0.6882447
13.9395475   -1.0005103  -0.0317633   0.0000008   0.0000270  -0.0000009  -0.0000010  -0.6661352   0.6921232
14.1109097   -1.0003388  -0.0321642  -0.0000057   0.0000058  -0.0000038  -0.0000051  -0.6618006   0.6961022
14.2843785   -1.0005775  -0.0324469   0.0000074   0.0000163   0.0000052   0.0000030  -0.6574447   0.7000021
14.4599797   -1.0005922  -0.0329658   0.0000010   0.0000134   0.0000036  -0.0000067  -0.6530176   0.7040575
14.6377397   -1.0005417  -0.0333207   0.0000014   0.0000084  -0.0000093  -0.0000076  -0.6485291   0.7080584
14.8176850   -1.0005542  -0.0337234   0.0000106   0.0000099  -0.0000131   0.0000027  -0.6439510   0.7120446
14.9998423   -1.0004794  -0.0341586  -0.0000066   0.0000016  -0.0000022  -0.0000131  -0.6392536   0.7161155
15.1842390   -1.0005765  -0.0345241  -0.0000098   0.0000160  -0.0000130   0.0000049  -0.6344815   0.7202062
15.3709024   -1.0005919  -0.0349283   0.0000063   0.0000220  -0.0000048   0.0000017  -0.6297241   0.7242485
15.5598606   -1.0005322  -0.0352886   0.0000024   0.0000066  -0.0000054  -0.0000108  -0.6248621   0.7283607
15.7511417   -1.0005353  -0.0358249  -0.0000134   0.0000217   0.0000019  -0.0000063  -0.6198680   0.7325479
15.9447743   -1.0005195  -0.0361765   0.0000059   0.0000024   0.0000020  -0.0000005  -0.6148227   0.7366409
16.1407872   -1.0005071  -0.0366148   0.0000065   0.0000224  -0.0000153  -0.0000110  -0.6095775   0.7408179
16.3392097   -1.0004934  -0.0369957   0.0000063   0.0000183  -0.0000056   0.0000011  -0.6043237   0.7450111
16.5400716   -1.0004819  -0.0375163   0.0000012   0.0000196  -0.0000077   0.0000002  -0.5990279   0.7492048
16.7434026   -1.0005527  -0.0378727   0.0000041   0.0000118  -0.0000112  -0.0000024  -0.5935454   0.7533613
16.9492333   -1.0006346  -0.0383754   0.0000042   0.0000223   0.0000049   0.0000022  -0.5880423   0.7577115
17.1575942   -1.0005669  -0.0388820   0.0000038   0.0000190  -0.0000039   0.0000064  -0.5824226   0.7618352
17.3685166   -1.0005530  -0.0393478   0.0000055   0.0000105  -0.0000002   0.0000013  -0.5767305   0.7661086
17.5820320   -1.0005423  -0.0397389   0.0000066   0.0000292  -0.0000036  -0.0000010  -0.5708657   0.7702965
17.7981721   -1.0005390  -0.0403191  -0.0000062   0.0000209  -0.0000008  -0.0000063  -0.5649477   0.7746078
18.0169693   -1.0005206  -0.0407390   0.0000041   0.0000053  -0.0000148   0.0000015  -0.5589829   0.7788677
18.2384562   -1.0004731  -0.0412530   0.0000028   0.0000234  -0.0000088  -0.0000066  -0.5528978   0.7832294
18.4626659   -1.0003916  -0.0416977   0.0000041   0.0000101   0.0000017  -0.0000043  -0.5466180   0.7874117
18.6896319   -1.0005523  -0.0422944   0.0000077   0.0000101  -0.0000066   0.0000047  -0.5403799   0.7916946
18.9193880   -1.0004854  -0.0427208   0.0000036   0.0000208  -0.0000040  -0.0000020  -0.5338648   0.7960754
19.1519686   -1.0004853  -0.0432357   0.0000098   0.0000048   0.0000009  -0.0000067  -0.5272533   0.8003731
19.3874083   -1.0004773  -0.0437425   0.0000070   0.0000207  -0.0000090  -0.0000072  -0.5205907   0.8046701
19.6257423   -1.0004450  -0.0444273  -0.0000049   0.0000189  -0.0000034  -0.0000054  -0.5139282   0.8090026
19.8670063   -1.0004457  -0.0448707  -0.0000046   0.0000123  -0.0000003  -0.0000053  -0.5070653   0.8132444
20.1112361   -1.0003796  -0.0453125   0.0000029   0.0000310   0.0000014   0.0000039  -0.5000667   0.8175503
20.3584684   -1.0004290  -0.0459777   0.0000037   0.0000268  -0.0000109  -0.0000031  -0.4928451   0.8218131
20.6087399   -1.0004129  -0.0465426  -0.0000142   0.0000106   0.0000064  -0.0000074  -0.4856078   0.8260492
20.8620881   -1.0003947  -0.0469471  -0.0000111   0.0000193  -0.0000070   0.0000015  -0.4781752   0.8303917
21.1185507   -1.0004321  -0.0477626  -0.0000012   0.0000223  -0.0000055   0.0000029  -0.4706816   0.8346281
21.3781661   -1.0004008  -0.0480700   0.0000116   0.0000145  -0.0000035  -0.0000010  -0.4630449   0.8387695
21.6409730   -1.0004505  -0.0487595  -0.0000029   0.0000094  -0.0000039  -0.0000078  -0.4552968   0.8429882
21.9070107   -1.0004912  -0.0492729   0.0000115   0.0000219  -0.0000070   0.0000040  -0.4474480   0.8472129
22.1763188   -1.0003604  -0.0499764  -0.0000034   0.0000068  -0.0000040   0.0000040  -0.4393970   0.8514093
22.4489376   -1.0004661  -0.0505720   0.0000124   0.0000196  -0.0000043  -0.0000038  -0.4312338   0.8556008
22.7249077   -1.0003705  -0.0511475   0.0000027   0.0000194  -0.0000006  -0.0000028  -0.4229033   0.8597198
23.0042705   -1.0003437  -0.0517626   0.0000074   0.0000176  -0.0000025   0.0000032  -0.4144679   0.8638397
23.2870675   -1.0003999  -0.0523658  -0.0000018   0.0000196  -0.0000063   0.0000051  -0.4059703   0.8679089
23.5733409   -1.0002686  -0.0530802  -0.0000068   0.0000172  -0.0000101  -0.0000119  -0.3971808   0.8719871
23.8631337   -1.0003379  -0.0536432  -0.0000015   0.0000283  -0.0000095   0.0000009  -0.3882574   0.8759217
24.1564889   -1.0002629  -0.0543039   0.0000030   0.0000230  -0.0000145   0.0000020  -0.3793041   0.8799030
24.4534504   -1.0003155  -0.0549061   0.0000079   0.0000137  -0.0000039  -0.0000033  -0.3701540   0.8837846
24.7540625   -1.0001801  -0.0555642  -0.0000044   0.0000265  -0.0000011  -0.0000056  -0.3608652   0.8877116
25.0583701   -1.0002995  -0.0562738   0.0000105   0.0000283   0.0000015  -0.0000007  -0.3513553   0.8915770
25.3664186   -1.0002659  -0.0569682   0.0000074   0.0000146  -0.0000058  -0.0000061  -0.3416299   0.8953736
25.6782541   -1.0001356  -0.0576278   0.0000030   0.0000229   0.0000039  -0.0000031  -0.3318719   0.8991532
25.9939230   -1.0000355  -0.0582699   0.0000041   0.0000107  -0.0000041  -0.0000050  -0.3219447   0.9027781
26.3134725   -1.0000904  -0.0590859   0.0000023   0.0000214   0.0000036  -0.0000035  -0.3118192   0.9063520
26.6369503   -1.0000872  -0.0597610  -0.0000052   0.0000155  -0.0000030  -0.0000139  -0.3015927   0.9099376
26.9644047   -1.0001092  -0.0604210  -0.0000056   0.0000185   0.0000019   0.0000037  -0.2911556   0.9134289
27.2958846   -1.0000785  -0.0611416   0.0000012   0.0000223  -0.0000076   0.0000021  -0.2805167   0.9167797
27.6314394   -1.0000871  -0.0619337   0.0000038   0.0000227  -0.0000017  -0.0000051  -0.2698048   0.9201340
27.9711193   -1.0000922  -0.0626790   0.0000036   0.0000251   0.0000071  -0.0000031  -0.2588429   0.9232956
28.3149750   -0.9999923  -0.0633812  -0.0000063   0.0000206   0.0000039  -0.0000051  -0.2477763   0.9264440
28.6630578   -0.9999943  -0.0641601   0.0000087   0.0000318  -0.0000087  -0.0000003  -0.2365017   0.9294491
29.0154196   -0.9999607  -0.0649569   0.0000026   0.0000186  -0.0000064  -0.0000030  -0.2250419   0.9323611
29.3721131   -0.9999512  -0.0657421   0.0000164   0.0000172   0.0000014  -0.0000039  -0.2134533   0.9351741
29.7331915   -0.9999572  -0.0664473   0.0000003   0.0000309  -0.0000054  -0.0000036  -0.2016027   0.9379710
30.0987087   -0.9998846  -0.0673493   0.0000031   0.0000233  -0.0000033   0.0000123  -0.1897006   0.9405994
30.4687194   -0.9998872  -0.0680882   0.0000126   0.0000162  -0.0000021  -0.0000058  -0.1775500   0.9431766
30.8432786   -0.9998379  -0.0689228   0.0000028   0.0000127  -0.0000102   0.0000030  -0.1652043   0.9454509
31.2224424   -0.9998071  -0.0697533  -0.0000012   0.0000222   0.0000061   0.0000027  -0.1527992   0.9476807
31.6062674   -0.9997178  -0.0705919   0.0000034   0.0000214  -0.0000091  -0.0000072  -0.1400337   0.9498177
31.9948108   -0.9997519  -0.0714231   0.0000151   0.0000223   0.0000000   0.0000043  -0.1271896   0.9518871
32.3881306   -0.9997106  -0.0723030  -0.0000031   0.0000151  -0.0000007  -0.0000042  -0.1141830   0.9537462
32.7862857   -0.9996897  -0.0731114  -0.0000018   0.0000161  -0.0000070  -0.0000062  -0.1009629   0.9553778
33.1893353   -0.9997145  -0.0740655   0.0000044   0.0000158  -0.0000018  -0.0000006  -0.0875903   0.9570247
33.5973398   -0.9995022  -0.0748847  -0.0000055   0.0000230   0.0000037  -0.0000116  -0.0740442   0.9583378
34.0103599   -0.9996166  -0.0758177   0.0000050   0.0000320  -0.0000011   0.0000036  -0.0602129   0.9594876
34.4284574   -0.9994742  -0.0766346   0.0000191   0.0000251  -0.0000075  -0.0000028  -0.0465159   0.9606917
34.8516946   -0.9994615  -0.0776516   0.0000065   0.0000212  -0.0000053   0.0000028  -0.0322434   0.9616950
35.2801349   -0.9993387  -0.0785605   0.0000059   0.0000251  -0.0000032  -0.0000036  -0.0177784   0.9624635
35.7138420   -0.9994195  -0.0795461  -0.0000030   0.0000178  -0.0000069  -0.0000060  -0.0032039   0.9628964
36.1528808   -0.9992807  -0.0805352   0.0000041   0.0000161  -0.0000086  -0.0000063   0.0115347   0.9632563
36.5973168   -0.9992027  -0.0814788   0.0000105   0.0000149   0.0000000  -0.0000055   0.0264333   0.9633738
37.0472164   -0.9991672  -0.0825646  -0.0000107   0.0000215  -0.0000010  -0.0000025   0.0415912   0.9631242
37.5026467   -0.9991036  -0.0834558  -0.0000058   0.0000283   0.0000005  -0.0000051   0.0569194   0.9628974
37.9636757   -0.9990928  -0.0844526  -0.0000062   0.0000262  -0.0000025  -0.0000048   0.0726387   0.9619464
38.4303722   -0.9990417  -0.0855238  -0.0000076   0.0000245   0.0000012  -0.0000023   0.0881824   0.9611452
38.9028060   -0.9988846  -0.0865389   0.0000069   0.0000405   0.0000032   0.0000041   0.1040381   0.9599848
39.3810475   -0.9988978  -0.0875099   0.0000110   0.0000191  -0.0000019   0.0000034   0.1201362   0.9586652
39.8651681   -0.9988157  -0.0885394   0.0000179   0.0000439  -0.0000008   0.0000047   0.1362896   0.9569852
40.3552402   -0.9987197  -0.0895473   0.0000123   0.0000254   0.0000052   0.0000025   0.1527017   0.9550329
40.8513368   -0.9986462  -0.0906378   0.0000034   0.0000355  -0.0000009  -0.0000083   0.1693457   0.9526915
41.3535320   -0.9986200  -0.0917909  -0.0000139   0.0000259  -0.0000069  -0.0000035   0.1860114   0.9501695
41.8619009   -0.9985494  -0.0928559  -0.0000013   0.0000358  -0.0000012   0.0000013   0.2030277   0.9472720
42.3765193   -0.9984559  -0.0939454  -0.0000119   0.0000196   0.0000010  -0.0000008   0.2201222   0.9440599
42.8974639   -0.9983479  -0.0951228   0.0000047   0.0000306  -0.0000026   0.0000052   0.2373514   0.9404513
43.4248127   -0.9982844  -0.0963841   0.0000034   0.0000254   0.0000010  -0.0000060   0.2547651   0.9366341
43.9586443   -0.9981858  -0.0974680  -0.0000048   0.0000392   0.0000045  -0.0000092   0.2723270   0.9323410
44.4990385   -0.9981281  -0.0985317  -0.0000005   0.0000359  -0.0000060   0.0000010   0.2900678   0.9276746
45.0460758   -0.9979871  -0.0997170  -0.0000103   0.0000288   0.0000030   0.0000042   0.3079234   0.9226692
45.5998380   -0.9978222  -0.1009686  -0.0000029   0.0000307  -0.0000014  -0.0000026   0.3258964   0.9172927
46.1604077   -0.9978744  -0.1021664   0.0000014   0.0000210  -0.0000057  -0.0000096   0.3439905   0.9114112
46.7278686   -0.9978771  -0.1034802  -0.0000027   0.0000306  -0.0000078  -0.0000061   0.3622095   0.9051561
47.3023055   -0.9977113  -0.1046749  -0.0000011   0.0000315  -0.0000035   0.0000063   0.3805383   0.8984954
47.8838040   -0.9975828  -0.1059831  -0.0000115   0.0000318   0.0000035  -0.0000116   0.3990787   0.8913030
48.4724511   -0.9974511  -0.1072020   0.0000113   0.0000151  -0.0000043   0.0000037   0.4175483   0.8837820
49.0683345   -0.9973960  -0.1083961   0.0000229   0.0000366  -0.0000065   0.0000016   0.4362200   0.8757527
49.6715433   -0.9972921  -0.1096802   0.0000153   0.0000372  -0.0000056  -0.0000091   0.4548566   0.8672616
50.2821675   -0.9971734  -0.1110900   0.0000007   0.0000374  -0.0000049  -0.0000026   0.4737366   0.8581977
50.9002982   -0.9968994  -0.1124297   0.0000046   0.0000363  -0.0000001  -0.0000023   0.4925113   0.8486204
51.5260277   -0.9969154  -0.1137318   0.0000079   0.0000331   0.0000016  -0.0000145   0.5114078   0.8386844
52.1594495   -0.9968020  -0.1150618   0.0000012   0.0000351   0.0000007  -0.0000111   0.5302185   0.8281260
52.8006581   -0.9966123  -0.1164243  -0.0000027   0.0000316   0.0000019  -0.0000070   0.5491565   0.8169084
53.4497492   -0.9964592  -0.1178968   0.0000007   0.0000348   0.0000038  -0.0000035   0.5682259   0.8053365
54.1068198   -0.9963483  -0.1192895  -0.0000034   0.0000476   0.0000014  -0.0000070   0.5870810   0.7931806
54.7719678   -0.9961844  -0.1207951  -0.0000007   0.0000491  -0.0000080  -0.0000108   0.6059003   0.7804755
55.4452927   -0.9960284  -0.1221770  -0.0000077   0.0000357  -0.0000031   0.0000036   0.6248029   0.7668483
56.1268950   -0.9958936  -0.1237212   0.0000113   0.0000403  -0.0000012  -0.0000006   0.6436129   0.7528409
56.8168763   -0.9957788  -0.1251310  -0.0000061   0.0000407  -0.0000113  -0.0000002   0.6623330   0.7382715
57.5153398   -0.9955433  -0.1267363   0.0000036   0.0000451  -0.0000006  -0.0000099   0.6809259   0.7230836
58.2223896   -0.9953789  -0.1281422  -0.0000010   0.0000423   0.0000062  -0.0000063   0.6993919   0.7071741
58.9381314   -0.9952766  -0.1297449   0.0000034   0.0000365   0.0000077  -0.0000018   0.7177304   0.6906869
59.6626719   -0.9951778  -0.1312698  -0.0000012   0.0000393   0.0000018  -0.0000044   0.7358872   0.6734457
60.3961194   -0.9948961  -0.1328653  -0.0000136   0.0000480  -0.0000076  -0.0000076   0.7539451   0.6555725
61.1385834   -0.9947431  -0.1344125   0.0000042   0.0000338   0.0000077  -0.0000151   0.7717916   0.6369847
61.8901746   -0.9945583  -0.1360427  -0.0000096   0.0000510  -0.0000007  -0.0000055   0.7892939   0.6177425
62.6510053   -0.9943661  -0.1376732  -0.0000126   0.0000375  -0.0000042  -0.0000129   0.8065969   0.5978861
63.4211891   -0.9941821  -0.1391775   0.0000092   0.0000507  -0.0000005   0.0000010   0.8236544   0.5771804
64.2008409   -0.9940295  -0.1409536  -0.0000059   0.0000549  -0.0000013  -0.0000071   0.8403290   0.5559154
64.9900772   -0.9937236  -0.1426309  -0.0000001   0.0000383   0.0000060  -0.0000039   0.8567017   0.5338548
65.7890158   -0.9934925  -0.1442918  -0.0000003   0.0000331   0.0000066  -0.0000067   0.8726612   0.5111127
66.5977759   -0.9932741  -0.1460758  -0.0000091   0.0000513  -0.0000110   0.0000004   0.8881822   0.4875516
67.4164783   -0.9930369  -0.1477409   0.0000043   0.0000448   0.0000024  -0.0000098   0.9034119   0.4632958
68.2452452   -0.9929142  -0.1494797  -0.0000079   0.0000532  -0.0000016  -0.0000030   0.9180764   0.4384124
69.0842003   -0.9926371  -0.1511855   0.0000132   0.0000489  -0.0000021  -0.0000152   0.9322427   0.4127304
69.9334689   -0.9924140  -0.1531181  -0.0000096   0.0000526  -0.0000106  -0.0000085   0.9455765   0.3863505
70.7931778   -0.9920279  -0.1551676  -0.0000044   0.0000446   0.0000082  -0.0000021   0.9591080   0.3591561
71.6634552   -0.9917769  -0.1570921  -0.0000176   0.0000389  -0.0000035  -0.0000070   0.9716677   0.3310241
72.5444312   -0.9915413  -0.1587729   0.0000078   0.0000568   0.0000123   0.0000005   0.9836817   0.3023485
73.4362373   -0.9913073  -0.1608322  -0.0000037   0.0000414  -0.0000012  -0.0000107   0.9948434   0.2729349
74.3390065   -0.9910415  -0.1624485  -0.0000012   0.0000491   0.0000080  -0.0000129   1.0046945   0.2431284
75.2528737   -0.9906474  -0.1644630   0.0000001   0.0000332  -0.0000040  -0.0000102   1.0143737   0.2123149
76.1779753   -0.9904288  -0.1664123  -0.0000185   0.0000578  -0.0000051  -0.0000124   1.0232854   0.1808396
77.1144493   -0.9901943  -0.1684629  -0.0000002   0.0000399  -0.0000026  -0.0000045   1.0313023   0.1486103
78.0624357   -0.9897251  -0.1704134  -0.0000081   0.0000487  -0.0000029  -0.0000080   1.0384154   0.1157628
79.0220759   -0.9895269  -0.1725491   0.0000006   0.0000457   0.0000002  -0.0000036   1.0445212   0.0821697
79.9935132   -0.9890032  -0.1745647   0.0000024   0.0000515   0.0000041  -0.0000131   1.0496229   0.0480313
80.9768926   -0.9887911  -0.1765660  -0.0000141   0.0000619  -0.0000064  -0.0000116   1.0537186   0.0132410
81.9723609   -0.9883962  -0.1787731  -0.0000113   0.0000613   0.0000053  -0.0000071   1.0567157  -0.0222640
82.9800667   -0.9880633  -0.1808373  -0.0000033   0.0000578  -0.0000016  -0.0000180   1.0586042  -0.0582525
84.0001605   -0.9877299  -0.1829734  -0.0000023   0.0000604   0.0000053  -0.0000160   1.0593000  -0.0947391
85.0327946   -0.9873194  -0.1851574   0.0000010   0.0000617   0.0000022  -0.0000081   1.0586965  -0.1319093
86.0781231   -0.9869615  -0.1874068  -0.0000060   0.0000569   0.0000029  -0.0000101   1.0568105  -0.1694968
87.1363020   -0.9865068  -0.1896916   0.0000003   0.0000519   0.0000048  -0.0000041   1.0536046  -0.2074041
88.2074894   -0.9861594  -0.1918114  -0.0000004   0.0000579  -0.0000051  -0.0000155   1.0489040  -0.2458368
89.2918452   -0.9857596  -0.1941648  -0.0000033   0.0000562  -0.0000005  -0.0000021   1.0430306  -0.2849234
90.3895312   -0.9852199  -0.1963865  -0.0000079   0.0000588  -0.0000024  -0.0000180   1.0355088  -0.3237174
91.5007114   -0.9848552  -0.1987455  -0.0000141   0.0000608  -0.0000084  -0.0000163   1.0264270  -0.3630294
92.6255515   -0.9843842  -0.2011298   0.0000018   0.0000720  -0.0000034  -0.0000041   1.0155656  -0.4024850
93.7642195   -0.9839927  -0.2035804  -0.0000096   0.0000477  -0.0000052  -0.0000188   1.0031624  -0.4420937
94.9168855   -0.9834714  -0.2059328   0.0000044   0.0000514  -0.0000125  -0.0000104   0.9892346  -0.4818269
96.0837215   -0.9830200  -0.2083614   0.0000046   0.0000552  -0.0000039  -0.0000178   0.9734644  -0.5215695
97.2649017   -0.9825124  -0.2109025  -0.0000048   0.0000592  -0.0000004  -0.0000104   0.9559370  -0.5609835
98.4606024   -0.9819819  -0.2133688  -0.0000196   0.0000657  -0.0000038  -0.0000064   0.9365502  -0.6005025
99.6710021   -0.9814498  -0.2158446   0.0000081   0.0000545  -0.0000145  -0.0000062   0.9153443  -0.6396754
100.8962816  -0.9807829  -0.2184477   0.0000215   0.0000838  -0.0000102  -0.0000124   0.8922365  -0.6784421
102.1366237  -0.9803067  -0.2210522  -0.0000121   0.0000700   0.0000052  -0.0000179   0.8671283  -0.7166929
103.3922136  -0.9795757  -0.2237815  -0.0000019   0.0000580  -0.0000096  -0.0000112   0.8401955  -0.7544722
104.6632389  -0.9788778  -0.2263437   0.0000068   0.0000732  -0.0000105  -0.0000055   0.8113415  -0.7912682
105.9498891  -0.9779472  -0.2290755  -0.0000223   0.0000614  -0.0000069  -0.0000089   0.7803574  -0.8250929
107.2523564  -0.9784464  -0.2312962  -0.0000093   0.0000738  -0.0000016  -0.0000085   0.7458400  -0.8653272
108.5708353  -0.9778490  -0.2341664  -0.0000034   0.0000650  -0.0000106  -0.0000041   0.7121824  -0.8993932
109.9055225  -0.9753774  -0.2373681  -0.0000077   0.0000755   0.0000076  -0.0000064   0.6774515  -0.9319120
111.2566174  -0.9758115  -0.2399152   0.0000063   0.0000893  -0.0000017  -0.0000120   0.6366632  -0.9623526
112.6243216  -0.9752333  -0.2426212  -0.0000029   0.0000843   0.0000017  -0.0000150   0.5956314  -0.9930429
114.0088393  -0.9744845  -0.2456433  -0.0000077   0.0000659  -0.0000127  -0.0000032   0.5528684  -1.0220177
115.4103773  -0.9739869  -0.2485660   0.0000221   0.0000676  -0.0000076  -0.0000214   0.5080600  -1.0493846
116.8291446  -0.9732462  -0.2513947  -0.0000111   0.0000680   0.0000125  -0.0000049   0.4616156  -1.0748125
118.2653533  -0.9724304  -0.2542478  -0.0000181   0.0000853  -0.0000004  -0.0000118   0.4131618  -1.0983546
119.7192175  -0.9716333  -0.2572980   0.0000026   0.0000789  -0.0000147  -0.0000006   0.3630310  -1.1198741
121.1909545  -0.9708685  -0.2603323  -0.0000093   0.0000666  -0.0000096  -0.0000137   0.3112472  -1.1389094
122.6807839  -0.9701060  -0.2633650  -0.0000329   0.0000648  -0.0000186  -0.0000183   0.2578829  -1.1556283
124.1889281  -0.9691658  -0.2665533  -0.0000193   0.0000729   0.0000025  -0.0000021   0.2030196  -1.1697805
125.7156123  -0.9682954  -0.2695217  -0.0000159   0.0000856  -0.0000108  -0.0000053   0.1468018  -1.1813263
127.2610644  -0.9676116  -0.2726114  -0.0000169   0.0000804  -0.0000061  -0.0000096   0.0899457  -1.1898236
128.8255151  -0.9667016  -0.2757723  -0.0000139   0.0000886  -0.0000125  -0.0000101   0.0310541  -1.1954536
130.4091980  -0.9655937  -0.2789856  -0.0000074   0.0000750  -0.0000132  -0.0000125  -0.0282397  -1.1979713
132.0123495  -0.9647393  -0.2822042   0.0000000   0.0000764  -0.0000062  -0.0000027  -0.0885005  -1.1971293
133.6352088  -0.9637532  -0.2855867  -0.0000066   0.0000695  -0.0000239  -0.0000059  -0.1491135  -1.1931309
135.2780184  -0.9628462  -0.2889260  -0.0000038   0.0000896  -0.0000031  -0.0000057  -0.2103454  -1.1854267
136.9410235  -0.9615908  -0.2922238  -0.0000208   0.0000940  -0.0000093  -0.0000137  -0.2717939  -1.1740384
138.6244722  -0.9606021  -0.2956938  -0.0000071   0.0000662  -0.0000096  -0.0000023  -0.3330388  -1.1591738
140.3286160  -0.9595601  -0.2989622  -0.0000207   0.0001051  -0.0000127  -0.0000127  -0.3943408  -1.1406394
142.0537093  -0.9584523  -0.3023877   0.0000085   0.0000720  -0.0000183  -0.0000196  -0.4577303  -1.1193078
143.8000095  -0.9575243  -0.3057658  -0.0000228   0.0000737  -0.0000058   0.0000000  -0.5114804  -1.0920313
145.5677774  -0.9560717  -0.3096722   0.0000015   0.0000928   0.0000058  -0.0000122  -0.5686752  -1.0596310
147.3572769  -0.9549892  -0.3130435  -0.0000099   0.0000933  -0.0000021  -0.0000169  -0.6296031  -1.0274029
149.1687752  -0.9539937  -0.3167441  -0.0000231   0.0000730   0.0000015  -0.0000091  -0.6842854  -0.9897038
151.0025426  -0.9525098  -0.3202017   0.0000021   0.0000806  -0.0000053  -0.0000193  -0.7376444  -0.9478988
152.8588530  -0.9517040  -0.3239135  -0.0000084   0.0001044  -0.0000013  -0.0000092  -0.7884430  -0.9023780
154.7379834  -0.9502325  -0.3276978  -0.0000393   0.0000820  -0.0000086  -0.0000110  -0.8368112  -0.8532143
156.6402144  -0.9487628  -0.3313966  -0.0000131   0.0000885  -0.0000084  -0.0000061  -0.8822036  -0.8005717
158.5658301  -0.9474687  -0.3352687  -0.0000402   0.0000820  -0.0000037   0.0000147  -0.9241073  -0.7445390
160.5151177  -0.9460594  -0.3390460   0.0000027   0.0000946   0.0000014  -0.0000065  -0.9630209  -0.6849737
162.4883685  -0.9449936  -0.3429295  -0.0000162   0.0000909   0.0000013  -0.0000028  -0.9967976  -0.6237559
164.4858769  -0.9431369  -0.3467715  -0.0000262   0.0001260   0.0000046  -0.0000033  -1.0278789  -0.5582318
166.5079411  -0.9417415  -0.3505569  -0.0000314   0.0000944  -0.0000070  -0.0000102  -1.0539276  -0.4910024
168.5548630  -0.9401398  -0.3547382   0.0000103   0.0001026  -0.0000107   0.0000016  -1.0755896  -0.4214285
170.6269483  -0.9386934  -0.3584594   0.0000090   0.0001015  -0.0000006  -0.0000172  -1.0920161  -0.3500769
172.7245062  -0.9368460  -0.3625276  -0.0000456   0.0001150   0.0000046  -0.0000030  -1.1035268  -0.2774294
174.8478498  -0.9354313  -0.3667829  -0.0000098   0.0001103   0.0000061  -0.0000036  -1.1094082  -0.2032648
176.9972963  -0.9336334  -0.3707124   0.0000075   0.0001140   0.0000235  -0.0000062  -1.1102204  -0.1277967
179.1731664  -0.9326997  -0.3783669  -0.0000203   0.0001157  -0.0000187  -0.0000088  -1.1019377  -0.0580540
181.3757850  -0.9310827  -0.3792609  -0.0000472   0.0001033  -0.0000020  -0.0000058  -1.0923748   0.0172629
183.6054809  -0.9283667  -0.3835838   0.0000047   0.0000995  -0.0000115  -0.0000014  -1.0773858   0.0954521
185.8625870  -0.9265398  -0.3876801  -0.0000233   0.0000972  -0.0000271  -0.0000083  -1.0548059   0.1676861
188.1474402  -0.9249192  -0.3921337  -0.0000342   0.0001300  -0.0000045  -0.0000041  -1.0266452   0.2388777
190.4603817  -0.9226337  -0.3964760  -0.0000406   0.0001425  -0.0000241  -0.0000166  -0.9928692   0.3077410
192.8017567  -0.9207595  -0.4008972  -0.0000316   0.0000823   0.0000113  -0.0000080  -0.9528826   0.3737659
195.1719148  -0.9186452  -0.4052990  -0.0000232   0.0001261  -0.0000411   0.0000164  -0.9079903   0.4365081
197.5712099  -0.9166746  -0.4093644  -0.0000001   0.0001150   0.0000064  -0.0000064  -0.8584258   0.4960860
200.0000000  -0.9155424  -0.4140079  -0.0000295   0.0001424  -0.0000129  -0.0000066  -0.8026131   0.5505821
