! ListType=Log
# MHZ S RI R 50
0.0010000    -0.9981704  -0.0003445  -0.0002136   0.0002275  -0.0000115  -0.0000299  -0.9088780   0.2599563
0.0010123    -0.9976802  -0.0005867   0.0001533  -0.0000356   0.0000121  -0.0000287  -0.9094622   0.2603417
0.0010247    -0.9979525   0.0003528  -0.0000148   0.0001941  -0.0000157   0.0000266  -0.9095897   0.2591301
0.0010373    -0.9982685  -0.0005194   0.0000788  -0.0001390  -0.0000085  -0.0000056  -0.9097936   0.2598523
0.0010501    -0.9986611  -0.0003551   0.0001921   0.0001744  -0.0000136  -0.0000118  -0.9091506   0.2596915
0.0010630    -0.9980974  -0.0005724   0.0003797   0.0001133   0.0000229   0.0000125  -0.9105505   0.2595735
0.0010761    -0.9976840   0.0000225   0.0002892   0.0003777  -0.0000149   0.0000095  -0.9107037   0.2587981
0.0010893    -0.9982505  -0.0006189   0.0001312   0.0002041   0.0000198  -0.0000037  -0.9110865   0.2599258
0.0011027    -0.9978626  -0.0002746  -0.0000076  -0.0001110   0.0000030  -0.0000187  -0.9110775   0.2587990
0.0011162    -0.9976087   0.0003535   0.0004894   0.0000508  -0.0000056   0.0000030  -0.9120701   0.2584382
0.0011300    -0.9983046  -0.0000315   0.0002454   0.0003202  -0.0000259  -0.0000173  -0.9112969   0.2587179
0.0011439    -0.9976774  -0.0002565   0.0003870   0.0001758   0.0000190  -0.0000020  -0.9120502   0.2590832
0.0011579    -0.9981025   0.0001398   0.0001651  -0.0000852  -0.0000080   0.0000011  -0.9120575   0.2578675
0.0011721    -0.9977775  -0.0001665   0.0004219   0.0000471   0.0000114  -0.0000118  -0.9124015   0.2585311
0.0011866    -0.9983541  -0.0001595   0.0001275   0.0000873  -0.0000454  -0.0000152  -0.9122040   0.2582435
0.0012011    -0.9979375  -0.0002083   0.0002885   0.0002650  -0.0000151   0.0000003  -0.9128818   0.2582597
0.0012159    -0.9978256  -0.0003407   0.0000292   0.0001873   0.0000208   0.0000031  -0.9136437   0.2584854
0.0012309    -0.9980135   0.0000883   0.0000355   0.0000090   0.0000094   0.0000109  -0.9137401   0.2577885
0.0012460    -0.9981664  -0.0000367   0.0001356   0.0001266  -0.0000062  -0.0000060  -0.9134154   0.2581256
0.0012613    -0.9976954  -0.0002697   0.0001995   0.0002708   0.0000269  -0.0000021  -0.9147353   0.2579363
0.0012768    -0.9981675  -0.0001582   0.0002850   0.0001492  -0.0000207   0.0000053  -0.9141770   0.2576231
0.0012925    -0.9979877  -0.0008060   0.0000413  -0.0001114   0.0000140   0.0000076  -0.9151106   0.2580592
0.0013084    -0.9980938   0.0002387   0.0001122   0.0002209  -0.0000049   0.0000097  -0.9149123   0.2575421
0.0013245    -0.9977188  -0.0005855   0.0002191  -0.0000617   0.0000181  -0.0000016  -0.9155488   0.2580240
0.0013408    -0.9981948  -0.0000214   0.0001102   0.0003573   0.0000024  -0.0000096  -0.9153819   0.2572752
0.0013572    -0.9978853  -0.0004590   0.0003279   0.0001160   0.0000187   0.0000077  -0.9163567   0.2576933
0.0013739    -0.9981237  -0.0001797  -0.0001137   0.0002588   0.0000133   0.0000164  -0.9162218   0.2575399
0.0013908    -0.9974917  -0.0005220   0.0000834   0.0001768   0.0000136   0.0000045  -0.9169530   0.2576089
0.0014079    -0.9982725  -0.0000946   0.0001342   0.0001225  -0.0000214  -0.0000005  -0.9167295   0.2573538
0.0014252    -0.9976466  -0.0005187   0.0001915  -0.0000105   0.0000186   0.0000247  -0.9176592   0.2572531
0.0014427    -0.9982067  -0.0002547   0.0001685   0.0000846  -0.0000097  -0.0000156  -0.9173659   0.2571991
0.0014605    -0.9977635  -0.0004668   0.0001904   0.0001292   0.0000009  -0.0000180  -0.9180822   0.2573986
0.0014784    -0.9983124   0.0001141   0.0002681   0.0000700  -0.0000049   0.0000082  -0.9178605   0.2569127
0.0014966    -0.9979886  -0.0001731   0.0002793   0.0001552   0.0000002  -0.0000287  -0.9186111   0.2574162
0.0015150    -0.9979720  -0.0002494   0.0000936   0.0001709   0.0000270   0.0000241  -0.9189818   0.2573396
0.0015336    -0.9977629  -0.0001112   0.0001436   0.0001356  -0.0000074  -0.0000028  -0.9190102   0.2570696
0.0015525    -0.9983910  -0.0002854   0.0002580   0.0001948  -0.0000076  -0.0000167  -0.9190290   0.2573496
0.0015716    -0.9980241  -0.0003332   0.0001129  -0.0000493   0.0000126  -0.0000211  -0.9196280   0.2571869
0.0015909    -0.9979636  -0.0004940   0.0002812   0.0000718   0.0000100  -0.0000345  -0.9199847   0.2575694
0.0016104    -0.9980510  -0.0001329   0.0002270   0.0001375  -0.0000243   0.0000094  -0.9203199   0.2569523
0.0016302    -0.9985117  -0.0003623   0.0002243   0.0001945   0.0000135  -0.0000063  -0.9203642   0.2573044
0.0016503    -0.9978825  -0.0002361   0.0002690   0.0001283   0.0000088  -0.0000100  -0.9213751   0.2574882
0.0016706    -0.9980165  -0.0000047   0.0001923   0.0001703   0.0000033  -0.0000045  -0.9211996   0.2574022
0.0016911    -0.9978708   0.0000288   0.0003074   0.0001227  -0.0000210  -0.0000159  -0.9218180   0.2570958
0.0017119    -0.9979997  -0.0004922   0.0003478   0.0001441  -0.0000161  -0.0000298  -0.9218589   0.2574357
0.0017329    -0.9975957  -0.0006756   0.0002236   0.0002077  -0.0000031   0.0000134  -0.9220861   0.2573962
0.0017542    -0.9981145  -0.0002982   0.0002219   0.0002485   0.0000071   0.0000175  -0.9225671   0.2571541
0.0017758    -0.9981472  -0.0005696   0.0002349   0.0000504  -0.0000018  -0.0000029  -0.9227763   0.2574617
0.0017976    -0.9979432  -0.0000299   0.0001579   0.0000987   0.0000059  -0.0000063  -0.9233452   0.2574793
0.0018197    -0.9981315   0.0002261   0.0001727   0.0000908  -0.0000150  -0.0000040  -0.9231438   0.2573279
0.0018421    -0.9978244  -0.0003004   0.0000800   0.0001033   0.0000151  -0.0000070  -0.9238326   0.2577191
0.0018648    -0.9980195  -0.0001410   0.0002268   0.0000751  -0.0000028   0.0000040  -0.9239003   0.2574820
0.0018877    -0.9982932  -0.0001814   0.0002770   0.0000660  -0.0000105  -0.0000158  -0.9239804   0.2577066
0.0019109    -0.9979195  -0.0002962   0.0002780   0.0002031  -0.0000036   0.0000066  -0.9248491   0.2579357
0.0019344    -0.9979836  -0.0002869   0.0001857   0.0000909  -0.0000050  -0.0000064  -0.9247153   0.2577397
0.0019582    -0.9981431  -0.0002800   0.0002533  -0.0000255   0.0000018  -0.0000051  -0.9248236   0.2579512
0.0019822    -0.9981107  -0.0003682   0.0000937   0.0001422   0.0000061   0.0000007  -0.9256894   0.2580907
0.0020066    -0.9982075  -0.0001383   0.0000986   0.0001708   0.0000030   0.0000010  -0.9257598   0.2582423
0.0020313    -0.9979338  -0.0003407   0.0002628   0.0000999   0.0000072   0.0000076  -0.9261621   0.2581689
0.0020562    -0.9978308  -0.0000672   0.0000636   0.0002396  -0.0000161  -0.0000018  -0.9265384   0.2580705
0.0020815    -0.9978662  -0.0003545   0.0002839   0.0001802   0.0000003  -0.0000015  -0.9265952   0.2584793
0.0021071    -0.9979441  -0.0002125   0.0002896   0.0002294  -0.0000104  -0.0000033  -0.9270215   0.2585237
0.0021330    -0.9980989  -0.0002788   0.0002314   0.0001584  -0.0000010  -0.0000229  -0.9272019   0.2587586
0.0021592    -0.9978646  -0.0004888   0.0002940   0.0000351  -0.0000025  -0.0000190  -0.9277383   0.2588852
0.0021858    -0.9979535  -0.0002064   0.0001237   0.0002014  -0.0000026  -0.0000044  -0.9279115   0.2586740
0.0022126    -0.9981497  -0.0004596   0.0002206   0.0000721  -0.0000054  -0.0000144  -0.9280733   0.2590422
0.0022398    -0.9980733  -0.0003696   0.0003068   0.0001225  -0.0000122   0.0000062  -0.9283379   0.2590142
0.0022674    -0.9981876  -0.0002569   0.0001543   0.0001228   0.0000047  -0.0000181  -0.9287816   0.2593020
0.0022953    -0.9979132  -0.0004085   0.0002029   0.0000766   0.0000060  -0.0000025  -0.9290308   0.2594769
0.0023235    -0.9979496  -0.0003801   0.0002336   0.0001205  -0.0000061  -0.0000002  -0.9294341   0.2594680
0.0023520    -0.9983280  -0.0001733   0.0002190   0.0000895  -0.0000078  -0.0000054  -0.9292532   0.2594361
0.0023809    -0.9979057  -0.0003383   0.0002295   0.0000976  -0.0000079   0.0000077  -0.9299422   0.2596373
0.0024102    -0.9981290  -0.0003331   0.0002030   0.0001847   0.0000131   0.0000064  -0.9298942   0.2598229
0.0024398    -0.9979246  -0.0002084   0.0002811   0.0000944   0.0000033   0.0000032  -0.9303333   0.2599209
0.0024698    -0.9980271  -0.0002835   0.0002199   0.0001239   0.0000079  -0.0000170  -0.9305707   0.2602177
0.0025002    -0.9981949  -0.0002936   0.0002297   0.0001414  -0.0000013  -0.0000042  -0.9307198   0.2603729
0.0025309    -0.9981538  -0.0003976   0.0002588   0.0001380  -0.0000087  -0.0000112  -0.9309336   0.2606611
0.0025621    -0.9981188  -0.0005056   0.0002356   0.0000503   0.0000070  -0.0000087  -0.9313972   0.2606534
0.0025935    -0.9979292  -0.0003595   0.0002049   0.0001458  -0.0000057  -0.0000035  -0.9316742   0.2605261
0.0026254    -0.9980445  -0.0000171   0.0002010   0.0002257  -0.0000042  -0.0000026  -0.9317934   0.2605545
0.0026577    -0.9982428  -0.0002552   0.0001919   0.0000863  -0.0000107  -0.0000105  -0.9319015   0.2609742
0.0026904    -0.9980587  -0.0003604   0.0002629   0.0001042  -0.0000128  -0.0000062  -0.9320964   0.2613407
0.0027235    -0.9979452  -0.0001659   0.0001951   0.0001092  -0.0000013  -0.0000137  -0.9327563   0.2611832
0.0027569    -0.9980727  -0.0000185   0.0002028   0.0000690  -0.0000088  -0.0000033  -0.9327095   0.2612955
0.0027908    -0.9982916  -0.0004684   0.0001906   0.0001218   0.0000059  -0.0000083  -0.9327881   0.2617246
0.0028251    -0.9980408  -0.0003143   0.0003008   0.0000594   0.0000069   0.0000018  -0.9332618   0.2618815
0.0028599    -0.9980780  -0.0001857   0.0002957   0.0000977  -0.0000022   0.0000010  -0.9334185   0.2618729
0.0028950    -0.9980782  -0.0001079   0.0002295   0.0001361   0.0000031   0.0000025  -0.9336124   0.2618484
0.0029306    -0.9981906  -0.0001792   0.0002514   0.0001123  -0.0000042  -0.0000190  -0.9337557   0.2620064
0.0029666    -0.9980624  -0.0001260   0.0002158   0.0001734   0.0000131  -0.0000065  -0.9339990   0.2622600
0.0030031    -0.9983428  -0.0002671   0.0002320   0.0001206  -0.0000049   0.0000133  -0.9341076   0.2625548
0.0030400    -0.9981719  -0.0003328   0.0002628   0.0000981  -0.0000027  -0.0000165  -0.9343379   0.2628196
0.0030774    -0.9981630  -0.0002631   0.0002598   0.0001092  -0.0000097  -0.0000045  -0.9345217   0.2629743
0.0031152    -0.9982081  -0.0002770   0.0003219   0.0001097   0.0000102   0.0000018  -0.9348862   0.2629809
0.0031535    -0.9983391  -0.0003579   0.0002320   0.0000447  -0.0000035  -0.0000120  -0.9349260   0.2633534
0.0031923    -0.9982299  -0.0004290   0.0003067   0.0000749   0.0000126  -0.0000124  -0.9353236   0.2634966
0.0032315    -0.9978489  -0.0002888   0.0002364   0.0001043  -0.0000004  -0.0000064  -0.9355121   0.2636469
0.0032713    -0.9982140  -0.0002669   0.0002837   0.0001197   0.0000023  -0.0000089  -0.9356770   0.2636865
0.0033115    -0.9982598  -0.0002629   0.0002263   0.0001149   0.0000084  -0.0000006  -0.9357024   0.2639999
0.0033522    -0.9980164  -0.0002564   0.0002517   0.0001004  -0.0000109  -0.0000057  -0.9360229   0.2644064
0.0033934    -0.9981767  -0.0002128   0.0002786   0.0001330   0.0000014   0.0000021  -0.9362628   0.2642656
0.0034351    -0.9979913  -0.0002666   0.0002787   0.0001258  -0.0000013   0.0000084  -0.9364516   0.2645556
0.0034773    -0.9981553  -0.0001261   0.0002644   0.0000923   0.0000084  -0.0000086  -0.9364323   0.2647053
0.0035201    -0.9980846  -0.0002889   0.0002871   0.0000676   0.0000056  -0.0000029  -0.9367876   0.2648143
0.0035634    -0.9982258  -0.0001604   0.0002552   0.0000997   0.0000070  -0.0000048  -0.9368663   0.2649771
0.0036072    -0.9982488  -0.0002999   0.0002679   0.0000396  -0.0000008  -0.0000046  -0.9369396   0.2652301
0.0036515    -0.9981626  -0.0000498   0.0002302   0.0000811  -0.0000051   0.0000044  -0.9372120   0.2655556
0.0036964    -0.9982293  -0.0001741   0.0002395   0.0001436  -0.0000114   0.0000007  -0.9371598   0.2658447
0.0037418    -0.9981927  -0.0001647   0.0002108   0.0000579   0.0000014  -0.0000077  -0.9373776   0.2659021
0.0037878    -0.9982576  -0.0002754   0.0001809   0.0000652   0.0000009  -0.0000191  -0.9374859   0.2660117
0.0038344    -0.9982589  -0.0003331   0.0002608   0.0000465   0.0000059  -0.0000063  -0.9376847   0.2663411
0.0038815    -0.9981335  -0.0002241   0.0002759   0.0000346  -0.0000009   0.0000041  -0.9378065   0.2664228
0.0039293    -0.9983134  -0.0002716   0.0002699   0.0000935   0.0000049  -0.0000071  -0.9379777   0.2663981
0.0039776    -0.9982008  -0.0002516   0.0002660   0.0000544  -0.0000018  -0.0000120  -0.9381920   0.2668196
0.0040265    -0.9982043  -0.0000630   0.0003065   0.0001969   0.0000000   0.0000014  -0.9383100   0.2667670
0.0040759    -0.9982332  -0.0001631   0.0002152   0.0000829  -0.0000007   0.0000008  -0.9384242   0.2671272
0.0041261    -0.9981724  -0.0001413   0.0002718   0.0000362   0.0000015  -0.0000048  -0.9385339   0.2672093
0.0041768    -0.9981978  -0.0001760   0.0002575   0.0000392  -0.0000009   0.0000009  -0.9387328   0.2675105
0.0042281    -0.9981322  -0.0000776   0.0002503   0.0000437   0.0000064  -0.0000054  -0.9388509   0.2677209
0.0042801    -0.9981951  -0.0001916   0.0002392   0.0000546   0.0000041  -0.0000002  -0.9389324   0.2679158
0.0043327    -0.9981890  -0.0004522   0.0002962   0.0000771  -0.0000035  -0.0000042  -0.9390299   0.2683019
0.0043860    -0.9982391  -0.0001785   0.0002771   0.0000773  -0.0000025   0.0000091  -0.9392749   0.2683077
0.0044399    -0.9982731  -0.0001428   0.0002613   0.0000734   0.0000007  -0.0000043  -0.9393379   0.2684832
0.0044945    -0.9981367  -0.0000871   0.0002514   0.0000618  -0.0000065  -0.0000034  -0.9394909   0.2686169
0.0045497    -0.9982131  -0.0001564   0.0002238   0.0000429  -0.0000109  -0.0000034  -0.9394766   0.2688047
0.0046057    -0.9983691  -0.0001537   0.0002590   0.0000318  -0.0000053   0.0000049  -0.9395575   0.2689400
0.0046623    -0.9982903  -0.0001928   0.0002633   0.0000380   0.0000035  -0.0000071  -0.9395089   0.2692334
0.0047196    -0.9982734  -0.0001828   0.0002837   0.0000443  -0.0000083  -0.0000009  -0.9398293   0.2694102
0.0047776    -0.9981971  -0.0002859   0.0002814   0.0001030   0.0000065  -0.0000104  -0.9398891   0.2695281
0.0048363    -0.9984961  -0.0002261   0.0002700   0.0000732   0.0000003  -0.0000094  -0.9399332   0.2697804
0.0048958    -0.9982988  -0.0002143   0.0003042   0.0000220  -0.0000047  -0.0000137  -0.9400721   0.2700554
0.0049560    -0.9982154  -0.0001073   0.0002660   0.0000594  -0.0000099  -0.0000067  -0.9402632   0.2701632
0.0050169    -0.9981964  -0.0000806   0.0002725   0.0000630  -0.0000178   0.0000051  -0.9403351   0.2701639
0.0050786    -0.9983702  -0.0001221   0.0002357   0.0000757   0.0000062   0.0000011  -0.9403187   0.2703988
0.0051410    -0.9982057  -0.0000989   0.0002836  -0.0000087  -0.0000039  -0.0000105  -0.9404152   0.2706001
0.0052042    -0.9979795  -0.0004020   0.0002579   0.0000175   0.0000035  -0.0000032  -0.9405021   0.2708001
0.0052682    -0.9981546  -0.0003304   0.0002868   0.0000372   0.0000060  -0.0000054  -0.9406327   0.2710467
0.0053330    -0.9980834  -0.0003132   0.0002751   0.0000573  -0.0000089  -0.0000088  -0.9406896   0.2711812
0.0053985    -0.9981664  -0.0002764   0.0002473   0.0000754  -0.0000131  -0.0000073  -0.9407775   0.2713440
0.0054649    -0.9982144  -0.0002113   0.0002511   0.0000314   0.0000164  -0.0000018  -0.9409076   0.2714998
0.0055321    -0.9982830  -0.0002330   0.0002608   0.0000434  -0.0000015  -0.0000112  -0.9409565   0.2716945
0.0056001    -0.9981429  -0.0002670   0.0002651   0.0000736   0.0000146   0.0000031  -0.9411138   0.2719386
0.0056689    -0.9982839  -0.0002264   0.0002518   0.0000565  -0.0000082  -0.0000200  -0.9411273   0.2720064
0.0057386    -0.9983307  -0.0002121   0.0002806   0.0000484   0.0000036  -0.0000155  -0.9411893   0.2721200
0.0058091    -0.9981782  -0.0001651   0.0002593  -0.0000070   0.0000022   0.0000047  -0.9411386   0.2723728
0.0058806    -0.9982642  -0.0000696   0.0002738   0.0000785  -0.0000013  -0.0000061  -0.9411190   0.2724188
0.0059529    -0.9982615  -0.0001478   0.0002983   0.0000615  -0.0000054  -0.0000104  -0.9412062   0.2727041
0.0060260    -0.9983049  -0.0000863   0.0002632   0.0000308  -0.0000053  -0.0000183  -0.9412507   0.2727098
0.0061001    -0.9982169  -0.0003756   0.0002599   0.0000790  -0.0000142  -0.0000055  -0.9413455   0.2729546
0.0061751    -0.9983591  -0.0001899   0.0002697   0.0000491   0.0000003   0.0000049  -0.9413314   0.2731470
0.0062510    -0.9983716  -0.0002514   0.0003047   0.0000312  -0.0000030  -0.0000002  -0.9415101   0.2732916
0.0063279    -0.9980704  -0.0002621   0.0002920   0.0000683  -0.0000043  -0.0000012  -0.9416430   0.2734560
0.0064056    -0.9982226  -0.0003299   0.0002907   0.0000305   0.0000044  -0.0000061  -0.9416371   0.2736081
0.0064844    -0.9982803  -0.0001663   0.0002958   0.0000216   0.0000000  -0.0000076  -0.9416977   0.2736701
0.0065641    -0.9983592  -0.0001638   0.0002751   0.0000487  -0.0000063  -0.0000193  -0.9415242   0.2737903
0.0066448    -0.9981757  -0.0000290   0.0002613   0.0000241   0.0000005  -0.0000093  -0.9416728   0.2739591
0.0067265    -0.9982640  -0.0003103   0.0002997   0.0000069  -0.0000082   0.0000041  -0.9417777   0.2741424
0.0068092    -0.9981802  -0.0000866   0.0002758   0.0000308   0.0000036   0.0000010  -0.9418365   0.2743665
0.0068929    -0.9981199  -0.0003790   0.0002753   0.0000310   0.0000128  -0.0000086  -0.9418909   0.2744498
0.0069776    -0.9981802  -0.0001159   0.0002827   0.0000173   0.0000024  -0.0000116  -0.9420478   0.2746782
0.0070634    -0.9982838  -0.0002074   0.0002719   0.0000266   0.0000023  -0.0000052  -0.9419420   0.2748400
0.0071502    -0.9983620  -0.0001642   0.0002641   0.0000400   0.0000031  -0.0000154  -0.9419125   0.2748555
0.0072381    -0.9983505  -0.0001324   0.0002861   0.0000215  -0.0000033  -0.0000122  -0.9418756   0.2750367
0.0073271    -0.9981527  -0.0002165   0.0002719   0.0000624  -0.0000089  -0.0000030  -0.9420109   0.2752536
0.0074172    -0.9982477  -0.0002693   0.0002835   0.0000401   0.0000121  -0.0000083  -0.9421284   0.2753567
0.0075084    -0.9982039  -0.0001959   0.0002747   0.0000230   0.0000064  -0.0000108  -0.9421577   0.2755385
0.0076007    -0.9982350  -0.0001139   0.0002701   0.0000200   0.0000004  -0.0000116  -0.9421461   0.2756577
0.0076941    -0.9984517  -0.0000021   0.0002750   0.0000109  -0.0000021   0.0000084  -0.9421786   0.2759126
0.0077887    -0.9983856  -0.0001552   0.0002544   0.0000570   0.0000107  -0.0000020  -0.9421820   0.2759312
0.0078844    -0.9982220  -0.0002142   0.0003107   0.0000103  -0.0000035  -0.0000018  -0.9422685   0.2760016
0.0079814    -0.9983736  -0.0001872   0.0002278   0.0000127   0.0000006  -0.0000059  -0.9422404   0.2762762
0.0080795    -0.9982950  -0.0001406   0.0002764   0.0000411   0.0000058  -0.0000034  -0.9423989   0.2763341
0.0081788    -0.9983032  -0.0002758   0.0002570   0.0000128  -0.0000045   0.0000043  -0.9422137   0.2765218
0.0082793    -0.9982616  -0.0001393   0.0002611  -0.0000037  -0.0000005  -0.0000093  -0.9423942   0.2765888
0.0083811    -0.9983500  -0.0002254   0.0002848   0.0000449  -0.0000037   0.0000070  -0.9423573   0.2767983
0.0084842    -0.9983274  -0.0000947   0.0002696   0.0000466  -0.0000016   0.0000005  -0.9423313   0.2768930
0.0085885    -0.9983425   0.0000101   0.0002879   0.0000339   0.0000015  -0.0000070  -0.9424398   0.2769427
0.0086940    -0.9982459  -0.0002375   0.0002643   0.0000311   0.0000127  -0.0000141  -0.9423699   0.2771411
0.0088009    -0.9983696  -0.0002099   0.0002768   0.0000031   0.0000002   0.0000062  -0.9423860   0.2772914
0.0089091    -0.9982892  -0.0002239   0.0002662   0.0000389   0.0000024  -0.0000112  -0.9423989   0.2774866
0.0090186    -0.9982019  -0.0001738   0.0002536   0.0000367  -0.0000090  -0.0000046  -0.9424998   0.2774735
0.0091295    -0.9983350  -0.0001250   0.0002938   0.0000112   0.0000055  -0.0000005  -0.9425199   0.2777457
0.0092417    -0.9983007  -0.0001184   0.0002996   0.0000484   0.0000093  -0.0000054  -0.9424069   0.2777833
0.0093553    -0.9983322  -0.0001143   0.0002711  -0.0000079   0.0000041  -0.0000095  -0.9424297   0.2779104
0.0094703    -0.9981939  -0.0001217   0.0002857   0.0000209   0.0000006   0.0000108  -0.9425230   0.2779699
0.0095868    -0.9982911  -0.0001079   0.0002740   0.0000125  -0.0000033  -0.0000074  -0.9424579   0.2781670
0.0097046    -0.9981891  -0.0001542   0.0002520   0.0000201  -0.0000017   0.0000127  -0.9425030   0.2781965
0.0098239    -0.9983063  -0.0000650   0.0002732   0.0000068  -0.0000008   0.0000001  -0.9425577   0.2783250
0.0099447    -0.9982054  -0.0001263   0.0002722   0.0000073  -0.0000004  -0.0000051  -0.9425478   0.2783615
0.0100669    -0.9982555  -0.0001146   0.0002664   0.0000103  -0.0000093  -0.0000186  -0.9425242   0.2785836
0.0101907    -0.9983192  -0.0001744   0.0002251   0.0000023  -0.0000033  -0.0000092  -0.9425358   0.2786114
0.0103160    -0.9981957  -0.0002069   0.0002327  -0.0000281   0.0000116  -0.0000083  -0.9425019   0.2787091
0.0104428    -0.9983211  -0.0001004   0.0002550  -0.0000162  -0.0000035   0.0000003  -0.9425838   0.2789201
0.0105712    -0.9984113  -0.0000185   0.0002474   0.0000588   0.0000088   0.0000015  -0.9425830   0.2789347
0.0107011    -0.9982967  -0.0001977   0.0002687   0.0000134   0.0000044  -0.0000051  -0.9426090   0.2791118
0.0108327    -0.9983614  -0.0000653   0.0002806   0.0000277   0.0000012  -0.0000062  -0.9425325   0.2791449
0.0109658    -0.9983954  -0.0001834   0.0002784  -0.0000073  -0.0000070  -0.0000045  -0.9426464   0.2792784
0.0111006    -0.9982242  -0.0000893   0.0002712   0.0000257  -0.0000041  -0.0000068  -0.9426136   0.2795289
0.0112371    -0.9982327  -0.0000685   0.0002620   0.0000153  -0.0000054   0.0000003  -0.9426557   0.2794251
0.0113752    -0.9981939  -0.0001157   0.0003198  -0.0000245  -0.0000107   0.0000007  -0.9425597   0.2795968
0.0115151    -0.9983763  -0.0001046   0.0002452  -0.0000220   0.0000003  -0.0000004  -0.9427017   0.2798539
0.0116566    -0.9981943  -0.0001277   0.0003148  -0.0000025  -0.0000025  -0.0000093  -0.9425976   0.2797545
0.0117999    -0.9983229  -0.0002011   0.0002720  -0.0000137  -0.0000078  -0.0000039  -0.9426702   0.2800117
0.0119450    -0.9954298   0.0003999   0.0002034  -0.0000233  -0.0000012   0.0000006  -0.9434624   0.2782170
0.0120918    -0.9982696  -0.0000487   0.0002930   0.0000152   0.0000006  -0.0000104  -0.9426943   0.2801527
0.0122405    -0.9981232  -0.0000921   0.0002774   0.0000240  -0.0000107   0.0000039  -0.9427471   0.2801706
0.0123910    -0.9983609  -0.0001390   0.0002618  -0.0000268  -0.0000042  -0.0000100  -0.9426088   0.2804391
0.0125433    -0.9982600  -0.0002530   0.0003625  -0.0000038  -0.0000016   0.0000043  -0.9427097   0.2803775
0.0126975    -0.9984000  -0.0000835   0.0003399   0.0000019  -0.0000036  -0.0000023  -0.9425424   0.2804387
0.0128536    -0.9982835  -0.0001339   0.0002340   0.0000133   0.0000036  -0.0000033  -0.9426407   0.2806492
0.0130116    -0.9982790  -0.0002951   0.0003288   0.0000992   0.0000031   0.0000037  -0.9426215   0.2806846
0.0131716    -0.9982220  -0.0001250   0.0002909   0.0000373  -0.0000045   0.0000010  -0.9426642   0.2806807
0.0133335    -0.9983704   0.0000504   0.0001630  -0.0000256  -0.0000017  -0.0000095  -0.9425145   0.2809397
0.0134974    -0.9983670  -0.0001028   0.0002944   0.0000784   0.0000014  -0.0000020  -0.9425677   0.2809175
0.0136633    -0.9982851  -0.0000677   0.0002607  -0.0000482   0.0000013  -0.0000062  -0.9426221   0.2811150
0.0138313    -0.9984538  -0.0000374   0.0003887   0.0000266  -0.0000014  -0.0000050  -0.9425397   0.2811490
0.0140013    -0.9983171  -0.0001102   0.0002613  -0.0000251  -0.0000043  -0.0000027  -0.9426175   0.2812854
0.0141734    -0.9982865  -0.0001009   0.0004890  -0.0000696  -0.0000133  -0.0000052  -0.9426482   0.2814176
0.0143477    -0.9983201  -0.0001316   0.0002534   0.0004152   0.0000019  -0.0000050  -0.9426134   0.2813920
0.0145240    -0.9983576  -0.0001641   0.0002590   0.0001616   0.0000018   0.0000028  -0.9426510   0.2814696
0.0147026    -0.9982784  -0.0000984   0.0002720   0.0000457   0.0000098  -0.0000082  -0.9425887   0.2815431
0.0148833    -0.9982432  -0.0001439   0.0003132  -0.0000285  -0.0000038  -0.0000085  -0.9425701   0.2817147
0.0150663    -0.9983397  -0.0001583   0.0002765  -0.0000104   0.0000025  -0.0000094  -0.9425500   0.2817628
0.0152515    -0.9983255  -0.0000751   0.0002871  -0.0000084  -0.0000064  -0.0000097  -0.9425577   0.2819218
0.0154390    -0.9982378  -0.0000708   0.0002343   0.0000641  -0.0000151   0.0000062  -0.9425825   0.2819117
0.0156288    -0.9983191  -0.0001763   0.0002219  -0.0000278  -0.0000092  -0.0000074  -0.9426634   0.2819290
0.0158209    -0.9982285  -0.0001284   0.0003313  -0.0000293  -0.0000031  -0.0000088  -0.9425187   0.2819562
0.0160154    -0.9983017  -0.0001455   0.0002667  -0.0000421   0.0000012  -0.0000067  -0.9425096   0.2821765
0.0162123    -0.9983510  -0.0001131   0.0003098  -0.0000128  -0.0000041  -0.0000005  -0.9424733   0.2823458
0.0164116    -0.9982708  -0.0000314   0.0003147  -0.0000223   0.0000020  -0.0000133  -0.9425390   0.2823374
0.0166134    -0.9983324  -0.0001367   0.0002683  -0.0000112   0.0000025   0.0000024  -0.9424725   0.2825105
0.0168176    -0.9982812  -0.0000133   0.0001847  -0.0000277   0.0000023  -0.0000011  -0.9425681   0.2824212
0.0170243    -0.9984094  -0.0000883   0.0004376   0.0000075  -0.0000044  -0.0000021  -0.9425075   0.2825839
0.0172336    -0.9984213  -0.0000491   0.0002944  -0.0000086   0.0000039  -0.0000065  -0.9424701   0.2825693
0.0174455    -0.9982345  -0.0001397   0.0003114   0.0000499  -0.0000069   0.0000054  -0.9424511   0.2826684
0.0176599    -0.9983443  -0.0002027   0.0002332   0.0000472  -0.0000030  -0.0000096  -0.9424459   0.2827776
0.0178770    -0.9983832  -0.0000140   0.0003402  -0.0000155  -0.0000056   0.0000042  -0.9424224   0.2829245
0.0180968    -0.9983544  -0.0001281   0.0003740   0.0000647  -0.0000086  -0.0000035  -0.9424302   0.2828374
0.0183193    -0.9984023  -0.0001487   0.0001504  -0.0000267   0.0000087  -0.0000044  -0.9424509   0.2830002
0.0185445    -0.9982247  -0.0000582   0.0002472  -0.0000499   0.0000103  -0.0000060  -0.9424455   0.2830423
0.0187724    -0.9982898  -0.0000530   0.0002305  -0.0000556   0.0000036   0.0000011  -0.9423371   0.2830841
0.0190032    -0.9982498  -0.0000994   0.0006063   0.0004088  -0.0000030  -0.0000051  -0.9424280   0.2831313
0.0192368    -0.9982963  -0.0000616   0.0009364   0.0000167   0.0000020   0.0000008  -0.9425254   0.2832695
0.0194733    -0.9984993  -0.0000785   0.0001838  -0.0000052   0.0000098  -0.0000044  -0.9424154   0.2833488
0.0197127    -0.9983362  -0.0000102   0.0002124  -0.0001905  -0.0000072  -0.0000149  -0.9423865   0.2834325
0.0199550    -0.9983338  -0.0000003   0.0003586  -0.0000222  -0.0000085  -0.0000115  -0.9424142   0.2834576
0.0202003    -0.9984198   0.0000004   0.0001997  -0.0000028  -0.0000027  -0.0000121  -0.9424186   0.2834956
0.0204487    -0.9983139  -0.0001049   0.0001611  -0.0000744  -0.0000126  -0.0000027  -0.9423482   0.2836018
0.0207001    -0.9983001  -0.0000019   0.0003413  -0.0000326  -0.0000050  -0.0000153  -0.9422820   0.2836091
0.0209545    -0.9982787   0.0000211   0.0002549   0.0000099  -0.0000042  -0.0000062  -0.9422991   0.2836966
0.0212121    -0.9983542  -0.0000550   0.0002739  -0.0000260   0.0000013   0.0000014  -0.9422630   0.2838958
0.0214729    -0.9982747  -0.0000863   0.0002710   0.0000724  -0.0000082  -0.0000137  -0.9423046   0.2839225
0.0217369    -0.9982003  -0.0001513   0.0002620  -0.0000345   0.0000177  -0.0000012  -0.9422967   0.2839207
0.0220041    -0.9984262  -0.0001213   0.0003184  -0.0000423  -0.0000034  -0.0000052  -0.9423316   0.2839710
0.0222746    -0.9982584  -0.0001621   0.0002855  -0.0000527   0.0000044  -0.0000094  -0.9421834   0.2840686
0.0225484    -0.9983671  -0.0001650   0.0002775  -0.0000131  -0.0000069   0.0000029  -0.9421589   0.2840821
0.0228256    -0.9984080  -0.0001143   0.0002802  -0.0000329  -0.0000015   0.0000000  -0.9422130   0.2841121
0.0231062    -0.9981550  -0.0001610   0.0002516  -0.0000124  -0.0000071  -0.0000067  -0.9422103   0.2841453
0.0233902    -0.9983917   0.0000033   0.0003114   0.0000040  -0.0000062   0.0000041  -0.9421501   0.2842650
0.0236778    -0.9983090  -0.0001446   0.0002722  -0.0000322   0.0000026  -0.0000065  -0.9421274   0.2843437
0.0239689    -1.0001651  -0.0013218   0.0002786  -0.0000178  -0.0000034  -0.0000028  -0.9431943   0.2849166
0.0242635    -0.9983906  -0.0001001   0.0003139  -0.0000199   0.0000020  -0.0000015  -0.9421554   0.2844378
0.0245618    -0.9982489  -0.0000026   0.0002587   0.0000023  -0.0000175  -0.0000006  -0.9420997   0.2845678
0.0248637    -0.9983283  -0.0001368   0.0002773  -0.0000227  -0.0000010  -0.0000011  -0.9421057   0.2846436
0.0251694    -0.9983419  -0.0000760   0.0002586  -0.0000400  -0.0000045  -0.0000092  -0.9421237   0.2846718
0.0254788    -0.9983099  -0.0000520   0.0002508   0.0000183  -0.0000051  -0.0000060  -0.9420106   0.2847303
0.0257920    -0.9984148  -0.0001323   0.0002723  -0.0000366   0.0000011  -0.0000116  -0.9420984   0.2848583
0.0261091    -0.9983305  -0.0001180   0.0002516  -0.0000172   0.0000032  -0.0000093  -0.9419308   0.2848252
0.0264301    -0.9983805  -0.0000396   0.0002703  -0.0000208   0.0000051  -0.0000114  -0.9420806   0.2849199
0.0267550    -0.9983000  -0.0001194   0.0002699  -0.0000454  -0.0000017   0.0000036  -0.9419236   0.2849455
0.0270839    -0.9983760  -0.0000947   0.0002797  -0.0000240  -0.0000150  -0.0000070  -0.9420152   0.2849370
0.0274168    -0.9982489  -0.0001220   0.0002571  -0.0000137  -0.0000071  -0.0000091  -0.9419723   0.2849874
0.0277539    -0.9983539  -0.0000933   0.0002745  -0.0000170  -0.0000055  -0.0000124  -0.9418585   0.2850718
0.0280951    -0.9982868  -0.0000816   0.0002728  -0.0000128  -0.0000084  -0.0000131  -0.9418695   0.2851680
0.0284404    -0.9983194  -0.0000844   0.0002827  -0.0000393  -0.0000050  -0.0000027  -0.9418926   0.2852433
0.0287901    -0.9984320  -0.0000875   0.0002506  -0.0000126  -0.0000104  -0.0000071  -0.9419360   0.2851845
0.0291440    -0.9984221  -0.0000266   0.0002564  -0.0000496   0.0000046  -0.0000088  -0.9418947   0.2853351
0.0295023    -0.9983824  -0.0000834   0.0002584  -0.0000331   0.0000158   0.0000033  -0.9418181   0.2853636
0.0298649    -0.9983522  -0.0000889   0.0002515  -0.0000064   0.0000090  -0.0000008  -0.9418149   0.2853996
0.0302321    -0.9982596  -0.0002445   0.0002805  -0.0000415   0.0000043  -0.0000058  -0.9417208   0.2854923
0.0306037    -0.9982247  -0.0000962   0.0002889  -0.0000136  -0.0000045  -0.0000008  -0.9417143   0.2855678
0.0309799    -0.9983647  -0.0000576   0.0002491  -0.0000768  -0.0000045   0.0000013  -0.9418265   0.2855831
0.0313608    -0.9983201  -0.0000634   0.0002712  -0.0000009   0.0000041  -0.0000197  -0.9417779   0.2856653
0.0317463    -0.9982672  -0.0001569   0.0002689  -0.0000041  -0.0000047   0.0000050  -0.9416988   0.2857371
0.0321366    -0.9983925  -0.0001524   0.0002062   0.0000179   0.0000041  -0.0000031  -0.9417880   0.2857474
0.0325316    -0.9982615   0.0000046   0.0002639  -0.0000566   0.0000030  -0.0000159  -0.9416747   0.2858300
0.0329316    -0.9982998  -0.0001342   0.0003458   0.0000122   0.0000071  -0.0000175  -0.9416642   0.2859160
0.0333364    -0.9984710  -0.0000875   0.0002877  -0.0000552   0.0000033  -0.0000037  -0.9416956   0.2859965
0.0337462    -0.9984492  -0.0000994   0.0002787  -0.0001144   0.0000003   0.0000066  -0.9415459   0.2858363
0.0341610    -0.9983918  -0.0001076   0.0002068  -0.0000063   0.0000031  -0.0000018  -0.9415890   0.2860550
0.0345810    -0.9984687  -0.0001544   0.0002754  -0.0000329   0.0000025  -0.0000054  -0.9415994   0.2860402
0.0350061    -0.9984420  -0.0000588   0.0002830  -0.0000800   0.0000041   0.0000028  -0.9416480   0.2861025
0.0354365    -0.9983505  -0.0000738   0.0002954  -0.0000861   0.0000008  -0.0000113  -0.9415532   0.2862356
0.0358721    -0.9983721  -0.0001677   0.0002192  -0.0000393   0.0000027   0.0000040  -0.9415274   0.2861881
0.0363131    -0.9983441  -0.0000509   0.0002002  -0.0001061  -0.0000035  -0.0000022  -0.9415787   0.2862180
0.0367595    -0.9984173  -0.0000601   0.0002918  -0.0000206  -0.0000029  -0.0000134  -0.9414277   0.2863980
0.0372114    -0.9984010  -0.0000429   0.0002048  -0.0000302   0.0000021  -0.0000147  -0.9414660   0.2864445
0.0376688    -0.9982154  -0.0000985   0.0002797   0.0000700  -0.0000015  -0.0000004  -0.9414265   0.2864517
0.0381319    -0.9983248  -0.0002909   0.0004687  -0.0000446  -0.0000009  -0.0000148  -0.9414994   0.2864761
0.0386006    -0.9983060  -0.0001430   0.0003408  -0.0000972  -0.0000001  -0.0000062  -0.9414738   0.2866139
0.0390752    -0.9984363  -0.0001118   0.0002380  -0.0000360   0.0000058  -0.0000044  -0.9413666   0.2865701
0.0395555    -0.9983329  -0.0001028   0.0002830  -0.0000149  -0.0000018  -0.0000008  -0.9413887   0.2866159
0.0400418    -0.9984547  -0.0001133   0.0002587  -0.0000747  -0.0000059  -0.0000090  -0.9414225   0.2867169
0.0405340    -0.9983223  -0.0001489   0.0002660  -0.0000821   0.0000032  -0.0000083  -0.9413678   0.2866962
0.0410323    -0.9983539  -0.0001435   0.0002729  -0.0000679   0.0000113  -0.0000063  -0.9412536   0.2867964
0.0415368    -0.9983246  -0.0000485   0.0002570  -0.0000494  -0.0000101   0.0000046  -0.9413906   0.2868516
0.0420474    -0.9983226  -0.0001106   0.0002488  -0.0000409  -0.0000032  -0.0000059  -0.9413047   0.2867908
0.0425643    -0.9984641  -0.0001192   0.0002599  -0.0000561   0.0000041  -0.0000041  -0.9412317   0.2868349
0.0430875    -0.9982452  -0.0001730   0.0002582  -0.0000560   0.0000041  -0.0000004  -0.9413051   0.2869693
0.0436172    -0.9982967  -0.0000346   0.0002443  -0.0000767  -0.0000077  -0.0000074  -0.9412355   0.2870156
0.0441534    -0.9982259  -0.0002125   0.0002674  -0.0000571   0.0000004  -0.0000073  -0.9411886   0.2871031
0.0446962    -0.9983540  -0.0000319   0.0002656  -0.0000640  -0.0000045  -0.0000057  -0.9411981   0.2871376
0.0452457    -0.9983259  -0.0001992   0.0002709  -0.0000583   0.0000028  -0.0000074  -0.9411458   0.2871384
0.0458019    -0.9984153  -0.0001976   0.0002580  -0.0000717   0.0000017  -0.0000085  -0.9411226   0.2871739
0.0463649    -0.9983362  -0.0002116   0.0002577  -0.0000503   0.0000098   0.0000013  -0.9410879   0.2872438
0.0469349    -0.9983197  -0.0002036   0.0002765  -0.0000825  -0.0000076  -0.0000056  -0.9410962   0.2873527
0.0475119    -0.9982774  -0.0001980   0.0002633  -0.0000547   0.0000017  -0.0000071  -0.9410704   0.2873649
0.0480960    -0.9982408  -0.0001165   0.0002640  -0.0000676  -0.0000044  -0.0000019  -0.9409973   0.2874680
0.0486872    -0.9983413  -0.0001513   0.0002686  -0.0000577  -0.0000129  -0.0000110  -0.9409651   0.2874875
0.0492857    -0.9982461  -0.0001764   0.0002595  -0.0000718  -0.0000002  -0.0000042  -0.9409461   0.2875644
0.0498916    -0.9982881  -0.0001627   0.0002587  -0.0000750  -0.0000045  -0.0000018  -0.9408737   0.2876173
0.0505050    -0.9983542  -0.0000990   0.0002745  -0.0000641  -0.0000103  -0.0000166  -0.9409469   0.2876108
0.0511258    -0.9983608  -0.0002638   0.0002265  -0.0001315  -0.0000017  -0.0000074  -0.9409396   0.2877756
0.0517543    -0.9984050  -0.0001847   0.0002555  -0.0000603  -0.0000078  -0.0000062  -0.9409543   0.2877150
0.0523906    -0.9983340  -0.0002264   0.0002515  -0.0000556   0.0000057  -0.0000072  -0.9408638   0.2877875
0.0530346    -0.9983651  -0.0000347   0.0002592  -0.0000709   0.0000032  -0.0000115  -0.9408033   0.2878187
0.0536866    -0.9984010  -0.0002239   0.0002453   0.0000000  -0.0000095  -0.0000167  -0.9408350   0.2878571
0.0543466    -0.9983032  -0.0001738   0.0002490  -0.0000324  -0.0000052  -0.0000006  -0.9407425   0.2878680
0.0550146    -0.9983382  -0.0001391   0.0002675  -0.0000617  -0.0000055  -0.0000045  -0.9407686   0.2879192
0.0556910    -0.9983000  -0.0001361   0.0002288  -0.0000789  -0.0000121  -0.0000102  -0.9406990   0.2879734
0.0563756    -0.9982186  -0.0001685   0.0002656  -0.0000131   0.0000018  -0.0000108  -0.9407175   0.2881117
0.0570686    -0.9983625  -0.0001568   0.0002518  -0.0000581   0.0000006  -0.0000166  -0.9406780   0.2881488
0.0577702    -0.9982805  -0.0001435   0.0002191  -0.0001564  -0.0000013  -0.0000054  -0.9406106   0.2882546
0.0584804    -0.9983021  -0.0001740   0.0002895  -0.0000535   0.0000011  -0.0000075  -0.9405687   0.2881916
0.0591993    -0.9983220  -0.0001674   0.0002285  -0.0001005   0.0000087   0.0000003  -0.9405477   0.2882490
0.0599270    -0.9982757  -0.0001794   0.0002392  -0.0000802   0.0000084  -0.0000020  -0.9406534   0.2883762
0.0606637    -0.9982586  -0.0001754   0.0002437  -0.0000798  -0.0000008  -0.0000084  -0.9404613   0.2883609
0.0614095    -0.9983351  -0.0001120   0.0002367  -0.0000793  -0.0000130   0.0000009  -0.9405219   0.2883972
0.0621644    -0.9983411  -0.0000845   0.0002415  -0.0000521  -0.0000010  -0.0000074  -0.9405535   0.2885076
0.0629286    -0.9983321  -0.0001500   0.0002457  -0.0000710  -0.0000052  -0.0000012  -0.9404398   0.2884878
0.0637022    -0.9983578  -0.0001708   0.0002512  -0.0000978   0.0000020  -0.0000046  -0.9403573   0.2886245
0.0644853    -0.9984066  -0.0002451   0.0002197  -0.0000909  -0.0000014  -0.0000039  -0.9404157   0.2886764
0.0652780    -0.9983487  -0.0001706   0.0002223  -0.0000937   0.0000039  -0.0000084  -0.9403190   0.2886986
0.0660805    -0.9984294  -0.0000724   0.0002502  -0.0000826  -0.0000050  -0.0000067  -0.9402917   0.2888275
0.0668928    -0.9984032  -0.0001336   0.0002315  -0.0000989  -0.0000128  -0.0000122  -0.9402203   0.2888212
0.0677152    -0.9983749  -0.0001634   0.0002263  -0.0000840   0.0000000  -0.0000112  -0.9402024   0.2888230
0.0685476    -0.9982538  -0.0000661   0.0002144  -0.0000940  -0.0000072  -0.0000117  -0.9401862   0.2888922
0.0693903    -0.9983280  -0.0001616   0.0002567  -0.0000847  -0.0000004  -0.0000041  -0.9401122   0.2890172
0.0702433    -0.9984077  -0.0002249   0.0002281  -0.0000822  -0.0000029   0.0000041  -0.9401311   0.2890242
0.0711068    -0.9983267  -0.0001679   0.0002115  -0.0000986   0.0000037  -0.0000059  -0.9400895   0.2890692
0.0719810    -0.9983245  -0.0001799   0.0002120  -0.0001056  -0.0000091   0.0000050  -0.9400307   0.2890734
0.0728659    -0.9982967  -0.0000625   0.0002287  -0.0000624   0.0000052  -0.0000014  -0.9399982   0.2891921
0.0737616    -0.9983967  -0.0002469   0.0002159  -0.0000987  -0.0000012   0.0000004  -0.9399166   0.2892475
0.0746684    -0.9984252  -0.0001997   0.0002211  -0.0000811   0.0000073  -0.0000086  -0.9399425   0.2892933
0.0755863    -0.9983968  -0.0002379   0.0002255  -0.0001351  -0.0000051  -0.0000018  -0.9398644   0.2893296
0.0765155    -0.9983754  -0.0001716   0.0002487  -0.0000819  -0.0000040  -0.0000102  -0.9398543   0.2893451
0.0774561    -0.9983997  -0.0002232   0.0001923  -0.0001222   0.0000021  -0.0000132  -0.9397228   0.2894283
0.0784083    -0.9983450  -0.0001965   0.0002067  -0.0000853   0.0000033   0.0000006  -0.9396576   0.2894038
0.0793722    -0.9981556  -0.0001620   0.0002177  -0.0001123  -0.0000042  -0.0000104  -0.9396161   0.2895158
0.0803479    -0.9984369  -0.0002918   0.0002063  -0.0001049   0.0000014  -0.0000099  -0.9396115   0.2895176
0.0813357    -0.9983368  -0.0003538   0.0002049  -0.0000929  -0.0000006  -0.0000007  -0.9394970   0.2895606
0.0823356    -0.9982928  -0.0002838   0.0002005  -0.0000865  -0.0000053  -0.0000076  -0.9394075   0.2896695
0.0833477    -0.9982560  -0.0002542   0.0002037  -0.0000878   0.0000061  -0.0000029  -0.9393761   0.2896456
0.0843723    -0.9984060  -0.0002252   0.0001996  -0.0000956   0.0000086  -0.0000037  -0.9393115   0.2897923
0.0854095    -0.9984051  -0.0003734   0.0001839  -0.0000893  -0.0000026  -0.0000074  -0.9392051   0.2896720
0.0864595    -0.9983114  -0.0001888   0.0001956  -0.0000972  -0.0000029   0.0000073  -0.9391912   0.2898053
0.0875224    -0.9983529  -0.0002848   0.0002011  -0.0001122   0.0000034  -0.0000104  -0.9391330   0.2897833
0.0885983    -0.9983185  -0.0002555   0.0002149  -0.0001188  -0.0000022  -0.0000038  -0.9390844   0.2898074
0.0896875    -0.9982803  -0.0002659   0.0002158  -0.0001043   0.0000089  -0.0000091  -0.9389901   0.2898603
0.0907900    -0.9982443  -0.0003100   0.0002230  -0.0001240  -0.0000058  -0.0000009  -0.9389029   0.2897670
0.0919061    -0.9984525  -0.0002674   0.0001876  -0.0001352   0.0000026   0.0000009  -0.9387465   0.2898359
0.0930359    -0.9982805  -0.0003153   0.0002149  -0.0000889   0.0000012   0.0000016  -0.9387368   0.2897206
0.0941797    -0.9982309  -0.0003040   0.0001931  -0.0001096   0.0000025   0.0000095  -0.9386642   0.2897788
0.0953374    -0.9982843  -0.0002856   0.0002156  -0.0001046  -0.0000047   0.0000036  -0.9386589   0.2896874
0.0965094    -0.9983373  -0.0002568   0.0002090  -0.0000965   0.0000008  -0.0000022  -0.9385277   0.2897067
0.0976959    -0.9983932  -0.0003051   0.0001568  -0.0001285   0.0000064  -0.0000051  -0.9385353   0.2896980
0.0988969    -0.9982496  -0.0004370   0.0002101  -0.0001029  -0.0000068  -0.0000015  -0.9384663   0.2896201
0.1001126    -0.9982631  -0.0003267   0.0001956  -0.0000873  -0.0000042  -0.0000113  -0.9384273   0.2896009
0.1013433    -0.9983283  -0.0003400   0.0001879  -0.0001056  -0.0000066  -0.0000005  -0.9384162   0.2895283
0.1025892    -0.9982816  -0.0003993   0.0002079  -0.0001137  -0.0000089  -0.0000156  -0.9383242   0.2894642
0.1038503    -0.9982717  -0.0004012   0.0001987  -0.0000975  -0.0000061   0.0000026  -0.9383898   0.2893628
0.1051270    -0.9984142  -0.0004178   0.0001736  -0.0000954  -0.0000042   0.0000032  -0.9384645   0.2893710
0.1064193    -0.9983349  -0.0004487   0.0001795  -0.0000947  -0.0000009  -0.0000043  -0.9385210   0.2892712
0.1077276    -0.9983774  -0.0003385   0.0001789  -0.0001087  -0.0000010   0.0000042  -0.9385561   0.2893075
0.1090519    -0.9984544  -0.0003812   0.0001615  -0.0001001   0.0000081   0.0000023  -0.9386699   0.2891948
0.1103925    -0.9984398  -0.0003922   0.0001851  -0.0000857  -0.0000053  -0.0000082  -0.9386504   0.2892372
0.1117496    -0.9984006  -0.0003759   0.0001609  -0.0001094   0.0000070  -0.0000009  -0.9387449   0.2892651
0.1131233    -0.9983886  -0.0003264   0.0001818  -0.0001031  -0.0000109  -0.0000063  -0.9388706   0.2892237
0.1145140    -0.9983912  -0.0004273   0.0001948  -0.0000978  -0.0000020  -0.0000139  -0.9389367   0.2893050
0.1159217    -0.9984715  -0.0003627   0.0001616  -0.0000935  -0.0000058  -0.0000006  -0.9389502   0.2893045
0.1173468    -0.9983620  -0.0004840   0.0001814  -0.0001164   0.0000043  -0.0000100  -0.9390159   0.2893834
0.1187893    -0.9984046  -0.0003605   0.0001845  -0.0001141  -0.0000015  -0.0000112  -0.9391408   0.2894386
0.1202497    -0.9984163  -0.0004898   0.0001684  -0.0001253  -0.0000076  -0.0000202  -0.9391425   0.2894774
0.1217279    -0.9984610  -0.0003477   0.0001554  -0.0000880   0.0000047   0.0000067  -0.9391774   0.2895602
0.1232243    -0.9983409  -0.0003494   0.0001539  -0.0000731  -0.0000059  -0.0000097  -0.9393238   0.2897100
0.1247392    -0.9984505  -0.0002925   0.0001600  -0.0001064  -0.0000005  -0.0000021  -0.9393441   0.2897610
0.1262726    -0.9984683  -0.0003081   0.0001789  -0.0001141  -0.0000082  -0.0000107  -0.9393835   0.2898578
0.1278249    -0.9983947  -0.0003915   0.0001698  -0.0001182  -0.0000011  -0.0000062  -0.9393711   0.2899272
0.1293963    -0.9983349  -0.0004240   0.0001452  -0.0001268  -0.0000038  -0.0000042  -0.9394349   0.2900448
0.1309870    -0.9984557  -0.0003172   0.0001687  -0.0001021   0.0000004  -0.0000140  -0.9394403   0.2901690
0.1325973    -0.9983795  -0.0004047   0.0001461  -0.0001106  -0.0000006   0.0000020  -0.9394429   0.2901727
0.1342273    -0.9983705  -0.0004755   0.0001544  -0.0001239  -0.0000030  -0.0000066  -0.9395119   0.2902830
0.1358774    -0.9984269  -0.0004694   0.0001684  -0.0000988  -0.0000045   0.0000028  -0.9394840   0.2904587
0.1375478    -0.9983577  -0.0004300   0.0001533  -0.0001013   0.0000041  -0.0000011  -0.9395102   0.2904983
0.1392387    -0.9983072  -0.0003743   0.0001617  -0.0001132  -0.0000016  -0.0000030  -0.9394896   0.2906542
0.1409504    -0.9984568  -0.0004325   0.0001627  -0.0001010  -0.0000098  -0.0000030  -0.9395416   0.2907525
0.1426831    -0.9983570  -0.0004256   0.0001434  -0.0001051  -0.0000051  -0.0000032  -0.9395182   0.2907696
0.1444371    -0.9983846  -0.0005072   0.0001674  -0.0001002   0.0000040  -0.0000025  -0.9394529   0.2909111
0.1462127    -0.9984821  -0.0005093   0.0001268  -0.0000933   0.0000011  -0.0000080  -0.9395321   0.2910522
0.1480102    -0.9984153  -0.0003593   0.0001446  -0.0001005  -0.0000016  -0.0000117  -0.9394888   0.2911476
0.1498297    -0.9984357  -0.0004186   0.0001514  -0.0000985  -0.0000046   0.0000006  -0.9394295   0.2911965
0.1516716    -0.9984551  -0.0005247   0.0001393  -0.0001053  -0.0000031   0.0000037  -0.9394114   0.2913293
0.1535361    -0.9982912  -0.0004254   0.0001366  -0.0001090  -0.0000056  -0.0000089  -0.9394468   0.2914228
0.1554236    -0.9983623  -0.0004391   0.0001359  -0.0001022   0.0000006   0.0000022  -0.9394299   0.2915906
0.1573342    -0.9983883  -0.0003916   0.0001434  -0.0000964  -0.0000109  -0.0000090  -0.9393141   0.2916879
0.1592684    -0.9982849  -0.0005433   0.0001281  -0.0001091   0.0000048   0.0000032  -0.9394186   0.2917255
0.1612263    -0.9984356  -0.0005024   0.0001281  -0.0000797   0.0000049  -0.0000010  -0.9393069   0.2918717
0.1632083    -0.9984799  -0.0005031   0.0001479  -0.0001146   0.0000052  -0.0000046  -0.9393931   0.2919294
0.1652147    -0.9983808  -0.0004544   0.0001434  -0.0001006  -0.0000054   0.0000015  -0.9392935   0.2920767
0.1672457    -0.9983927  -0.0005229   0.0001242  -0.0000998   0.0000058  -0.0000092  -0.9392819   0.2921465
0.1693017    -0.9984916  -0.0005284   0.0001201  -0.0001086  -0.0000093  -0.0000026  -0.9392562   0.2921591
0.1713829    -0.9984434  -0.0004494   0.0001479  -0.0000989  -0.0000062  -0.0000029  -0.9392212   0.2923577
0.1734898    -0.9982480  -0.0004507   0.0001109  -0.0000938  -0.0000008   0.0000005  -0.9391912   0.2923584
0.1756225    -0.9983261  -0.0004451   0.0001209  -0.0001159   0.0000067  -0.0000024  -0.9391699   0.2925539
0.1777815    -0.9984510  -0.0004171   0.0001298  -0.0001121  -0.0000031  -0.0000086  -0.9390592   0.2925714
0.1799670    -0.9984802  -0.0005110   0.0001287  -0.0001149  -0.0000053  -0.0000102  -0.9390654   0.2927581
0.1821794    -0.9984309  -0.0005087   0.0001293  -0.0000990   0.0000027  -0.0000042  -0.9390483   0.2928551
0.1844190    -0.9984473  -0.0004411   0.0001244  -0.0000926  -0.0000014  -0.0000113  -0.9391059   0.2929285
0.1866861    -0.9983890  -0.0005115   0.0001206  -0.0001048  -0.0000025  -0.0000085  -0.9389236   0.2930493
0.1889811    -0.9985120  -0.0005178   0.0001031  -0.0000747  -0.0000052  -0.0000045  -0.9389341   0.2931909
0.1913043    -0.9985410  -0.0005397   0.0001326  -0.0000637  -0.0000022  -0.0000077  -0.9389398   0.2931881
0.1936560    -0.9983519  -0.0005357   0.0000889  -0.0000948  -0.0000029   0.0000011  -0.9388743   0.2934055
0.1960367    -0.9985457  -0.0005721   0.0001173  -0.0000970  -0.0000034  -0.0000113  -0.9388666   0.2935421
0.1984466    -0.9984690  -0.0006186   0.0001089  -0.0001092  -0.0000069  -0.0000007  -0.9388003   0.2935264
0.2008861    -0.9983618  -0.0006056   0.0001250  -0.0000977  -0.0000035  -0.0000135  -0.9388468   0.2937072
0.2033557    -0.9983946  -0.0005501   0.0001151  -0.0000990  -0.0000017  -0.0000072  -0.9388149   0.2937507
0.2058556    -0.9984184  -0.0005661   0.0000951  -0.0001076   0.0000063  -0.0000012  -0.9386165   0.2938308
0.2083862    -0.9983975  -0.0006261   0.0001214  -0.0000975  -0.0000007  -0.0000098  -0.9386430   0.2939738
0.2109480    -0.9983633  -0.0005712   0.0001137  -0.0000818  -0.0000041   0.0000037  -0.9386125   0.2940661
0.2135412    -0.9983044  -0.0006278   0.0001177  -0.0001125   0.0000026  -0.0000099  -0.9385548   0.2941996
0.2161663    -0.9983776  -0.0006736   0.0000922  -0.0000944   0.0000069  -0.0000061  -0.9385860   0.2942747
0.2188237    -0.9984068  -0.0006963   0.0000959  -0.0000873  -0.0000015  -0.0000051  -0.9385893   0.2944157
0.2215137    -0.9983835  -0.0005563   0.0001097  -0.0001012  -0.0000176  -0.0000081  -0.9384733   0.2944849
0.2242369    -0.9984374  -0.0005703   0.0000993  -0.0000825  -0.0000093  -0.0000156  -0.9383799   0.2946712
0.2269935    -0.9984588  -0.0005416   0.0001006  -0.0001048  -0.0000070  -0.0000102  -0.9383557   0.2947396
0.2297839    -0.9985031  -0.0006061   0.0000900  -0.0000921   0.0000008  -0.0000095  -0.9383288   0.2948782
0.2326087    -0.9984704  -0.0005800   0.0000869  -0.0000793  -0.0000072  -0.0000042  -0.9383012   0.2949777
0.2354682    -0.9984027  -0.0006343   0.0000978  -0.0000791   0.0000062  -0.0000025  -0.9382314   0.2950852
0.2383629    -0.9983766  -0.0006544   0.0000957  -0.0000856   0.0000095  -0.0000077  -0.9382402   0.2951383
0.2412932    -0.9984578  -0.0007335   0.0000924  -0.0000882  -0.0000204  -0.0000146  -0.9381400   0.2952565
0.2442594    -0.9985043  -0.0007125   0.0001122  -0.0000706  -0.0000093   0.0000065  -0.9381314   0.2954319
0.2472622    -0.9983007  -0.0007324   0.0000997  -0.0000671  -0.0000034  -0.0000044  -0.9381191   0.2955686
0.2503018    -0.9984321  -0.0007487   0.0001015  -0.0000804  -0.0000125  -0.0000093  -0.9379876   0.2957517
0.2533788    -0.9983579  -0.0006922   0.0000870  -0.0000852  -0.0000040   0.0000031  -0.9379655   0.2957465
0.2564937    -0.9984749  -0.0006367   0.0000870  -0.0000597  -0.0000017  -0.0000116  -0.9379517   0.2958429
0.2596468    -0.9984839  -0.0007273   0.0000922  -0.0000899  -0.0000103  -0.0000019  -0.9378675   0.2960615
0.2628387    -0.9985265  -0.0006284   0.0001040  -0.0000879   0.0000019   0.0000031  -0.9378421   0.2962113
0.2660699    -0.9984182  -0.0007044   0.0000854  -0.0000825   0.0000030  -0.0000001  -0.9377637   0.2962477
0.2693407    -0.9984110  -0.0008609   0.0001027  -0.0000661   0.0000029   0.0000017  -0.9376920   0.2964796
0.2726518    -0.9983533  -0.0007027   0.0000814  -0.0000887   0.0000098  -0.0000065  -0.9376563   0.2965318
0.2760036    -0.9984803  -0.0008294   0.0000841  -0.0000845  -0.0000009  -0.0000004  -0.9376370   0.2967253
0.2793966    -0.9984681  -0.0006475   0.0000870  -0.0000648   0.0000015  -0.0000069  -0.9375655   0.2967840
0.2828312    -0.9984251  -0.0008221   0.0000914  -0.0000594  -0.0000054  -0.0000065  -0.9375553   0.2969881
0.2863082    -0.9984583  -0.0007825   0.0000757  -0.0000908  -0.0000069  -0.0000156  -0.9374514   0.2970842
0.2898278    -0.9986052  -0.0007915   0.0000713  -0.0000790   0.0000011  -0.0000148  -0.9373987   0.2972562
0.2933907    -0.9984447  -0.0007343   0.0000877  -0.0000625  -0.0000071  -0.0000110  -0.9374491   0.2973166
0.2969975    -0.9985451  -0.0008077   0.0000927  -0.0000716   0.0000025  -0.0000002  -0.9373918   0.2974570
0.3006485    -0.9984714  -0.0007535   0.0000830  -0.0000652  -0.0000037  -0.0000003  -0.9372446   0.2976492
0.3043445    -0.9985029  -0.0008082   0.0000777  -0.0000647   0.0000030  -0.0000090  -0.9372233   0.2977212
0.3080858    -0.9985190  -0.0008434   0.0000669  -0.0000831   0.0000008  -0.0000047  -0.9371217   0.2978439
0.3118732    -0.9985227  -0.0007531   0.0000758  -0.0000568  -0.0000029  -0.0000037  -0.9370846   0.2981255
0.3157071    -0.9984238  -0.0008349   0.0000884  -0.0000690   0.0000001  -0.0000051  -0.9369519   0.2981806
0.3195882    -0.9984525  -0.0008612   0.0000841  -0.0000846  -0.0000056  -0.0000075  -0.9369621   0.2983713
0.3235170    -0.9985204  -0.0008902   0.0000749  -0.0000824   0.0000005  -0.0000101  -0.9368877   0.2985743
0.3274941    -0.9984591  -0.0008478   0.0000674  -0.0000606  -0.0000171  -0.0000030  -0.9368245   0.2986018
0.3315200    -0.9985685  -0.0009341   0.0000686  -0.0000555  -0.0000011  -0.0000002  -0.9366881   0.2987612
0.3355955    -0.9985453  -0.0009420   0.0001000  -0.0000707   0.0000024  -0.0000098  -0.9367534   0.2988743
0.3397210    -0.9985061  -0.0008758   0.0000676  -0.0000609  -0.0000033  -0.0000140  -0.9366286   0.2991156
0.3438973    -0.9985079  -0.0008905   0.0000652  -0.0000587   0.0000025  -0.0000018  -0.9365542   0.2991742
0.3481249    -0.9984914  -0.0009822   0.0000627  -0.0000668  -0.0000090  -0.0000003  -0.9365513   0.2993079
0.3524045    -0.9984854  -0.0009315   0.0000689  -0.0000706   0.0000071  -0.0000049  -0.9364981   0.2994654
0.3567367    -0.9985577  -0.0009211   0.0000730  -0.0000709   0.0000048  -0.0000006  -0.9364733   0.2996630
0.3611221    -0.9985558  -0.0010187   0.0000869  -0.0000668  -0.0000009  -0.0000053  -0.9363157   0.2998125
0.3655615    -0.9982982  -0.0010075   0.0000713  -0.0000558   0.0000008   0.0000035  -0.9362350   0.2999891
0.3700554    -0.9984419  -0.0009020   0.0000854  -0.0000599  -0.0000078   0.0000013  -0.9361766   0.3001423
0.3746046    -0.9985686  -0.0009169   0.0000686  -0.0000433  -0.0000074   0.0000052  -0.9360952   0.3002810
0.3792097    -0.9986252  -0.0010384   0.0000709  -0.0000643   0.0000027  -0.0000014  -0.9360310   0.3005167
0.3838714    -0.9985770  -0.0009805   0.0000743  -0.0000622  -0.0000147   0.0000006  -0.9360487   0.3006684
0.3885905    -0.9984791  -0.0009738   0.0000678  -0.0000595   0.0000014  -0.0000025  -0.9359445   0.3008066
0.3933675    -0.9985039  -0.0011017   0.0000567  -0.0000556  -0.0000064  -0.0000079  -0.9358374   0.3010662
0.3982033    -0.9985784  -0.0010603   0.0000645  -0.0000413   0.0000045  -0.0000028  -0.9357388   0.3011775
0.4030985    -0.9984919  -0.0009560   0.0000661  -0.0000539  -0.0000013  -0.0000019  -0.9356822   0.3013380
0.4080538    -0.9985852  -0.0011304   0.0000625  -0.0000600   0.0000088  -0.0000011  -0.9356213   0.3015114
0.4130701    -0.9984960  -0.0011163   0.0000651  -0.0000514  -0.0000030  -0.0000011  -0.9354990   0.3017008
0.4181481    -0.9984971  -0.0010508   0.0000592  -0.0000517  -0.0000217  -0.0000123  -0.9354835   0.3019167
0.4232885    -0.9984895  -0.0009403   0.0000628  -0.0000504   0.0000013  -0.0000042  -0.9353929   0.3020374
0.4284921    -0.9985230  -0.0011701   0.0000701  -0.0000545   0.0000050  -0.0000019  -0.9353126   0.3021829
0.4337597    -0.9984668  -0.0010955   0.0000841  -0.0000420  -0.0000025  -0.0000129  -0.9351899   0.3024178
0.4390920    -0.9985260  -0.0011095   0.0000883  -0.0000334   0.0000014  -0.0000040  -0.9351455   0.3026475
0.4444898    -0.9986979  -0.0010449   0.0000566  -0.0000357   0.0000003  -0.0000071  -0.9350953   0.3028394
0.4499541    -0.9986310  -0.0011466   0.0000608  -0.0000325   0.0000018   0.0000071  -0.9349420   0.3029515
0.4554854    -0.9984641  -0.0010848   0.0000642  -0.0000574  -0.0000024   0.0000004  -0.9349191   0.3031716
0.4610848    -0.9986027  -0.0011815   0.0000545  -0.0000500   0.0000036  -0.0000010  -0.9347462   0.3034583
0.4667531    -0.9986105  -0.0012193   0.0000687  -0.0000548  -0.0000048  -0.0000122  -0.9347264   0.3035858
0.4724910    -0.9986640  -0.0013181   0.0000553  -0.0000411   0.0000114  -0.0000039  -0.9345766   0.3037551
0.4782994    -0.9985711  -0.0012166   0.0000695  -0.0000182  -0.0000062  -0.0000052  -0.9345650   0.3040264
0.4841793    -0.9984692  -0.0012706   0.0000572  -0.0000185   0.0000106   0.0000023  -0.9344129   0.3041643
0.4901314    -0.9984767  -0.0012112   0.0000445  -0.0000612   0.0000062  -0.0000086  -0.9344641   0.3044346
0.4961567    -0.9986064  -0.0013368   0.0000599  -0.0000471  -0.0000058  -0.0000014  -0.9343045   0.3046205
0.5022561    -0.9986450  -0.0013006   0.0000683  -0.0000437  -0.0000017  -0.0000053  -0.9341865   0.3048411
0.5084304    -0.9985299  -0.0011863   0.0000729  -0.0000454  -0.0000013  -0.0000019  -0.9340425   0.3051119
0.5146807    -0.9986089  -0.0013126   0.0000591  -0.0000476  -0.0000092  -0.0000063  -0.9339961   0.3052493
0.5210078    -0.9985856  -0.0012778   0.0000649  -0.0000437   0.0000043  -0.0000041  -0.9338725   0.3054744
0.5274126    -0.9984918  -0.0012600   0.0000581  -0.0000546  -0.0000064  -0.0000075  -0.9338402   0.3057256
0.5338963    -0.9985590  -0.0013144   0.0000817  -0.0000254   0.0000003   0.0000057  -0.9337405   0.3059158
0.5404596    -0.9984789  -0.0014464   0.0000705  -0.0000505  -0.0000084   0.0000050  -0.9336710   0.3062319
0.5471036    -0.9985726  -0.0014254   0.0000586  -0.0000304  -0.0000094  -0.0000065  -0.9335276   0.3063257
0.5538292    -0.9986374  -0.0013004   0.0000567  -0.0000365   0.0000020  -0.0000054  -0.9334165   0.3066357
0.5606376    -0.9986403  -0.0014084   0.0000562  -0.0000337  -0.0000026  -0.0000073  -0.9332411   0.3068205
0.5675297    -0.9986097  -0.0014586   0.0000463  -0.0000157  -0.0000022  -0.0000028  -0.9331879   0.3071370
0.5745064    -0.9985906  -0.0014534   0.0000601  -0.0000345   0.0000018   0.0000011  -0.9330557   0.3073340
0.5815690    -0.9985622  -0.0015206   0.0000554  -0.0000449   0.0000020   0.0000047  -0.9330523   0.3075216
0.5887183    -0.9986163  -0.0014273   0.0000667  -0.0000461  -0.0000109  -0.0000114  -0.9328489   0.3077647
0.5959556    -0.9986658  -0.0014899   0.0000650  -0.0000255  -0.0000057  -0.0000093  -0.9327533   0.3080503
0.6032818    -0.9986349  -0.0015780   0.0000523  -0.0000271  -0.0000051  -0.0000031  -0.9326622   0.3083318
0.6106981    -0.9985909  -0.0015013   0.0000478  -0.0000095   0.0000033  -0.0000101  -0.9325332   0.3086434
0.6182056    -0.9986047  -0.0016019   0.0000552  -0.0000122   0.0000045  -0.0000047  -0.9324797   0.3087512
0.6258053    -0.9986331  -0.0015914   0.0000530  -0.0000149  -0.0000036   0.0000009  -0.9323100   0.3090988
0.6334985    -0.9984748  -0.0015052   0.0000478  -0.0000254   0.0000043  -0.0000057  -0.9322906   0.3093580
0.6412862    -0.9985217  -0.0015120   0.0000652  -0.0000088  -0.0000087  -0.0000039  -0.9320162   0.3096498
0.6491697    -0.9987007  -0.0015285   0.0000562  -0.0000261  -0.0000025   0.0000017  -0.9320639   0.3099768
0.6571501    -0.9986302  -0.0016410   0.0000462  -0.0000202  -0.0000156  -0.0000076  -0.9318527   0.3101546
0.6652286    -0.9985417  -0.0015835   0.0000556  -0.0000173   0.0000013  -0.0000025  -0.9317385   0.3105023
0.6734064    -0.9986367  -0.0016244   0.0000447  -0.0000205  -0.0000007  -0.0000128  -0.9316249   0.3107810
0.6816848    -0.9986494  -0.0016587   0.0000650  -0.0000146  -0.0000108  -0.0000052  -0.9314518   0.3109770
0.6900649    -0.9985924  -0.0017235   0.0000497  -0.0000301  -0.0000001  -0.0000024  -0.9313558   0.3112493
0.6985480    -0.9986130  -0.0017300   0.0000634  -0.0000396  -0.0000011  -0.0000022  -0.9312130   0.3116300
0.7071355    -0.9985371  -0.0016782   0.0000614   0.0000012   0.0000024  -0.0000047  -0.9311384   0.3119213
0.7158284    -0.9985686  -0.0018213   0.0000415  -0.0000069   0.0000018  -0.0000044  -0.9310515   0.3121998
0.7246283    -0.9986582  -0.0017817   0.0000377  -0.0000196  -0.0000065  -0.0000022  -0.9308397   0.3124587
0.7335363    -0.9987010  -0.0018318   0.0000524  -0.0000137   0.0000072  -0.0000030  -0.9308036   0.3127722
0.7425539    -0.9986098  -0.0016726   0.0000389  -0.0000171  -0.0000014  -0.0000051  -0.9306783   0.3131388
0.7516822    -0.9986621  -0.0018708   0.0000539  -0.0000110  -0.0000061   0.0000039  -0.9304417   0.3133883
0.7609229    -0.9986131  -0.0018774   0.0000516  -0.0000171  -0.0000108  -0.0000073  -0.9302693   0.3136903
0.7702771    -0.9986723  -0.0018716   0.0000453  -0.0000286   0.0000060  -0.0000118  -0.9301103   0.3139566
0.7797463    -0.9986287  -0.0018468   0.0000546  -0.0000103  -0.0000053  -0.0000039  -0.9299867   0.3143409
0.7893319    -0.9986314  -0.0019673   0.0000490  -0.0000046  -0.0000011  -0.0000039  -0.9298566   0.3146606
0.7990353    -0.9986161  -0.0019312   0.0000493  -0.0000234   0.0000108   0.0000006  -0.9297423   0.3149845
0.8088580    -0.9984978  -0.0019769   0.0000421   0.0000049  -0.0000011  -0.0000043  -0.9295781   0.3153214
0.8188015    -0.9986939  -0.0020480   0.0000693  -0.0000228  -0.0000041  -0.0000032  -0.9294537   0.3156519
0.8288673    -0.9986321  -0.0019949   0.0000818  -0.0000142  -0.0000032  -0.0000065  -0.9292674   0.3159989
0.8390567    -0.9986019  -0.0020370   0.0000474  -0.0000058   0.0000029  -0.0000167  -0.9291964   0.3163791
0.8493714    -0.9986946  -0.0020630   0.0000525  -0.0000034   0.0000081  -0.0000012  -0.9290133   0.3166715
0.8598130    -0.9986686  -0.0020182   0.0000481   0.0000100   0.0000073  -0.0000083  -0.9288463   0.3170546
0.8703829    -0.9986334  -0.0021456   0.0000560  -0.0000156   0.0000037  -0.0000044  -0.9286617   0.3173866
0.8810827    -0.9986807  -0.0020995   0.0000466  -0.0000066  -0.0000029  -0.0000054  -0.9285109   0.3178376
0.8919140    -0.9986915  -0.0020891   0.0000543  -0.0000077   0.0000023  -0.0000108  -0.9283561   0.3181357
0.9028786    -0.9987271  -0.0021282   0.0000372   0.0000108  -0.0000092   0.0000004  -0.9281942   0.3185210
0.9139779    -0.9986278  -0.0022553   0.0000528  -0.0000050  -0.0000026  -0.0000067  -0.9280326   0.3189216
0.9252136    -0.9986964  -0.0022942   0.0000485  -0.0000169  -0.0000001  -0.0000139  -0.9278553   0.3192816
0.9365875    -0.9987537  -0.0021883   0.0000338   0.0000012  -0.0000034   0.0000006  -0.9276938   0.3196557
0.9481012    -0.9986840  -0.0022826   0.0000482  -0.0000092  -0.0000017  -0.0000055  -0.9275186   0.3200543
0.9597564    -0.9986522  -0.0022639   0.0000517  -0.0000105  -0.0000017  -0.0000023  -0.9273121   0.3204456
0.9715549    -0.9986716  -0.0022404   0.0000371   0.0000043  -0.0000036  -0.0000012  -0.9271461   0.3208858
0.9834985    -0.9987012  -0.0022576   0.0000400   0.0000089  -0.0000065  -0.0000013  -0.9270109   0.3212321
0.9955889    -0.9987040  -0.0022956   0.0000593   0.0000145  -0.0000032  -0.0000050  -0.9268638   0.3216050
1.0078279    -0.9986940  -0.0024174   0.0000237   0.0000103   0.0000107  -0.0000079  -0.9265545   0.3220619
1.0202173    -0.9987534  -0.0023082   0.0000464   0.0000096   0.0000011  -0.0000053  -0.9264578   0.3224213
1.0327591    -0.9987344  -0.0023408   0.0000387  -0.0000020  -0.0000039  -0.0000004  -0.9262505   0.3229331
1.0454551    -0.9986274  -0.0024954   0.0000321  -0.0000016   0.0000008  -0.0000101  -0.9260666   0.3233381
1.0583071    -0.9987354  -0.0024653   0.0000346   0.0000013  -0.0000013   0.0000049  -0.9258682   0.3237213
1.0713171    -0.9985687  -0.0024847   0.0000379   0.0000127  -0.0000064   0.0000018  -0.9255917   0.3241481
1.0844871    -0.9986681  -0.0024384   0.0000656   0.0000139  -0.0000048   0.0000027  -0.9254617   0.3245377
1.0978189    -0.9987704  -0.0026292   0.0000504   0.0000059   0.0000007   0.0000068  -0.9252756   0.3250599
1.1113147    -0.9986497  -0.0026295   0.0000367   0.0000073  -0.0000006  -0.0000055  -0.9250334   0.3254274
1.1249763    -0.9987128  -0.0026160   0.0000503   0.0000326  -0.0000013  -0.0000018  -0.9248774   0.3259905
1.1388059    -0.9987583  -0.0025408   0.0000498   0.0000009  -0.0000019  -0.0000060  -0.9247198   0.3264517
1.1528056    -0.9986249  -0.0027131   0.0000380   0.0000093  -0.0000044  -0.0000036  -0.9244583   0.3268988
1.1669773    -0.9988162  -0.0027266   0.0000425   0.0000240  -0.0000009  -0.0000082  -0.9242727   0.3273953
1.1813232    -0.9987576  -0.0027379   0.0000575   0.0000139  -0.0000031  -0.0000048  -0.9240773   0.3278585
1.1958455    -0.9987311  -0.0028000   0.0000545   0.0000190   0.0000009   0.0000004  -0.9238039   0.3283554
1.2105463    -0.9987129  -0.0028326   0.0000342   0.0000248  -0.0000031  -0.0000085  -0.9236208   0.3288517
1.2254278    -0.9987023  -0.0028366   0.0000253   0.0000160  -0.0000064   0.0000002  -0.9233540   0.3293477
1.2404923    -0.9987472  -0.0028114   0.0000505   0.0000088   0.0000005  -0.0000006  -0.9232183   0.3298264
1.2557420    -0.9987606  -0.0028599   0.0000637   0.0000249   0.0000060  -0.0000034  -0.9229541   0.3303611
1.2711791    -0.9988131  -0.0029217   0.0000446   0.0000048   0.0000058   0.0000032  -0.9226769   0.3308420
1.2868060    -0.9987037  -0.0028625   0.0000455   0.0000376  -0.0000086   0.0000018  -0.9224299   0.3313969
1.3026251    -0.9987742  -0.0030086   0.0000239   0.0000237   0.0000010  -0.0000178  -0.9221532   0.3319239
1.3186385    -0.9987135  -0.0030711   0.0000492   0.0000123  -0.0000032  -0.0000001  -0.9219294   0.3324706
1.3348489    -0.9987021  -0.0031368   0.0000340   0.0000308  -0.0000022  -0.0000067  -0.9217568   0.3330027
1.3512585    -0.9987675  -0.0031657   0.0000457   0.0000335  -0.0000067  -0.0000152  -0.9214508   0.3335168
1.3678698    -0.9987297  -0.0031109   0.0000502   0.0000224  -0.0000091  -0.0000157  -0.9212825   0.3340755
1.3846854    -0.9987618  -0.0031956   0.0000369   0.0000217   0.0000027  -0.0000135  -0.9210106   0.3347380
1.4017077    -0.9988240  -0.0031957   0.0000359   0.0000217   0.0000041   0.0000045  -0.9207423   0.3352204
1.4189392    -0.9987036  -0.0032075   0.0000281   0.0000085   0.0000006   0.0000001  -0.9205003   0.3357456
1.4363825    -0.9987357  -0.0032527   0.0000590   0.0000253  -0.0000072  -0.0000012  -0.9202484   0.3363581
1.4540403    -0.9988187  -0.0032284   0.0000365   0.0000248  -0.0000064  -0.0000011  -0.9199559   0.3369570
1.4719152    -0.9987399  -0.0033917   0.0000472   0.0000434   0.0000078   0.0000075  -0.9197156   0.3376479
1.4900098    -0.9988034  -0.0033616   0.0000317   0.0000304   0.0000059  -0.0000025  -0.9193985   0.3381595
1.5083269    -0.9988070  -0.0034303   0.0000167   0.0000378  -0.0000053   0.0000013  -0.9191216   0.3387463
1.5268691    -0.9987569  -0.0033987   0.0000415   0.0000316   0.0000075  -0.0000016  -0.9188447   0.3393919
1.5456392    -0.9988335  -0.0035688   0.0000537   0.0000312  -0.0000034  -0.0000016  -0.9186352   0.3399954
1.5646402    -0.9988124  -0.0035006   0.0000305   0.0000296   0.0000027  -0.0000022  -0.9183255   0.3407034
1.5838747    -0.9988013  -0.0035238   0.0000435   0.0000613  -0.0000058   0.0000018  -0.9180071   0.3413056
1.6033456    -0.9988139  -0.0036258   0.0000449   0.0000546  -0.0000038   0.0000005  -0.9178175   0.3419714
1.6230559    -0.9989037  -0.0036210   0.0000399   0.0000455   0.0000040  -0.0000088  -0.9174998   0.3426997
1.6430085    -0.9987144  -0.0037925   0.0000347   0.0000302  -0.0000092  -0.0000087  -0.9171685   0.3433497
1.6632064    -0.9987763  -0.0038114   0.0000479   0.0000401  -0.0000108  -0.0000073  -0.9168588   0.3440620
1.6836526    -0.9988699  -0.0037565   0.0000385   0.0000393   0.0000037  -0.0000099  -0.9166106   0.3447857
1.7043502    -0.9988928  -0.0038933   0.0000436   0.0000354   0.0000002  -0.0000113  -0.9161800   0.3455200
1.7253021    -0.9988438  -0.0038075   0.0000325   0.0000507  -0.0000079  -0.0000040  -0.9159925   0.3461715
1.7465117    -0.9987814  -0.0039027   0.0000285   0.0000613   0.0000025  -0.0000055  -0.9157903   0.3469968
1.7679820    -0.9988946  -0.0039487   0.0000518   0.0000444  -0.0000045   0.0000031  -0.9154066   0.3477171
1.7897162    -0.9988006  -0.0040152   0.0000375   0.0000490  -0.0000016  -0.0000074  -0.9151174   0.3484560
1.8117176    -0.9988465  -0.0040089   0.0000531   0.0000566  -0.0000088  -0.0000035  -0.9147761   0.3493066
1.8339895    -0.9988169  -0.0041374   0.0000309   0.0000495  -0.0000118  -0.0000034  -0.9144893   0.3500739
1.8565352    -0.9988360  -0.0042640   0.0000460   0.0000474  -0.0000061  -0.0000007  -0.9141587   0.3508992
1.8793580    -0.9988237  -0.0041772   0.0000330   0.0000498   0.0000050  -0.0000067  -0.9138773   0.3516445
1.9024614    -0.9988235  -0.0043016   0.0000323   0.0000284   0.0000034   0.0000019  -0.9136433   0.3524820
1.9258488    -0.9988083  -0.0042953   0.0000455   0.0000396  -0.0000040  -0.0000066  -0.9132013   0.3533232
1.9495237    -0.9988621  -0.0043934   0.0000503   0.0000673  -0.0000036  -0.0000086  -0.9128573   0.3542622
1.9734897    -0.9989095  -0.0044656   0.0000468   0.0000504  -0.0000027  -0.0000027  -0.9124967   0.3551210
1.9977503    -0.9988369  -0.0043691   0.0000318   0.0000690  -0.0000022  -0.0000100  -0.9121862   0.3560367
2.0223091    -0.9988292  -0.0044743   0.0000319   0.0000437   0.0000036  -0.0000066  -0.9117146   0.3569520
2.0471698    -0.9988768  -0.0045842   0.0000562   0.0000578   0.0000021  -0.0000058  -0.9112576   0.3578717
2.0723362    -0.9988635  -0.0045233   0.0000297   0.0000531  -0.0000052  -0.0000109  -0.9108508   0.3587810
2.0978119    -0.9988509  -0.0046078   0.0000457   0.0000466  -0.0000046  -0.0000081  -0.9103719   0.3597379
2.1236008    -0.9988802  -0.0047299   0.0000400   0.0000675  -0.0000093  -0.0000004  -0.9098752   0.3606545
2.1497067    -0.9988375  -0.0048338   0.0000347   0.0000726  -0.0000046  -0.0000022  -0.9093895   0.3616367
2.1761336    -0.9988277  -0.0047467   0.0000421   0.0000510  -0.0000068  -0.0000094  -0.9089004   0.3624516
2.2028853    -0.9988970  -0.0048870   0.0000460   0.0000593  -0.0000069  -0.0000036  -0.9082573   0.3634525
2.2299659    -0.9989585  -0.0049328   0.0000327   0.0000404  -0.0000041  -0.0000103  -0.9079217   0.3643863
2.2573794    -0.9989210  -0.0050028   0.0000465   0.0000707  -0.0000005   0.0000045  -0.9073349   0.3653268
2.2851299    -0.9990295  -0.0050730   0.0000401   0.0000603  -0.0000203  -0.0000078  -0.9067572   0.3662666
2.3132216    -0.9989670  -0.0051184   0.0000237   0.0000671  -0.0000061  -0.0000051  -0.9062437   0.3671181
2.3416586    -0.9989254  -0.0051796   0.0000337   0.0000609   0.0000013  -0.0000147  -0.9056892   0.3680784
2.3704451    -0.9989221  -0.0051815   0.0000355   0.0000707  -0.0000051  -0.0000091  -0.9051684   0.3691096
2.3995856    -0.9988922  -0.0053915   0.0000386   0.0000586  -0.0000066  -0.0000082  -0.9045189   0.3700807
2.4290843    -0.9988585  -0.0053315   0.0000232   0.0000743  -0.0000003  -0.0000136  -0.9041214   0.3709168
2.4589456    -0.9989025  -0.0054083   0.0000410   0.0000766  -0.0000015  -0.0000055  -0.9035454   0.3719175
2.4891740    -0.9988279  -0.0055036   0.0000407   0.0000671   0.0000065   0.0000046  -0.9030067   0.3729132
2.5197740    -0.9988749  -0.0056238   0.0000371   0.0000733  -0.0000101  -0.0000049  -0.9025121   0.3739415
2.5507502    -0.9989103  -0.0055463   0.0000543   0.0000864  -0.0000041   0.0000006  -0.9019500   0.3748543
2.5821072    -0.9989571  -0.0056664   0.0000474   0.0000865   0.0000005  -0.0000009  -0.9013914   0.3758758
2.6138496    -0.9989885  -0.0056998   0.0000441   0.0000684  -0.0000073  -0.0000027  -0.9007222   0.3768633
2.6459823    -0.9989008  -0.0058584   0.0000608   0.0000848  -0.0000029   0.0000048  -0.9001987   0.3779199
2.6785100    -0.9990761  -0.0059107   0.0000380   0.0000613  -0.0000082  -0.0000121  -0.8996597   0.3790409
2.7114376    -0.9989438  -0.0059371   0.0000477   0.0000685  -0.0000063  -0.0000062  -0.8990225   0.3800620
2.7447699    -0.9989821  -0.0059350   0.0000431   0.0000767   0.0000017  -0.0000063  -0.8984440   0.3810689
2.7785120    -0.9989902  -0.0061017   0.0000477   0.0000757  -0.0000026  -0.0000068  -0.8978285   0.3821643
2.8126689    -0.9990395  -0.0061941   0.0000467   0.0000744  -0.0000122   0.0000035  -0.8973122   0.3833147
2.8472457    -0.9989478  -0.0061925   0.0000491   0.0000726  -0.0000035  -0.0000070  -0.8967607   0.3844286
2.8822476    -0.9989041  -0.0064014   0.0000558   0.0000919   0.0000060   0.0000022  -0.8961782   0.3855124
2.9176798    -0.9991019  -0.0064194   0.0000409   0.0000719  -0.0000007  -0.0000141  -0.8955195   0.3866086
2.9535475    -0.9990623  -0.0064745   0.0000528   0.0000871  -0.0000058  -0.0000054  -0.8949483   0.3878070
2.9898562    -0.9990125  -0.0065838   0.0000600   0.0001067  -0.0000028  -0.0000049  -0.8942470   0.3890268
3.0266112    -0.9989490  -0.0066383   0.0000500   0.0000853  -0.0000014  -0.0000102  -0.8936296   0.3901293
3.0638180    -0.9988939  -0.0067293   0.0000607   0.0000662  -0.0000027  -0.0000106  -0.8929854   0.3913348
3.1014823    -0.9989352  -0.0067573   0.0000500   0.0000806   0.0000122   0.0000001  -0.8923790   0.3926033
3.1396096    -0.9989250  -0.0068448   0.0000436   0.0001108   0.0000007  -0.0000151  -0.8916534   0.3937399
3.1782055    -0.9989876  -0.0070099   0.0000558   0.0000732  -0.0000052  -0.0000060  -0.8910269   0.3950064
3.2172760    -0.9990441  -0.0070482   0.0000338   0.0000854  -0.0000021  -0.0000025  -0.8903442   0.3962763
3.2568267    -0.9990302  -0.0070793   0.0000413   0.0000937   0.0000000   0.0000010  -0.8897056   0.3975141
3.2968637    -0.9991010  -0.0072196   0.0000505   0.0000719   0.0000079  -0.0000071  -0.8889123   0.3988380
3.3373928    -0.9989628  -0.0073084   0.0000552   0.0000941  -0.0000055  -0.0000043  -0.8882090   0.4000991
3.3784202    -0.9990854  -0.0073248   0.0000506   0.0000822   0.0000017  -0.0000115  -0.8874257   0.4014749
3.4199519    -0.9990159  -0.0074847   0.0000422   0.0000810  -0.0000018  -0.0000072  -0.8867184   0.4027799
3.4619942    -0.9989949  -0.0076976   0.0000566   0.0001064   0.0000094  -0.0000015  -0.8859021   0.4040620
3.5045533    -0.9990499  -0.0076019   0.0000538   0.0000982  -0.0000130  -0.0000043  -0.8851955   0.4055343
3.5476356    -0.9989909  -0.0076715   0.0000497   0.0001050  -0.0000032  -0.0000072  -0.8844131   0.4068135
3.5912475    -0.9991245  -0.0077650   0.0000463   0.0000995   0.0000050  -0.0000068  -0.8835820   0.4081858
3.6353956    -0.9989871  -0.0078659   0.0000485   0.0001036  -0.0000033   0.0000033  -0.8828196   0.4096963
3.6800864    -0.9990347  -0.0079697   0.0000486   0.0000982  -0.0000019  -0.0000012  -0.8820544   0.4111741
3.7253266    -0.9990967  -0.0081038   0.0000386   0.0001062  -0.0000012   0.0000029  -0.8812237   0.4125975
3.7711229    -0.9991094  -0.0081146   0.0000425   0.0001020   0.0000036  -0.0000073  -0.8804596   0.4140384
3.8174822    -0.9991506  -0.0082282   0.0000295   0.0001053   0.0000054  -0.0000037  -0.8795996   0.4154965
3.8644115    -0.9991452  -0.0083500   0.0000420   0.0001034  -0.0000027  -0.0000005  -0.8788628   0.4170898
3.9119176    -0.9990460  -0.0083847   0.0000460   0.0001120   0.0000050  -0.0000047  -0.8780034   0.4186069
3.9600077    -0.9990567  -0.0085846   0.0000627   0.0001100  -0.0000003  -0.0000106  -0.8772529   0.4201030
4.0086890    -0.9989609  -0.0086974   0.0000531   0.0001123  -0.0000001  -0.0000011  -0.8762245   0.4216955
4.0579688    -0.9991052  -0.0086851   0.0000487   0.0001009   0.0000105  -0.0000087  -0.8753939   0.4232443
4.1078544    -0.9989852  -0.0089551   0.0000478   0.0001152   0.0000009  -0.0000062  -0.8745147   0.4247613
4.1583532    -0.9991226  -0.0089284   0.0000636   0.0001202  -0.0000076  -0.0000134  -0.8735491   0.4263804
4.2094729    -0.9991107  -0.0091308   0.0000439   0.0001178  -0.0000130  -0.0000085  -0.8727399   0.4279787
4.2612209    -0.9990971  -0.0091887   0.0000255   0.0001288   0.0000049  -0.0000003  -0.8717528   0.4295703
4.3136051    -0.9992047  -0.0093315   0.0000607   0.0001228   0.0000094  -0.0000038  -0.8707551   0.4312195
4.3666333    -0.9991245  -0.0093802   0.0000337   0.0001009  -0.0000042  -0.0000094  -0.8698497   0.4329018
4.4203134    -0.9991250  -0.0095423   0.0000655   0.0001172  -0.0000094  -0.0000055  -0.8687537   0.4345216
4.4746534    -0.9991204  -0.0097290   0.0000505   0.0001323  -0.0000100  -0.0000040  -0.8676684   0.4362446
4.5296613    -0.9992215  -0.0096829   0.0000503   0.0001372  -0.0000140  -0.0000062  -0.8666960   0.4379928
4.5853455    -0.9991054  -0.0098891   0.0000459   0.0001397   0.0000126  -0.0000056  -0.8655878   0.4397037
4.6417143    -0.9992009  -0.0100809   0.0000374   0.0001376   0.0000038  -0.0000010  -0.8644354   0.4412928
4.6987760    -0.9992081  -0.0101060   0.0000547   0.0001179  -0.0000146  -0.0000077  -0.8633619   0.4429503
4.7565392    -0.9990896  -0.0102023   0.0000565   0.0001218  -0.0000048  -0.0000118  -0.8622112   0.4446939
4.8150125    -0.9992500  -0.0103092   0.0000431   0.0001304   0.0000012  -0.0000054  -0.8610678   0.4463435
4.8742045    -0.9991755  -0.0104749   0.0000651   0.0001281   0.0000013  -0.0000100  -0.8598778   0.4479819
4.9341243    -0.9992493  -0.0105951   0.0000473   0.0001339  -0.0000079  -0.0000109  -0.8588102   0.4494953
4.9947807    -0.9990820  -0.0105941   0.0000589   0.0001508  -0.0000006  -0.0000013  -0.8578174   0.4510817
5.0561827    -0.9992034  -0.0108636   0.0000451   0.0001415  -0.0000007  -0.0000055  -0.8568059   0.4527803
5.1183396    -0.9993004  -0.0109518   0.0000568   0.0001381   0.0000014  -0.0000067  -0.8558557   0.4544847
5.1812606    -0.9992395  -0.0111739   0.0000529   0.0001374   0.0000041   0.0000007  -0.8549632   0.4562606
5.2449550    -0.9991547  -0.0112916   0.0000499   0.0001280  -0.0000038  -0.0000165  -0.8540537   0.4582926
5.3094325    -0.9992086  -0.0113278   0.0000549   0.0001401  -0.0000002  -0.0000129  -0.8530595   0.4601084
5.3747026    -0.9992701  -0.0115520   0.0000485   0.0001617  -0.0000032  -0.0000010  -0.8520304   0.4623129
5.4407751    -0.9992003  -0.0117328   0.0000490   0.0001482   0.0000050  -0.0000045  -0.8508710   0.4642557
5.5076599    -0.9992327  -0.0117703   0.0000407   0.0001509  -0.0000117  -0.0000096  -0.8497691   0.4663224
5.5753669    -0.9991569  -0.0119068   0.0000678   0.0001574   0.0000046  -0.0000046  -0.8485973   0.4684798
5.6439062    -0.9992348  -0.0121682   0.0000438   0.0001567   0.0000020  -0.0000020  -0.8474325   0.4705647
5.7132881    -0.9991094  -0.0122381   0.0000631   0.0001539  -0.0000053  -0.0000021  -0.8461542   0.4727491
5.7835229    -0.9993180  -0.0123562   0.0000574   0.0001433   0.0000120  -0.0000015  -0.8448744   0.4749231
5.8546211    -0.9992988  -0.0126170   0.0000589   0.0001581   0.0000019  -0.0000059  -0.8436650   0.4771559
5.9265934    -0.9991567  -0.0127173   0.0000602   0.0001650   0.0000031  -0.0000032  -0.8422969   0.4793258
5.9994504    -0.9992577  -0.0128999   0.0000474   0.0001578  -0.0000047  -0.0000054  -0.8409209   0.4814409
6.0732031    -0.9992492  -0.0130327   0.0000625   0.0001771  -0.0000113  -0.0000100  -0.8395623   0.4836481
6.1478624    -0.9992415  -0.0131706   0.0000533   0.0001712   0.0000063  -0.0000045  -0.8381859   0.4858738
6.2234396    -0.9992554  -0.0132868   0.0000324   0.0001724  -0.0000013  -0.0000036  -0.8366054   0.4881844
6.2999458    -0.9992581  -0.0133617   0.0000456   0.0001762  -0.0000015  -0.0000074  -0.8352632   0.4904485
6.3773925    -0.9992673  -0.0135395   0.0000618   0.0001825  -0.0000065  -0.0000109  -0.8337530   0.4927246
6.4557914    -0.9993097  -0.0137564   0.0000585   0.0001876   0.0000019  -0.0000044  -0.8322471   0.4949631
6.5351539    -0.9994412  -0.0139885   0.0000633   0.0001862  -0.0000016   0.0000001  -0.8307492   0.4973691
6.6154922    -0.9993803  -0.0141470   0.0000557   0.0001865   0.0000017  -0.0000067  -0.8291662   0.4997310
6.6968180    -0.9993902  -0.0142642   0.0000600   0.0001935  -0.0000013  -0.0000054  -0.8275994   0.5021189
6.7791436    -0.9992509  -0.0145164   0.0000679   0.0001936  -0.0000036  -0.0000061  -0.8260330   0.5044637
6.8624812    -0.9992432  -0.0146705   0.0000498   0.0001825  -0.0000017  -0.0000108  -0.8244187   0.5069328
6.9468433    -0.9992593  -0.0148438   0.0000530   0.0001823  -0.0000075   0.0000006  -0.8228260   0.5093485
7.0322425    -0.9992507  -0.0149734   0.0000430   0.0001903  -0.0000001  -0.0000017  -0.8211146   0.5118158
7.1186916    -0.9992899  -0.0151588   0.0000599   0.0002001   0.0000055  -0.0000068  -0.8194095   0.5143454
7.2062034    -0.9992720  -0.0153528   0.0000611   0.0001877  -0.0000054  -0.0000028  -0.8176992   0.5169044
7.2947909    -0.9992492  -0.0154787   0.0000665   0.0002161  -0.0000060  -0.0000003  -0.8159561   0.5194736
7.3844675    -0.9993432  -0.0157388   0.0000628   0.0002022  -0.0000109  -0.0000018  -0.8142863   0.5220747
7.4752466    -0.9992853  -0.0159300   0.0000605   0.0001991   0.0000062  -0.0000064  -0.8124937   0.5246904
7.5671416    -0.9993252  -0.0160842   0.0000516   0.0002146  -0.0000101   0.0000033  -0.8107805   0.5273408
7.6601662    -0.9992766  -0.0162508   0.0000503   0.0002104  -0.0000032  -0.0000058  -0.8089321   0.5300260
7.7543345    -0.9993521  -0.0164035   0.0000560   0.0002029  -0.0000011  -0.0000027  -0.8070409   0.5328550
7.8496604    -0.9993793  -0.0166378   0.0000663   0.0002182  -0.0000081  -0.0000079  -0.8052010   0.5356596
7.9461581    -0.9993775  -0.0169072   0.0000650   0.0002290  -0.0000041  -0.0000001  -0.8031845   0.5385086
8.0438422    -0.9993863  -0.0169845   0.0000409   0.0002143  -0.0000019   0.0000034  -0.8012046   0.5413537
8.1427270    -0.9993455  -0.0172704   0.0000553   0.0002237   0.0000042   0.0000010  -0.7990345   0.5443276
8.2428275    -0.9994293  -0.0174398   0.0000565   0.0002219   0.0000016   0.0000028  -0.7968067   0.5471867
8.3441586    -0.9992850  -0.0176584   0.0000487   0.0002263  -0.0000017   0.0000017  -0.7946318   0.5499687
8.4467353    -0.9994323  -0.0179054   0.0000513   0.0002381   0.0000085  -0.0000037  -0.7923743   0.5529673
8.5505731    -0.9993991  -0.0180740   0.0000670   0.0002412   0.0000036  -0.0000037  -0.7900742   0.5557386
8.6556873    -0.9993928  -0.0183503   0.0000638   0.0002279   0.0000022  -0.0000069  -0.7877981   0.5586649
8.7620937    -0.9994551  -0.0185815   0.0000654   0.0002433  -0.0000146  -0.0000022  -0.7855033   0.5615264
8.8698082    -0.9993546  -0.0187534   0.0000495   0.0002315   0.0000006  -0.0000076  -0.7831491   0.5644380
8.9788469    -0.9994753  -0.0189842   0.0000591   0.0002719   0.0000057  -0.0000060  -0.7808526   0.5673655
9.0892260    -0.9993676  -0.0192050   0.0000569   0.0002484  -0.0000017  -0.0000065  -0.7784899   0.5703176
9.2009621    -0.9994132  -0.0193686   0.0000645   0.0002320  -0.0000012  -0.0000011  -0.7759998   0.5733714
9.3140717    -0.9994691  -0.0197159   0.0000594   0.0002526   0.0000038   0.0000058  -0.7735743   0.5763568
9.4285718    -0.9994689  -0.0199516   0.0000438   0.0002511  -0.0000053  -0.0000121  -0.7711036   0.5794398
9.5444795    -0.9994759  -0.0201064   0.0000592   0.0002485  -0.0000082   0.0000062  -0.7685506   0.5825374
9.6618121    -0.9994896  -0.0203582   0.0000709   0.0002771   0.0000018  -0.0000043  -0.7660223   0.5856292
9.7805870    -0.9995200  -0.0205263   0.0000450   0.0002853   0.0000009   0.0000032  -0.7634060   0.5888029
9.9008221    -0.9994557  -0.0207265   0.0000606   0.0002668   0.0000039  -0.0000012  -0.7607542   0.5920226
10.0225353   -0.9995325  -0.0211323   0.0000599   0.0002765  -0.0000049  -0.0000083  -0.7581033   0.5951324
10.1457447   -0.9995542  -0.0213563   0.0000516   0.0002820  -0.0000039  -0.0000058  -0.7553612   0.5984296
10.2704688   -0.9994549  -0.0216200   0.0000622   0.0002770  -0.0000041  -0.0000085  -0.7526769   0.6017045
10.3967261   -0.9994978  -0.0218767   0.0000474   0.0002762  -0.0000061  -0.0000066  -0.7498397   0.6050384
10.5245356   -0.9994939  -0.0221951   0.0000727   0.0002969  -0.0000079  -0.0000076  -0.7469667   0.6082174
10.6539162   -0.9994733  -0.0223642   0.0000592   0.0003049   0.0000029   0.0000029  -0.7440703   0.6115378
10.7848873   -0.9995979  -0.0225613   0.0000648   0.0003067   0.0000005  -0.0000063  -0.7411368   0.6149778
10.9174685   -0.9995073  -0.0229458   0.0000639   0.0002950  -0.0000070  -0.0000035  -0.7381281   0.6183689
11.0516796   -0.9995151  -0.0231774   0.0000609   0.0003108  -0.0000045   0.0000037  -0.7349763   0.6217995
11.1875405   -0.9995566  -0.0235589   0.0000608   0.0003173   0.0000009  -0.0000076  -0.7319551   0.6253218
11.3250716   -0.9994807  -0.0237686   0.0000700   0.0003059  -0.0000013  -0.0000002  -0.7288001   0.6287838
11.4642934   -0.9994955  -0.0240799   0.0000620   0.0003098  -0.0000070  -0.0000020  -0.7255736   0.6322627
11.6052267   -0.9995457  -0.0243657   0.0000595   0.0003234  -0.0000104  -0.0000051  -0.7223402   0.6358978
11.7478926   -0.9995118  -0.0246640   0.0000703   0.0003188  -0.0000036   0.0000009  -0.7190147   0.6394037
11.8923122   -0.9994694  -0.0249547   0.0000605   0.0003317   0.0000007   0.0000002  -0.7156511   0.6429700
12.0385073   -0.9994478  -0.0253509   0.0000743   0.0003274  -0.0000075  -0.0000003  -0.7121713   0.6466395
12.1864995   -0.9995002  -0.0254841   0.0000630   0.0003333  -0.0000044  -0.0000095  -0.7086981   0.6502674
12.3363111   -0.9995406  -0.0258580   0.0000720   0.0003281  -0.0000098  -0.0000015  -0.7052440   0.6539590
12.4879643   -0.9995791  -0.0261001   0.0000474   0.0003317  -0.0000047  -0.0000026  -0.7015574   0.6576797
12.6414818   -0.9995930  -0.0265080   0.0000667   0.0003584   0.0000050  -0.0000068  -0.6978449   0.6613944
12.7968866   -0.9995853  -0.0268325   0.0000694   0.0003499   0.0000019  -0.0000131  -0.6941116   0.6651428
12.9542018   -0.9995293  -0.0270670   0.0000693   0.0003420   0.0000027   0.0000004  -0.6903715   0.6689079
13.1134509   -0.9996326  -0.0273766   0.0000545   0.0003620  -0.0000100  -0.0000035  -0.6864955   0.6727020
13.2746577   -0.9995188  -0.0277561   0.0000669   0.0003616  -0.0000033  -0.0000037  -0.6825288   0.6765492
13.4378462   -0.9995340  -0.0280551   0.0000611   0.0003575   0.0000116  -0.0000093  -0.6785797   0.6805044
13.6030409   -0.9994694  -0.0283928   0.0000588   0.0003681   0.0000024  -0.0000091  -0.6744924   0.6843455
13.7702663   -0.9994897  -0.0288603   0.0000629   0.0003665  -0.0000078   0.0000053  -0.6703140   0.6882447
13.9395475   -0.9995738  -0.0291548   0.0000727   0.0003784  -0.0000009  -0.0000010  -0.6661352   0.6921232
14.1109097   -0.9994203  -0.0294536   0.0000674   0.0003748  -0.0000038  -0.0000051  -0.6618006   0.6961022
14.2843785   -0.9996424  -0.0298179   0.0000672   0.0003888   0.0000052   0.0000030  -0.6574447   0.7000021
14.4599797   -0.9995885  -0.0302452   0.0000672   0.0003789   0.0000036  -0.0000067  -0.6530176   0.7040575
14.6377397   -0.9996341  -0.0304406   0.0000785   0.0003948  -0.0000093  -0.0000076  -0.6485291   0.7080584
14.8176850   -0.9995790  -0.0309080   0.0000788   0.0003930  -0.0000131   0.0000027  -0.6439510   0.7120446
14.9998423   -0.9995828  -0.0313376   0.0000791   0.0003974  -0.0000022  -0.0000131  -0.6392536   0.7161155
15.1842390   -0.9996199  -0.0316832   0.0000595   0.0004163  -0.0000130   0.0000049  -0.6344815   0.7202062
15.3709024   -0.9995411  -0.0320458   0.0000682   0.0004214  -0.0000048   0.0000017  -0.6297241   0.7242485
15.5598606   -0.9996064  -0.0323553   0.0000699   0.0004153  -0.0000054  -0.0000108  -0.6248621   0.7283607
15.7511417   -0.9996537  -0.0327713   0.0000652   0.0004176   0.0000019  -0.0000063  -0.6198680   0.7325479
15.9447743   -0.9995152  -0.0332330   0.0000749   0.0004181   0.0000020  -0.0000005  -0.6148227   0.7366409
16.1407872   -0.9995897  -0.0335643   0.0000995   0.0004293  -0.0000153  -0.0000110  -0.6095775   0.7408179
16.3392097   -0.9995367  -0.0339353   0.0000805   0.0004351  -0.0000056   0.0000011  -0.6043237   0.7450111
16.5400716   -0.9995405  -0.0344015   0.0000824   0.0004451  -0.0000077   0.0000002  -0.5990279   0.7492048
16.7434026   -0.9995945  -0.0347446   0.0000720   0.0004450  -0.0000112  -0.0000024  -0.5935454   0.7533613
16.9492333   -0.9996550  -0.0351057   0.0000780   0.0004559   0.0000049   0.0000022  -0.5880423   0.7577115
17.1575942   -0.9996322  -0.0355988   0.0000942   0.0004653  -0.0000039   0.0000064  -0.5824226   0.7618352
17.3685166   -0.9995463  -0.0361004   0.0000657   0.0004612  -0.0000002   0.0000013  -0.5767305   0.7661086
17.5820320   -0.9996255  -0.0364116   0.0000708   0.0004737  -0.0000036  -0.0000010  -0.5708657   0.7702965
17.7981721   -0.9995084  -0.0369290   0.0000699   0.0004751  -0.0000008  -0.0000063  -0.5649477   0.7746078
18.0169693   -0.9996876  -0.0374087   0.0000816   0.0004775  -0.0000148   0.0000015  -0.5589829   0.7788677
18.2384562   -0.9994873  -0.0377342   0.0000722   0.0004946  -0.0000088  -0.0000066  -0.5528978   0.7832294
18.4626659   -0.9995761  -0.0382632   0.0000761   0.0004867   0.0000017  -0.0000043  -0.5466180   0.7874117
18.6896319   -0.9996150  -0.0387029   0.0000940   0.0004963  -0.0000066   0.0000047  -0.5403799   0.7916946
18.9193880   -0.9996144  -0.0392088   0.0000873   0.0005015  -0.0000040  -0.0000020  -0.5338648   0.7960754
19.1519686   -0.9995623  -0.0396538   0.0000916   0.0004966   0.0000009  -0.0000067  -0.5272533   0.8003731
19.3874083   -0.9995604  -0.0401594   0.0000776   0.0005160  -0.0000090  -0.0000072  -0.5205907   0.8046701
19.6257423   -0.9995177  -0.0407029   0.0000802   0.0005208  -0.0000034  -0.0000054  -0.5139282   0.8090026
19.8670063   -0.9994860  -0.0411204   0.0000726   0.0005193  -0.0000003  -0.0000053  -0.5070653   0.8132444
20.1112361   -0.9995546  -0.0415300   0.0000755   0.0005426   0.0000014   0.0000039  -0.5000667   0.8175503
20.3584684   -0.9995147  -0.0421432   0.0000747   0.0005394  -0.0000109  -0.0000031  -0.4928451   0.8218131
20.6087399   -0.9994888  -0.0425386   0.0000745   0.0005488   0.0000064  -0.0000074  -0.4856078   0.8260492
20.8620881   -0.9995094  -0.0431428   0.0000703   0.0005416  -0.0000070   0.0000015  -0.4781752   0.8303917
21.1185507   -0.9995117  -0.0437585   0.0000955   0.0005635  -0.0000055   0.0000029  -0.4706816   0.8346281
21.3781661   -0.9995073  -0.0441603   0.0001000   0.0005527  -0.0000035  -0.0000010  -0.4630449   0.8387695
21.6409730   -0.9996135  -0.0446987   0.0001012   0.0005605  -0.0000039  -0.0000078  -0.4552968   0.8429882
21.9070107   -0.9995963  -0.0451834   0.0000927   0.0005777  -0.0000070   0.0000040  -0.4474480   0.8472129
22.1763188   -0.9995868  -0.0458191   0.0000985   0.0005685  -0.0000040   0.0000040  -0.4393970   0.8514093
22.4489376   -0.9995654  -0.0462678   0.0000973   0.0005868  -0.0000043  -0.0000038  -0.4312338   0.8556008
22.7249077   -0.9995418  -0.0468455   0.0000764   0.0006037  -0.0000006  -0.0000028  -0.4229033   0.8597198
23.0042705   -0.9995383  -0.0473855   0.0001067   0.0006078  -0.0000025   0.0000032  -0.4144679   0.8638397
23.2870675   -0.9995617  -0.0480423   0.0000742   0.0006224  -0.0000063   0.0000051  -0.4059703   0.8679089
23.5733409   -0.9994201  -0.0485788   0.0000971   0.0006247  -0.0000101  -0.0000119  -0.3971808   0.8719871
23.8631337   -0.9995769  -0.0492156   0.0000975   0.0006273  -0.0000095   0.0000009  -0.3882574   0.8759217
24.1564889   -0.9994384  -0.0497849   0.0001012   0.0006312  -0.0000145   0.0000020  -0.3793041   0.8799030
24.4534504   -0.9994714  -0.0503486   0.0001093   0.0006443  -0.0000039  -0.0000033  -0.3701540   0.8837846
24.7540625   -0.9994335  -0.0509133   0.0000967   0.0006312  -0.0000011  -0.0000056  -0.3608652   0.8877116
25.0583701   -0.9994310  -0.0515598   0.0000967   0.0006651   0.0000015  -0.0000007  -0.3513553   0.8915770
25.3664186   -0.9993871  -0.0522002   0.0001102   0.0006695  -0.0000058  -0.0000061  -0.3416299   0.8953736
25.6782541   -0.9994573  -0.0528318   0.0000886   0.0006757   0.0000039  -0.0000031  -0.3318719   0.8991532
25.9939230   -0.9993090  -0.0534608   0.0001008   0.0006818  -0.0000041  -0.0000050  -0.3219447   0.9027781
26.3134725   -0.9993583  -0.0541388   0.0000957   0.0006968   0.0000036  -0.0000035  -0.3118192   0.9063520
26.6369503   -0.9993945  -0.0547110   0.0000997   0.0006970  -0.0000030  -0.0000139  -0.3015927   0.9099376
26.9644047   -0.9993699  -0.0553827   0.0000887   0.0007087   0.0000019   0.0000037  -0.2911556   0.9134289
27.2958846   -0.9994268  -0.0560753   0.0001051   0.0007241  -0.0000076   0.0000021  -0.2805167   0.9167797
27.6314394   -0.9994912  -0.0567476   0.0001059   0.0007329  -0.0000017  -0.0000051  -0.2698048   0.9201340
27.9711193   -0.9993897  -0.0574906   0.0001037   0.0007360   0.0000071  -0.0000031  -0.2588429   0.9232956
28.3149750   -0.9992300  -0.0581213   0.0001003   0.0007326   0.0000039  -0.0000051  -0.2477763   0.9264440
28.6630578   -0.9992092  -0.0588705   0.0001036   0.0007576  -0.0000087  -0.0000003  -0.2365017   0.9294491
29.0154196   -0.9991598  -0.0595380   0.0001172   0.0007446  -0.0000064  -0.0000030  -0.2250419   0.9323611
29.3721131   -0.9993011  -0.0602884   0.0001181   0.0007690   0.0000014  -0.0000039  -0.2134533   0.9351741
29.7331915   -0.9992618  -0.0609268   0.0001094   0.0007733  -0.0000054  -0.0000036  -0.2016027   0.9379710
30.0987087   -0.9992315  -0.0617256   0.0001077   0.0007838  -0.0000033   0.0000123  -0.1897006   0.9405994
30.4687194   -0.9991747  -0.0623876   0.0001014   0.0007895  -0.0000021  -0.0000058  -0.1775500   0.9431766
30.8432786   -0.9991282  -0.0631885   0.0000964   0.0007976  -0.0000102   0.0000030  -0.1652043   0.9454509
31.2224424   -0.9990512  -0.0638840   0.0000916   0.0008013   0.0000061   0.0000027  -0.1527992   0.9476807
31.6062674   -0.9990642  -0.0647007   0.0001174   0.0008180  -0.0000091  -0.0000072  -0.1400337   0.9498177
31.9948108   -0.9991351  -0.0654845   0.0001169   0.0008307   0.0000000   0.0000043  -0.1271896   0.9518871
32.3881306   -0.9990887  -0.0662573   0.0001054   0.0008435  -0.0000007  -0.0000042  -0.1141830   0.9537462
32.7862857   -0.9990658  -0.0670890   0.0001110   0.0008524  -0.0000070  -0.0000062  -0.1009629   0.9553778
33.1893353   -0.9990599  -0.0678374   0.0001181   0.0008596  -0.0000018  -0.0000006  -0.0875903   0.9570247
33.5973398   -0.9989644  -0.0686124   0.0001069   0.0008641   0.0000037  -0.0000116  -0.0740442   0.9583378
34.0103599   -0.9990119  -0.0694903   0.0000967   0.0008975  -0.0000011   0.0000036  -0.0602129   0.9594876
34.4284574   -0.9988502  -0.0702487   0.0001110   0.0009040  -0.0000075  -0.0000028  -0.0465159   0.9606917
34.8516946   -0.9989310  -0.0711204   0.0001010   0.0009144  -0.0000053   0.0000028  -0.0322434   0.9616950
35.2801349   -0.9987780  -0.0719632   0.0001184   0.0009189  -0.0000032  -0.0000036  -0.0177784   0.9624635
35.7138420   -0.9987517  -0.0729174   0.0001095   0.0009260  -0.0000069  -0.0000060  -0.0032039   0.9628964
36.1528808   -0.9987331  -0.0737435   0.0001344   0.0009500  -0.0000086  -0.0000063   0.0115347   0.9632563
36.5973168   -0.9986965  -0.0746669   0.0001515   0.0009647   0.0000000  -0.0000055   0.0264333   0.9633738
37.0472164   -0.9986710  -0.0756219   0.0001293   0.0009738  -0.0000010  -0.0000025   0.0415912   0.9631242
37.5026467   -0.9986617  -0.0765221   0.0001303   0.0009888   0.0000005  -0.0000051   0.0569194   0.9628974
37.9636757   -0.9985331  -0.0774707   0.0001621   0.0009934  -0.0000025  -0.0000048   0.0726387   0.9619464
38.4303722   -0.9985330  -0.0783633   0.0001538   0.0009914   0.0000012  -0.0000023   0.0881824   0.9611452
38.9028060   -0.9984985  -0.0793703   0.0001434   0.0010228   0.0000032   0.0000041   0.1040381   0.9599848
39.3810475   -0.9984653  -0.0801870   0.0001556   0.0010155  -0.0000019   0.0000034   0.1201362   0.9586652
39.8651681   -0.9983905  -0.0811503   0.0001499   0.0010348  -0.0000008   0.0000047   0.1362896   0.9569852
40.3552402   -0.9983445  -0.0820924   0.0001524   0.0010409   0.0000052   0.0000025   0.1527017   0.9550329
40.8513368   -0.9982546  -0.0830638   0.0001524   0.0010510  -0.0000009  -0.0000083   0.1693457   0.9526915
41.3535320   -0.9982388  -0.0841207   0.0001452   0.0010429  -0.0000069  -0.0000035   0.1860114   0.9501695
41.8619009   -0.9981450  -0.0851808   0.0001483   0.0010812  -0.0000012   0.0000013   0.2030277   0.9472720
42.3765193   -0.9980507  -0.0860999   0.0001503   0.0010809   0.0000010  -0.0000008   0.2201222   0.9440599
42.8974639   -0.9980929  -0.0871438   0.0001683   0.0010967  -0.0000026   0.0000052   0.2373514   0.9404513
43.4248127   -0.9979904  -0.0882535   0.0001733   0.0010935   0.0000010  -0.0000060   0.2547651   0.9366341
43.9586443   -0.9978916  -0.0893441   0.0001508   0.0011069   0.0000045  -0.0000092   0.2723270   0.9323410
44.4990385   -0.9978957  -0.0903402   0.0001621   0.0011234  -0.0000060   0.0000010   0.2900678   0.9276746
45.0460758   -0.9977817  -0.0914745   0.0001525   0.0011500   0.0000030   0.0000042   0.3079234   0.9226692
45.5998380   -0.9976180  -0.0924827   0.0001683   0.0011421  -0.0000014  -0.0000026   0.3258964   0.9172927
46.1604077   -0.9976864  -0.0936266   0.0001480   0.0011586  -0.0000057  -0.0000096   0.3439905   0.9114112
46.7278686   -0.9976126  -0.0947706   0.0001613   0.0011712  -0.0000078  -0.0000061   0.3622095   0.9051561
47.3023055   -0.9975807  -0.0959382   0.0001509   0.0011925  -0.0000035   0.0000063   0.3805383   0.8984954
47.8838040   -0.9974523  -0.0970966   0.0001352   0.0011931   0.0000035  -0.0000116   0.3990787   0.8913030
48.4724511   -0.9974488  -0.0982709   0.0001538   0.0012255  -0.0000043   0.0000037   0.4175483   0.8837820
49.0683345   -0.9972893  -0.0993662   0.0001600   0.0012494  -0.0000065   0.0000016   0.4362200   0.8757527
49.6715433   -0.9972301  -0.1005943   0.0001670   0.0012609  -0.0000056  -0.0000091   0.4548566   0.8672616
50.2821675   -0.9971712  -0.1017875   0.0001787   0.0012861  -0.0000049  -0.0000026   0.4737366   0.8581977
50.9002982   -0.9969209  -0.1030297   0.0001765   0.0012950  -0.0000001  -0.0000023   0.4925113   0.8486204
51.5260277   -0.9968798  -0.1042025   0.0001830   0.0013057   0.0000016  -0.0000145   0.5114078   0.8386844
52.1594495   -0.9968380  -0.1054373   0.0001570   0.0013235   0.0000007  -0.0000111   0.5302185   0.8281260
52.8006581   -0.9966567  -0.1067565   0.0001746   0.0013263   0.0000019  -0.0000070   0.5491565   0.8169084
53.4497492   -0.9966084  -0.1080822   0.0001801   0.0013253   0.0000038  -0.0000035   0.5682259   0.8053365
54.1068198   -0.9964696  -0.1093832   0.0001611   0.0013624   0.0000014  -0.0000070   0.5870810   0.7931806
54.7719678   -0.9963838  -0.1106359   0.0001967   0.0013851  -0.0000080  -0.0000108   0.6059003   0.7804755
55.4452927   -0.9962920  -0.1118955   0.0001857   0.0013872  -0.0000031   0.0000036   0.6248029   0.7668483
56.1268950   -0.9961793  -0.1133589   0.0001819   0.0014241  -0.0000012  -0.0000006   0.6436129   0.7528409
56.8168763   -0.9960352  -0.1147740   0.0001625   0.0014028  -0.0000113  -0.0000002   0.6623330   0.7382715
57.5153398   -0.9959219  -0.1161436   0.0001736   0.0014351  -0.0000006  -0.0000099   0.6809259   0.7230836
58.2223896   -0.9957524  -0.1174848   0.0001724   0.0014550   0.0000062  -0.0000063   0.6993919   0.7071741
58.9381314   -0.9956393  -0.1188911   0.0001699   0.0014720   0.0000077  -0.0000018   0.7177304   0.6906869
59.6626719   -0.9955601  -0.1203503   0.0001612   0.0014765   0.0000018  -0.0000044   0.7358872   0.6734457
60.3961194   -0.9953762  -0.1217272   0.0001593   0.0015162  -0.0000076  -0.0000076   0.7539451   0.6555725
61.1385834   -0.9952860  -0.1232153   0.0001659   0.0015271   0.0000077  -0.0000151   0.7717916   0.6369847
61.8901746   -0.9951596  -0.1246411   0.0001688   0.0015575  -0.0000007  -0.0000055   0.7892939   0.6177425
62.6510053   -0.9949985  -0.1261344   0.0001350   0.0015603  -0.0000042  -0.0000129   0.8065969   0.5978861
63.4211891   -0.9948211  -0.1275748   0.0001570   0.0016048  -0.0000005   0.0000010   0.8236544   0.5771804
64.2008409   -0.9947015  -0.1291717   0.0001443   0.0016189  -0.0000013  -0.0000071   0.8403290   0.5559154
64.9900772   -0.9945256  -0.1308375   0.0001370   0.0016694   0.0000060  -0.0000039   0.8567017   0.5338548
65.7890158   -0.9943040  -0.1322415   0.0001558   0.0016937   0.0000066  -0.0000067   0.8726612   0.5111127
66.5977759   -0.9940853  -0.1338178   0.0001521   0.0017427  -0.0000110   0.0000004   0.8881822   0.4875516
67.4164783   -0.9939278  -0.1355315   0.0001928   0.0017462   0.0000024  -0.0000098   0.9034119   0.4632958
68.2452452   -0.9937686  -0.1370789   0.0001602   0.0017791  -0.0000016  -0.0000030   0.9180764   0.4384124
69.0842003   -0.9935865  -0.1386947   0.0001798   0.0018021  -0.0000021  -0.0000152   0.9322427   0.4127304
69.9334689   -0.9934076  -0.1403529   0.0001914   0.0018132  -0.0000106  -0.0000085   0.9455765   0.3863505
70.7931778   -0.9930636  -0.1422488   0.0002149   0.0018441   0.0000082  -0.0000021   0.9591080   0.3591561
71.6634552   -0.9929178  -0.1439414   0.0001921   0.0018541  -0.0000035  -0.0000070   0.9716677   0.3310241
72.5444312   -0.9925854  -0.1455687   0.0002270   0.0018861   0.0000123   0.0000005   0.9836817   0.3023485
73.4362373   -0.9924699  -0.1474024   0.0001884   0.0019150  -0.0000012  -0.0000107   0.9948434   0.2729349
74.3390065   -0.9923697  -0.1489044   0.0001824   0.0019594   0.0000080  -0.0000129   1.0046945   0.2431284
75.2528737   -0.9920512  -0.1507664   0.0002223   0.0019752  -0.0000040  -0.0000102   1.0143737   0.2123149
76.1779753   -0.9917534  -0.1525886   0.0002074   0.0020158  -0.0000051  -0.0000124   1.0232854   0.1808396
77.1144493   -0.9915514  -0.1544057   0.0002337   0.0020524  -0.0000026  -0.0000045   1.0313023   0.1486103
78.0624357   -0.9912401  -0.1562130   0.0002409   0.0020907  -0.0000029  -0.0000080   1.0384154   0.1157628
79.0220759   -0.9911117  -0.1581774   0.0002350   0.0021378   0.0000002  -0.0000036   1.0445212   0.0821697
79.9935132   -0.9906292  -0.1599790   0.0002818   0.0021619   0.0000041  -0.0000131   1.0496229   0.0480313
80.9768926   -0.9904765  -0.1619134   0.0002727   0.0021733  -0.0000064  -0.0000116   1.0537186   0.0132410
81.9723609   -0.9901913  -0.1638480   0.0003103   0.0022041   0.0000053  -0.0000071   1.0567157  -0.0222640
82.9800667   -0.9899417  -0.1658321   0.0003434   0.0022001  -0.0000016  -0.0000180   1.0586042  -0.0582525
84.0001605   -0.9896188  -0.1676700   0.0003083   0.0022329   0.0000053  -0.0000160   1.0593000  -0.0947391
85.0327946   -0.9892754  -0.1697628   0.0003164   0.0022695   0.0000022  -0.0000081   1.0586965  -0.1319093
86.0781231   -0.9889813  -0.1717460   0.0003263   0.0023006   0.0000029  -0.0000101   1.0568105  -0.1694968
87.1363020   -0.9885988  -0.1739073   0.0003467   0.0023331   0.0000048  -0.0000041   1.0536046  -0.2074041
88.2074894   -0.9883552  -0.1759630   0.0003649   0.0023859  -0.0000051  -0.0000155   1.0489040  -0.2458368
89.2918452   -0.9879876  -0.1780806   0.0003950   0.0024161  -0.0000005  -0.0000021   1.0430306  -0.2849234
90.3895312   -0.9875658  -0.1801062   0.0004587   0.0024294  -0.0000024  -0.0000180   1.0355088  -0.3237174
91.5007114   -0.9872648  -0.1822433   0.0004009   0.0024502  -0.0000084  -0.0000163   1.0264270  -0.3630294
92.6255515   -0.9869434  -0.1844157   0.0004538   0.0024610  -0.0000034  -0.0000041   1.0155656  -0.4024850
93.7642195   -0.9866014  -0.1867087   0.0004837   0.0024644  -0.0000052  -0.0000188   1.0031624  -0.4420937
94.9168855   -0.9862022  -0.1888206   0.0004985   0.0025074  -0.0000125  -0.0000104   0.9892346  -0.4818269
96.0837215   -0.9857892  -0.1910844   0.0004929   0.0025116  -0.0000039  -0.0000178   0.9734644  -0.5215695
97.2649017   -0.9853424  -0.1934334   0.0005152   0.0025370  -0.0000004  -0.0000104   0.9559370  -0.5609835
98.4606024   -0.9849655  -0.1956508   0.0005154   0.0025381  -0.0000038  -0.0000064   0.9365502  -0.6005025
99.6710021   -0.9845016  -0.1979529   0.0005133   0.0025446  -0.0000145  -0.0000062   0.9153443  -0.6396754
100.8962816  -0.9840391  -0.2003413   0.0005278   0.0025778  -0.0000102  -0.0000124   0.8922365  -0.6784421
102.1366237  -0.9835769  -0.2026622   0.0005036   0.0026047   0.0000052  -0.0000179   0.8671283  -0.7166929
103.3922136  -0.9829839  -0.2051972   0.0005009   0.0026334  -0.0000096  -0.0000112   0.8401955  -0.7544722
104.6632389  -0.9824692  -0.2075864   0.0005355   0.0026488  -0.0000105  -0.0000055   0.8113415  -0.7912682
105.9498891  -0.9815396  -0.2099646   0.0004953   0.0026557  -0.0000069  -0.0000089   0.7803574  -0.8250929
107.2523564  -0.9821390  -0.2123306   0.0005144   0.0026961  -0.0000016  -0.0000085   0.7458400  -0.8653272
108.5708353  -0.9816539  -0.2149250   0.0004864   0.0027356  -0.0000106  -0.0000041   0.7121824  -0.8993932
109.9055225  -0.9793401  -0.2178150   0.0004365   0.0027863   0.0000076  -0.0000064   0.6774515  -0.9319120
111.2566174  -0.9799063  -0.2200946   0.0004915   0.0028901  -0.0000017  -0.0000120   0.6366632  -0.9623526
112.6243216  -0.9794347  -0.2225250   0.0005082   0.0029286   0.0000017  -0.0000150   0.5956314  -0.9930429
114.0088393  -0.9788615  -0.2253546   0.0004975   0.0029692  -0.0000127  -0.0000032   0.5528684  -1.0220177
115.4103773  -0.9782934  -0.2280672   0.0005245   0.0030020  -0.0000076  -0.0000214   0.5080600  -1.0493846
116.8291446  -0.9777600  -0.2305871   0.0005770   0.0030475   0.0000125  -0.0000049   0.4616156  -1.0748125
118.2653533  -0.9771630  -0.2333153   0.0006351   0.0031256  -0.0000004  -0.0000118   0.4131618  -1.0983546
119.7192175  -0.9765595  -0.2359910   0.0005996   0.0031038  -0.0000147  -0.0000006   0.3630310  -1.1198741
121.1909545  -0.9759404  -0.2388372   0.0006069   0.0031210  -0.0000096  -0.0000137   0.3112472  -1.1389094
122.6807839  -0.9752279  -0.2416367   0.0006000   0.0031443  -0.0000186  -0.0000183   0.2578829  -1.1556283
124.1889281  -0.9744699  -0.2445882   0.0005874   0.0031897   0.0000025  -0.0000021   0.2030196  -1.1697805
125.7156123  -0.9737993  -0.2472808   0.0005892   0.0031872  -0.0000108  -0.0000053   0.1468018  -1.1813263
127.2610644  -0.9731866  -0.2501723   0.0005598   0.0032059  -0.0000061  -0.0000096   0.0899457  -1.1898236
128.8255151  -0.9722461  -0.2531791   0.0005127   0.0032376  -0.0000125  -0.0000101   0.0310541  -1.1954536
130.4091980  -0.9715431  -0.2560252   0.0004786   0.0032841  -0.0000132  -0.0000125  -0.0282397  -1.1979713
132.0123495  -0.9707074  -0.2588685   0.0004028   0.0034216  -0.0000062  -0.0000027  -0.0885005  -1.1971293
133.6352088  -0.9699429  -0.2621442   0.0003589   0.0035041  -0.0000239  -0.0000059  -0.1491135  -1.1931309
135.2780184  -0.9691956  -0.2650539   0.0003577   0.0036517  -0.0000031  -0.0000057  -0.2103454  -1.1854267
136.9410235  -0.9682522  -0.2681651   0.0003355   0.0037919  -0.0000093  -0.0000137  -0.2717939  -1.1740384
138.6244722  -0.9672812  -0.2714407   0.0003758   0.0039713  -0.0000096  -0.0000023  -0.3330388  -1.1591738
140.3286160  -0.9665388  -0.2743858   0.0004408   0.0041200  -0.0000127  -0.0000127  -0.3943408  -1.1406394
142.0537093  -0.9654567  -0.2776306   0.0005403   0.0043100  -0.0000183  -0.0000196  -0.4577303  -1.1193078
143.8000095  -0.9647676  -0.2807328   0.0006733   0.0044163  -0.0000058   0.0000000  -0.5114804  -1.0920313
145.5677774  -0.9637575  -0.2843189   0.0008468   0.0045232   0.0000058  -0.0000122  -0.5686752  -1.0596310
147.3572769  -0.9627036  -0.2874976   0.0010179   0.0045134  -0.0000021  -0.0000169  -0.6296031  -1.0274029
149.1687752  -0.9617661  -0.2907455   0.0011045   0.0045343   0.0000015  -0.0000091  -0.6842854  -0.9897038
151.0025426  -0.9605194  -0.2940000   0.0012230   0.0045333  -0.0000053  -0.0000193  -0.7376444  -0.9478988
152.8588530  -0.9599321  -0.2975600   0.0012729   0.0045475  -0.0000013  -0.0000092  -0.7884430  -0.9023780
154.7379834  -0.9587160  -0.3010010   0.0013367   0.0045385  -0.0000086  -0.0000110  -0.8368112  -0.8532143
156.6402144  -0.9576205  -0.3044059   0.0014018   0.0045438  -0.0000084  -0.0000061  -0.8822036  -0.8005717
158.5658301  -0.9564428  -0.3079635   0.0014414   0.0045693  -0.0000037   0.0000147  -0.9241073  -0.7445390
160.5151177  -0.9551721  -0.3112403   0.0015098   0.0045612   0.0000014  -0.0000065  -0.9630209  -0.6849737
162.4883685  -0.9543329  -0.3151521   0.0015464   0.0046176   0.0000013  -0.0000028  -0.9967976  -0.6237559
164.4858769  -0.9525033  -0.3185639   0.0016012   0.0046283   0.0000046  -0.0000033  -1.0278789  -0.5582318
166.5079411  -0.9513159  -0.3220171   0.0016584   0.0046080  -0.0000070  -0.0000102  -1.0539276  -0.4910024
168.5548630  -0.9504519  -0.3258411   0.0016930   0.0046463  -0.0000107   0.0000016  -1.0755896  -0.4214285
170.6269483  -0.9489219  -0.3295353   0.0017389   0.0046787  -0.0000006  -0.0000172  -1.0920161  -0.3500769
172.7245062  -0.9475480  -0.3332162   0.0017345   0.0047093   0.0000046  -0.0000030  -1.1035268  -0.2774294
174.8478498  -0.9463022  -0.3370041   0.0017468   0.0047876   0.0000061  -0.0000036  -1.1094082  -0.2032648
176.9972963  -0.9447325  -0.3406541   0.0018313   0.0048351   0.0000235  -0.0000062  -1.1102204  -0.1277967
179.1731664  -0.9440556  -0.3476100   0.0018562   0.0048989  -0.0000187  -0.0000088  -1.1019377  -0.0580540
181.3757850  -0.9427606  -0.3484124   0.0018347   0.0049580  -0.0000020  -0.0000058  -1.0923748   0.0172629
183.6054809  -0.9402884  -0.3524886   0.0019706   0.0049328  -0.0000115  -0.0000014  -1.0773858   0.0954521
185.8625870  -0.9386888  -0.3564260   0.0019514   0.0049772  -0.0000271  -0.0000083  -1.0548059   0.1676861
188.1474402  -0.9373460  -0.3605049   0.0020466   0.0050639  -0.0000045  -0.0000041  -1.0266452   0.2388777
190.4603817  -0.9355713  -0.3647339   0.0020385   0.0051399  -0.0000241  -0.0000166  -0.9928692   0.3077410
192.8017567  -0.9339399  -0.3687856   0.0021002   0.0051883   0.0000113  -0.0000080  -0.9528826   0.3737659
195.1719148  -0.9320361  -0.3728928   0.0022056   0.0052489  -0.0000411   0.0000164  -0.9079903   0.4365081
197.5712099  -0.9305014  -0.3765853   0.0022635   0.0053100   0.0000064  -0.0000064  -0.8584258   0.4960860
200.0000000  -0.9286036  -0.3815134   0.0023342   0.0054355  -0.0000129  -0.0000066  -0.8026131   0.5505821
