! ListType=Log
# MHZ S RI R 50
0.0010000    -0.9986522   0.0003203   0.0004937   0.0005585  -0.0000115  -0.0000299  -0.9088780   0.2599563
0.0010123    -0.9995640  -0.0004905   0.0001974   0.0001824   0.0000121  -0.0000287  -0.9094622   0.2603417
0.0010247    -0.9969771  -0.0001895   0.0005777   0.0001799  -0.0000157   0.0000266  -0.9095897   0.2591301
0.0010373    -0.9986283  -0.0001131   0.0001450   0.0005103  -0.0000085  -0.0000056  -0.9097936   0.2598523
0.0010501    -0.9984426   0.0011325  -0.0000552   0.0005934  -0.0000136  -0.0000118  -0.9091506   0.2596915
0.0010630    -0.9992466  -0.0005892   0.0000760   0.0005508   0.0000229   0.0000125  -0.9105505   0.2595735
0.0010761    -0.9974224  -0.0004811   0.0004543   0.0005125  -0.0000149   0.0000095  -0.9107037   0.2587981
0.0010893    -1.0000182  -0.0001211   0.0003392   0.0004458   0.0000198  -0.0000037  -0.9110865   0.2599258
0.0011027    -0.9983886  -0.0000954   0.0002680   0.0005917   0.0000030  -0.0000187  -0.9110775   0.2587990
0.0011162    -0.9974613  -0.0010228   0.0003188   0.0004023  -0.0000056   0.0000030  -0.9120701   0.2584382
0.0011300    -0.9980373   0.0004121   0.0002554   0.0004556  -0.0000259  -0.0000173  -0.9112969   0.2587179
0.0011439    -0.9990264  -0.0000278   0.0002261   0.0004817   0.0000190  -0.0000020  -0.9120502   0.2590832
0.0011579    -0.9970016  -0.0001396   0.0003828   0.0004634  -0.0000080   0.0000011  -0.9120575   0.2578675
0.0011721    -0.9983451  -0.0003429   0.0004628   0.0007904   0.0000114  -0.0000118  -0.9124015   0.2585311
0.0011866    -0.9978565   0.0011594   0.0003228   0.0004147  -0.0000454  -0.0000152  -0.9122040   0.2582435
0.0012011    -0.9985274   0.0001198   0.0002279   0.0007243  -0.0000151   0.0000003  -0.9128818   0.2582597
0.0012159    -0.9989033  -0.0007326   0.0004040   0.0004109   0.0000208   0.0000031  -0.9136437   0.2584854
0.0012309    -0.9978117  -0.0002275   0.0003781   0.0003454   0.0000094   0.0000109  -0.9137401   0.2577885
0.0012460    -0.9983321   0.0007002   0.0002061   0.0002118  -0.0000062  -0.0000060  -0.9134154   0.2581256
0.0012613    -0.9986132  -0.0009936   0.0003632   0.0003358   0.0000269  -0.0000021  -0.9147353   0.2579363
0.0012768    -0.9978256   0.0001201   0.0002880   0.0004779  -0.0000207   0.0000053  -0.9141770   0.2576231
0.0012925    -0.9993752  -0.0007300  -0.0000305   0.0002860   0.0000140   0.0000076  -0.9151106   0.2580592
0.0013084    -0.9980127   0.0000229   0.0004040   0.0003869  -0.0000049   0.0000097  -0.9149123   0.2575421
0.0013245    -0.9992164  -0.0007573   0.0003796   0.0004201   0.0000181  -0.0000016  -0.9155488   0.2580240
0.0013408    -0.9981935  -0.0001351   0.0002182   0.0003705   0.0000024  -0.0000096  -0.9153819   0.2572752
0.0013572    -0.9990709  -0.0010253   0.0002497   0.0004751   0.0000187   0.0000077  -0.9163567   0.2576933
0.0013739    -0.9984296   0.0000155   0.0004557   0.0006827   0.0000133   0.0000164  -0.9162218   0.2575399
0.0013908    -0.9985188  -0.0011334   0.0003365   0.0003299   0.0000136   0.0000045  -0.9169530   0.2576089
0.0014079    -0.9986176   0.0003990   0.0003493   0.0004023  -0.0000214  -0.0000005  -0.9167295   0.2573538
0.0014252    -0.9982387  -0.0008446   0.0005030   0.0003941   0.0000186   0.0000247  -0.9176592   0.2572531
0.0014427    -0.9985233   0.0001735   0.0003200   0.0002917  -0.0000097  -0.0000156  -0.9173659   0.2571991
0.0014605    -0.9986553  -0.0010003   0.0004115   0.0004821   0.0000009  -0.0000180  -0.9180822   0.2573986
0.0014784    -0.9978831   0.0004034   0.0003581   0.0003936  -0.0000049   0.0000082  -0.9178605   0.2569127
0.0014966    -0.9989227   0.0001160   0.0003529   0.0004163   0.0000002  -0.0000287  -0.9186111   0.2574162
0.0015150    -0.9984468  -0.0007503   0.0003008   0.0005287   0.0000270   0.0000241  -0.9189818   0.2573396
0.0015336    -0.9981427   0.0000699   0.0004648   0.0002847  -0.0000074  -0.0000028  -0.9190102   0.2570696
0.0015525    -0.9984846   0.0008285   0.0004526   0.0002498  -0.0000076  -0.0000167  -0.9190290   0.2573496
0.0015716    -0.9982605  -0.0003222   0.0003884   0.0004416   0.0000126  -0.0000211  -0.9196280   0.2571869
0.0015909    -0.9990232  -0.0001275   0.0004491   0.0003926   0.0000100  -0.0000345  -0.9199847   0.2575694
0.0016104    -0.9979025  -0.0001703   0.0005538   0.0001228  -0.0000243   0.0000094  -0.9203199   0.2569523
0.0016302    -0.9989527   0.0004288   0.0003892   0.0003040   0.0000135  -0.0000063  -0.9203642   0.2573044
0.0016503    -0.9988473  -0.0006450   0.0004170   0.0003409   0.0000088  -0.0000100  -0.9213751   0.2574882
0.0016706    -0.9982713  -0.0000479   0.0003115   0.0003121   0.0000033  -0.0000045  -0.9211996   0.2574022
0.0016911    -0.9981267  -0.0003621   0.0005628   0.0003583  -0.0000210  -0.0000159  -0.9218180   0.2570958
0.0017119    -0.9983409   0.0002214   0.0004036   0.0003619  -0.0000161  -0.0000298  -0.9218589   0.2574357
0.0017329    -0.9983365  -0.0006262   0.0003886   0.0003048  -0.0000031   0.0000134  -0.9220861   0.2573962
0.0017542    -0.9979026  -0.0008246   0.0004058   0.0005674   0.0000071   0.0000175  -0.9225671   0.2571541
0.0017758    -0.9985695  -0.0001240   0.0004375   0.0002072  -0.0000018  -0.0000029  -0.9227763   0.2574617
0.0017976    -0.9981393  -0.0002849   0.0005361   0.0004709   0.0000059  -0.0000063  -0.9233452   0.2574793
0.0018197    -0.9979785   0.0004215   0.0003979   0.0002600  -0.0000150  -0.0000040  -0.9231438   0.2573279
0.0018421    -0.9984419  -0.0004777   0.0004330   0.0003675   0.0000151  -0.0000070  -0.9238326   0.2577191
0.0018648    -0.9980987  -0.0000549   0.0005204   0.0003467  -0.0000028   0.0000040  -0.9239003   0.2574820
0.0018877    -0.9984531   0.0005291   0.0005191   0.0003661  -0.0000105  -0.0000158  -0.9239804   0.2577066
0.0019109    -0.9983403  -0.0005107   0.0002986   0.0002545  -0.0000036   0.0000066  -0.9248491   0.2579357
0.0019344    -0.9981277   0.0001312   0.0004583   0.0002880  -0.0000050  -0.0000064  -0.9247153   0.2577397
0.0019582    -0.9982398   0.0003779   0.0005048   0.0002927   0.0000018  -0.0000051  -0.9248236   0.2579512
0.0019822    -0.9988120  -0.0005164   0.0004031   0.0003300   0.0000061   0.0000007  -0.9256894   0.2580907
0.0020066    -0.9983454   0.0000382   0.0005168   0.0003044   0.0000030   0.0000010  -0.9257598   0.2582423
0.0020313    -0.9983473  -0.0004771   0.0004194   0.0002766   0.0000072   0.0000076  -0.9261621   0.2581689
0.0020562    -0.9979579  -0.0004709   0.0005260   0.0003288  -0.0000161  -0.0000018  -0.9265384   0.2580705
0.0020815    -0.9983732   0.0002957   0.0004282   0.0003109   0.0000003  -0.0000015  -0.9265952   0.2584793
0.0021071    -0.9981947  -0.0002064   0.0004564   0.0002645  -0.0000104  -0.0000033  -0.9270215   0.2585237
0.0021330    -0.9986221  -0.0001206   0.0003985   0.0002875  -0.0000010  -0.0000229  -0.9272019   0.2587586
0.0021592    -0.9987633  -0.0004277   0.0004745   0.0002132  -0.0000025  -0.0000190  -0.9277383   0.2588852
0.0021858    -0.9980925  -0.0005396   0.0004528   0.0002806  -0.0000026  -0.0000044  -0.9279115   0.2586740
0.0022126    -0.9985426   0.0000418   0.0004686   0.0002741  -0.0000054  -0.0000144  -0.9280733   0.2590422
0.0022398    -0.9984304  -0.0000932   0.0004636   0.0002678  -0.0000122   0.0000062  -0.9283379   0.2590142
0.0022674    -0.9988395  -0.0001065   0.0004830   0.0003317   0.0000047  -0.0000181  -0.9287816   0.2593020
0.0022953    -0.9986479  -0.0002250   0.0005380   0.0003211   0.0000060  -0.0000025  -0.9290308   0.2594769
0.0023235    -0.9981720  -0.0008537   0.0005097   0.0003157  -0.0000061  -0.0000002  -0.9294341   0.2594680
0.0023520    -0.9984106   0.0001970   0.0004598   0.0003012  -0.0000078  -0.0000054  -0.9292532   0.2594361
0.0023809    -0.9983933  -0.0002320   0.0005508   0.0001987  -0.0000079   0.0000077  -0.9299422   0.2596373
0.0024102    -0.9983783  -0.0001670   0.0005471   0.0003168   0.0000131   0.0000064  -0.9298942   0.2598229
0.0024398    -0.9981927  -0.0002958   0.0005796   0.0003567   0.0000033   0.0000032  -0.9303333   0.2599209
0.0024698    -0.9984376  -0.0001494   0.0005092   0.0003272   0.0000079  -0.0000170  -0.9305707   0.2602177
0.0025002    -0.9986102   0.0002161   0.0005809   0.0003301  -0.0000013  -0.0000042  -0.9307198   0.2603729
0.0025309    -0.9985362  -0.0000202   0.0005490   0.0002149  -0.0000087  -0.0000112  -0.9309336   0.2606611
0.0025621    -0.9987640  -0.0003019   0.0005712   0.0003107   0.0000070  -0.0000087  -0.9313972   0.2606534
0.0025935    -0.9985307  -0.0005936   0.0005489   0.0002768  -0.0000057  -0.0000035  -0.9316742   0.2605261
0.0026254    -0.9980860  -0.0001897   0.0005435   0.0002199  -0.0000042  -0.0000026  -0.9317934   0.2605545
0.0026577    -0.9982231   0.0002079   0.0005492   0.0003224  -0.0000107  -0.0000105  -0.9319015   0.2609742
0.0026904    -0.9987140  -0.0000880   0.0005685   0.0002160  -0.0000128  -0.0000062  -0.9320964   0.2613407
0.0027235    -0.9984834  -0.0006269   0.0005796   0.0002250  -0.0000013  -0.0000137  -0.9327563   0.2611832
0.0027569    -0.9981009   0.0000798   0.0005585   0.0003155  -0.0000088  -0.0000033  -0.9327095   0.2612955
0.0027908    -0.9986765   0.0000412   0.0004852   0.0002248   0.0000059  -0.0000083  -0.9327881   0.2617246
0.0028251    -0.9986497  -0.0003840   0.0005687   0.0002473   0.0000069   0.0000018  -0.9332618   0.2618815
0.0028599    -0.9983687  -0.0004280   0.0005919   0.0002896  -0.0000022   0.0000010  -0.9334185   0.2618729
0.0028950    -0.9980411  -0.0001043   0.0006041   0.0002945   0.0000031   0.0000025  -0.9336124   0.2618484
0.0029306    -0.9981311  -0.0001754   0.0005663   0.0002775  -0.0000042  -0.0000190  -0.9337557   0.2620064
0.0029666    -0.9982127  -0.0001673   0.0005313   0.0002644   0.0000131  -0.0000065  -0.9339990   0.2622600
0.0030031    -0.9983767  -0.0002384   0.0005845   0.0003296  -0.0000049   0.0000133  -0.9341076   0.2625548
0.0030400    -0.9984998  -0.0001503   0.0005343   0.0002527  -0.0000027  -0.0000165  -0.9343379   0.2628196
0.0030774    -0.9984405   0.0000202   0.0005441   0.0002725  -0.0000097  -0.0000045  -0.9345217   0.2629743
0.0031152    -0.9982995  -0.0003918   0.0006729   0.0001767   0.0000102   0.0000018  -0.9348862   0.2629809
0.0031535    -0.9983964  -0.0000825   0.0005814   0.0002408  -0.0000035  -0.0000120  -0.9349260   0.2633534
0.0031923    -0.9987152  -0.0003139   0.0005631   0.0002169   0.0000126  -0.0000124  -0.9353236   0.2634966
0.0032315    -0.9985464  -0.0005143   0.0006267   0.0002679  -0.0000004  -0.0000064  -0.9355121   0.2636469
0.0032713    -0.9985800  -0.0004045   0.0006120   0.0002120   0.0000023  -0.0000089  -0.9356770   0.2636865
0.0033115    -0.9986259  -0.0003091   0.0005935   0.0002621   0.0000084  -0.0000006  -0.9357024   0.2639999
0.0033522    -0.9987749  -0.0001450   0.0005880   0.0002491  -0.0000109  -0.0000057  -0.9360229   0.2644064
0.0033934    -0.9984791  -0.0003464   0.0006090   0.0002530   0.0000014   0.0000021  -0.9362628   0.2642656
0.0034351    -0.9983778  -0.0003240   0.0005977   0.0002280  -0.0000013   0.0000084  -0.9364516   0.2645556
0.0034773    -0.9983471   0.0000891   0.0005711   0.0002165   0.0000084  -0.0000086  -0.9364323   0.2647053
0.0035201    -0.9984313  -0.0003755   0.0006319   0.0002575   0.0000056  -0.0000029  -0.9367876   0.2648143
0.0035634    -0.9981843  -0.0001075   0.0006304   0.0003090   0.0000070  -0.0000048  -0.9368663   0.2649771
0.0036072    -0.9983927  -0.0002294   0.0006098   0.0002221  -0.0000008  -0.0000046  -0.9369396   0.2652301
0.0036515    -0.9984507   0.0000511   0.0005931   0.0002688  -0.0000051   0.0000044  -0.9372120   0.2655556
0.0036964    -0.9985814   0.0002476   0.0005452   0.0002226  -0.0000114   0.0000007  -0.9371598   0.2658447
0.0037418    -0.9985336  -0.0000723   0.0005740   0.0002377   0.0000014  -0.0000077  -0.9373776   0.2659021
0.0037878    -0.9985262  -0.0001674   0.0005807   0.0002245   0.0000009  -0.0000191  -0.9374859   0.2660117
0.0038344    -0.9986318  -0.0001689   0.0006261   0.0002488   0.0000059  -0.0000063  -0.9376847   0.2663411
0.0038815    -0.9983980  -0.0001636   0.0005970   0.0001627  -0.0000009   0.0000041  -0.9378065   0.2664228
0.0039293    -0.9983446  -0.0000936   0.0006305   0.0002059   0.0000049  -0.0000071  -0.9379777   0.2663981
0.0039776    -0.9985871  -0.0001661   0.0005631   0.0001848  -0.0000018  -0.0000120  -0.9381920   0.2668196
0.0040265    -0.9983354  -0.0001579   0.0006322   0.0002154   0.0000000   0.0000014  -0.9383100   0.2667670
0.0040759    -0.9985913  -0.0000605   0.0006125   0.0001826  -0.0000007   0.0000008  -0.9384242   0.2671272
0.0041261    -0.9984311  -0.0003780   0.0006440   0.0001699   0.0000015  -0.0000048  -0.9385339   0.2672093
0.0041768    -0.9984856  -0.0001297   0.0006047   0.0002192  -0.0000009   0.0000009  -0.9387328   0.2675105
0.0042281    -0.9984870  -0.0002721   0.0006395   0.0001577   0.0000064  -0.0000054  -0.9388509   0.2677209
0.0042801    -0.9985959  -0.0000953   0.0006546   0.0001827   0.0000041  -0.0000002  -0.9389324   0.2679158
0.0043327    -0.9986190  -0.0003871   0.0006096   0.0001740  -0.0000035  -0.0000042  -0.9390299   0.2683019
0.0043860    -0.9986896  -0.0003121   0.0006604   0.0001898  -0.0000025   0.0000091  -0.9392749   0.2683077
0.0044399    -0.9984629  -0.0002979   0.0006293   0.0001896   0.0000007  -0.0000043  -0.9393379   0.2684832
0.0044945    -0.9984851  -0.0001827   0.0006270   0.0001761  -0.0000065  -0.0000034  -0.9394909   0.2686169
0.0045497    -0.9986405  -0.0001515   0.0006108   0.0001867  -0.0000109  -0.0000034  -0.9394766   0.2688047
0.0046057    -0.9986145  -0.0001000   0.0006061   0.0002144  -0.0000053   0.0000049  -0.9395575   0.2689400
0.0046623    -0.9985555   0.0000356   0.0006406   0.0002040   0.0000035  -0.0000071  -0.9395089   0.2692334
0.0047196    -0.9986183  -0.0002742   0.0005900   0.0001882  -0.0000083  -0.0000009  -0.9398293   0.2694102
0.0047776    -0.9985931  -0.0001645   0.0006244   0.0001593   0.0000065  -0.0000104  -0.9398891   0.2695281
0.0048363    -0.9988218  -0.0001129   0.0006502   0.0001861   0.0000003  -0.0000094  -0.9399332   0.2697804
0.0048958    -0.9986621  -0.0000896   0.0006107   0.0001704  -0.0000047  -0.0000137  -0.9400721   0.2700554
0.0049560    -0.9986571  -0.0001793   0.0006240   0.0001209  -0.0000099  -0.0000067  -0.9402632   0.2701632
0.0050169    -0.9982655  -0.0000952   0.0006141   0.0001951  -0.0000178   0.0000051  -0.9403351   0.2701639
0.0050786    -0.9986131   0.0000052   0.0006228   0.0001507   0.0000062   0.0000011  -0.9403187   0.2703988
0.0051410    -0.9984285  -0.0000538   0.0006731   0.0001550  -0.0000039  -0.0000105  -0.9404152   0.2706001
0.0052042    -0.9985992  -0.0002921   0.0006643   0.0001478   0.0000035  -0.0000032  -0.9405021   0.2708001
0.0052682    -0.9986384  -0.0002551   0.0006737   0.0001427   0.0000060  -0.0000054  -0.9406327   0.2710467
0.0053330    -0.9985449  -0.0003201   0.0006397   0.0001697  -0.0000089  -0.0000088  -0.9406896   0.2711812
0.0053985    -0.9986662  -0.0002363   0.0006601   0.0001530  -0.0000131  -0.0000073  -0.9407775   0.2713440
0.0054649    -0.9986637  -0.0002191   0.0006226   0.0001475   0.0000164  -0.0000018  -0.9409076   0.2714998
0.0055321    -0.9986435  -0.0002824   0.0006588   0.0001357  -0.0000015  -0.0000112  -0.9409565   0.2716945
0.0056001    -0.9985241  -0.0004291   0.0006623   0.0001562   0.0000146   0.0000031  -0.9411138   0.2719386
0.0056689    -0.9986803  -0.0003569   0.0006301   0.0001668  -0.0000082  -0.0000200  -0.9411273   0.2720064
0.0057386    -0.9987101  -0.0001063   0.0006196   0.0001287   0.0000036  -0.0000155  -0.9411893   0.2721200
0.0058091    -0.9984642  -0.0001934   0.0006275   0.0001539   0.0000022   0.0000047  -0.9411386   0.2723728
0.0058806    -0.9985860  -0.0000340   0.0006527   0.0001411  -0.0000013  -0.0000061  -0.9411190   0.2724188
0.0059529    -0.9984800  -0.0001203   0.0006211   0.0001335  -0.0000054  -0.0000104  -0.9412062   0.2727041
0.0060260    -0.9985788  -0.0000267   0.0006550   0.0001540  -0.0000053  -0.0000183  -0.9412507   0.2727098
0.0061001    -0.9985658  -0.0000946   0.0006643   0.0001215  -0.0000142  -0.0000055  -0.9413455   0.2729546
0.0061751    -0.9985432  -0.0000555   0.0006544   0.0001290   0.0000003   0.0000049  -0.9413314   0.2731470
0.0062510    -0.9986452  -0.0000471   0.0006625   0.0001244  -0.0000030  -0.0000002  -0.9415101   0.2732916
0.0063279    -0.9985290  -0.0003718   0.0006706   0.0001326  -0.0000043  -0.0000012  -0.9416430   0.2734560
0.0064056    -0.9986036  -0.0002572   0.0007273   0.0001351   0.0000044  -0.0000061  -0.9416371   0.2736081
0.0064844    -0.9985367  -0.0002223   0.0006524   0.0001509   0.0000000  -0.0000076  -0.9416977   0.2736701
0.0065641    -0.9984919  -0.0000680   0.0006702   0.0001154  -0.0000063  -0.0000193  -0.9415242   0.2737903
0.0066448    -0.9983151  -0.0000430   0.0006471   0.0001161   0.0000005  -0.0000093  -0.9416728   0.2739591
0.0067265    -0.9983937  -0.0001659   0.0006581   0.0001227  -0.0000082   0.0000041  -0.9417777   0.2741424
0.0068092    -0.9985542  -0.0001544   0.0006760   0.0001227   0.0000036   0.0000010  -0.9418365   0.2743665
0.0068929    -0.9984081  -0.0002318   0.0006508   0.0001388   0.0000128  -0.0000086  -0.9418909   0.2744498
0.0069776    -0.9985364  -0.0002456   0.0006561   0.0001108   0.0000024  -0.0000116  -0.9420478   0.2746782
0.0070634    -0.9986705  -0.0003065   0.0006824   0.0001176   0.0000023  -0.0000052  -0.9419420   0.2748400
0.0071502    -0.9986783  -0.0001420   0.0006705   0.0001055   0.0000031  -0.0000154  -0.9419125   0.2748555
0.0072381    -0.9984393  -0.0000753   0.0006842   0.0001041  -0.0000033  -0.0000122  -0.9418756   0.2750367
0.0073271    -0.9984936  -0.0001476   0.0006664   0.0001403  -0.0000089  -0.0000030  -0.9420109   0.2752536
0.0074172    -0.9984924  -0.0002321   0.0006932   0.0001343   0.0000121  -0.0000083  -0.9421284   0.2753567
0.0075084    -0.9985024  -0.0002986   0.0006734   0.0000939   0.0000064  -0.0000108  -0.9421577   0.2755385
0.0076007    -0.9986361  -0.0000938   0.0006726   0.0000920   0.0000004  -0.0000116  -0.9421461   0.2756577
0.0076941    -0.9986591  -0.0000713   0.0006699   0.0000888  -0.0000021   0.0000084  -0.9421786   0.2759126
0.0077887    -0.9985671  -0.0001294   0.0007109   0.0000803   0.0000107  -0.0000020  -0.9421820   0.2759312
0.0078844    -0.9985483  -0.0001849   0.0006855   0.0000866  -0.0000035  -0.0000018  -0.9422685   0.2760016
0.0079814    -0.9986359   0.0000275   0.0006437   0.0000801   0.0000006  -0.0000059  -0.9422404   0.2762762
0.0080795    -0.9985196  -0.0000513   0.0006767   0.0000562   0.0000058  -0.0000034  -0.9423989   0.2763341
0.0081788    -0.9985156  -0.0002012   0.0006459   0.0000622  -0.0000045   0.0000043  -0.9422137   0.2765218
0.0082793    -0.9984454  -0.0000988   0.0006551   0.0000904  -0.0000005  -0.0000093  -0.9423942   0.2765888
0.0083811    -0.9985719  -0.0002056   0.0006872   0.0001219  -0.0000037   0.0000070  -0.9423573   0.2767983
0.0084842    -0.9986021  -0.0000298   0.0006368   0.0001163  -0.0000016   0.0000005  -0.9423313   0.2768930
0.0085885    -0.9985694   0.0000472   0.0006757   0.0000939   0.0000015  -0.0000070  -0.9424398   0.2769427
0.0086940    -0.9986161  -0.0001468   0.0006821   0.0000917   0.0000127  -0.0000141  -0.9423699   0.2771411
0.0088009    -0.9986236  -0.0001225   0.0006482   0.0000551   0.0000002   0.0000062  -0.9423860   0.2772914
0.0089091    -0.9986465  -0.0001314   0.0006940   0.0000914   0.0000024  -0.0000112  -0.9423989   0.2774866
0.0090186    -0.9985182  -0.0001486   0.0006866   0.0000696  -0.0000090  -0.0000046  -0.9424998   0.2774735
0.0091295    -0.9986643  -0.0001371   0.0006552   0.0000937   0.0000055  -0.0000005  -0.9425199   0.2777457
0.0092417    -0.9986149   0.0000588   0.0007180   0.0000627   0.0000093  -0.0000054  -0.9424069   0.2777833
0.0093553    -0.9985131  -0.0000812   0.0006396   0.0000868   0.0000041  -0.0000095  -0.9424297   0.2779104
0.0094703    -0.9985010  -0.0001785   0.0007123   0.0000454   0.0000006   0.0000108  -0.9425230   0.2779699
0.0095868    -0.9984805  -0.0001588   0.0006865   0.0000775  -0.0000033  -0.0000074  -0.9424579   0.2781670
0.0097046    -0.9985652  -0.0001248   0.0006698   0.0000444  -0.0000017   0.0000127  -0.9425030   0.2781965
0.0098239    -0.9985267  -0.0000048   0.0006451   0.0000321  -0.0000008   0.0000001  -0.9425577   0.2783250
0.0099447    -0.9985923  -0.0001191   0.0006586   0.0001001  -0.0000004  -0.0000051  -0.9425478   0.2783615
0.0100669    -0.9985498  -0.0001843   0.0006514   0.0000945  -0.0000093  -0.0000186  -0.9425242   0.2785836
0.0101907    -0.9986064  -0.0002226   0.0006759   0.0001091  -0.0000033  -0.0000092  -0.9425358   0.2786114
0.0103160    -0.9985428  -0.0001919   0.0006405   0.0000769   0.0000116  -0.0000083  -0.9425019   0.2787091
0.0104428    -0.9985745  -0.0000731   0.0006241   0.0000654  -0.0000035   0.0000003  -0.9425838   0.2789201
0.0105712    -0.9985175  -0.0000598   0.0006751   0.0000732   0.0000088   0.0000015  -0.9425830   0.2789347
0.0107011    -0.9985244  -0.0000963   0.0006919   0.0000675   0.0000044  -0.0000051  -0.9426090   0.2791118
0.0108327    -0.9985481  -0.0001481   0.0006984   0.0000990   0.0000012  -0.0000062  -0.9425325   0.2791449
0.0109658    -0.9985212  -0.0002361   0.0006709   0.0000433  -0.0000070  -0.0000045  -0.9426464   0.2792784
0.0111006    -0.9984920  -0.0000702   0.0006975   0.0000419  -0.0000041  -0.0000068  -0.9426136   0.2795289
0.0112371    -0.9985968  -0.0000977   0.0006597   0.0000524  -0.0000054   0.0000003  -0.9426557   0.2794251
0.0113752    -0.9985130  -0.0001128   0.0006731   0.0000562  -0.0000107   0.0000007  -0.9425597   0.2795968
0.0115151    -0.9986511   0.0000387   0.0006549   0.0000572   0.0000003  -0.0000004  -0.9427017   0.2798539
0.0116566    -0.9986628  -0.0002497   0.0006575   0.0000429  -0.0000025  -0.0000093  -0.9425976   0.2797545
0.0117999    -0.9986774  -0.0000697   0.0006860   0.0000368  -0.0000078  -0.0000039  -0.9426702   0.2800117
0.0119450    -0.9982251  -0.0025385   0.0007288   0.0000718  -0.0000012   0.0000006  -0.9434624   0.2782170
0.0120918    -0.9985016   0.0000570   0.0006458   0.0000720   0.0000006  -0.0000104  -0.9426943   0.2801527
0.0122405    -0.9986048  -0.0002142   0.0007247   0.0000154  -0.0000107   0.0000039  -0.9427471   0.2801706
0.0123910    -0.9984732   0.0000068   0.0006418   0.0000816  -0.0000042  -0.0000100  -0.9426088   0.2804391
0.0125433    -0.9986710  -0.0002241   0.0007467   0.0000262  -0.0000016   0.0000043  -0.9427097   0.2803775
0.0126975    -0.9986169  -0.0000779   0.0006968   0.0000366  -0.0000036  -0.0000023  -0.9425424   0.2804387
0.0128536    -0.9986053  -0.0000278   0.0007346   0.0000354   0.0000036  -0.0000033  -0.9426407   0.2806492
0.0130116    -0.9985758  -0.0002277   0.0005581   0.0000516   0.0000031   0.0000037  -0.9426215   0.2806846
0.0131716    -0.9984047  -0.0001951   0.0005841   0.0000453  -0.0000045   0.0000010  -0.9426642   0.2806807
0.0133335    -0.9985920   0.0000170   0.0006189  -0.0000383  -0.0000017  -0.0000095  -0.9425145   0.2809397
0.0134974    -0.9986281  -0.0000235   0.0006812   0.0000552   0.0000014  -0.0000020  -0.9425677   0.2809175
0.0136633    -0.9984952  -0.0001287   0.0006871   0.0001342   0.0000013  -0.0000062  -0.9426221   0.2811150
0.0138313    -0.9986320   0.0000583   0.0007827   0.0000501  -0.0000014  -0.0000050  -0.9425397   0.2811490
0.0140013    -0.9985346  -0.0000768   0.0006132   0.0000888  -0.0000043  -0.0000027  -0.9426175   0.2812854
0.0141734    -0.9985831  -0.0001095   0.0009085  -0.0001019  -0.0000133  -0.0000052  -0.9426482   0.2814176
0.0143477    -0.9986165  -0.0000967   0.0008908  -0.0000073   0.0000019  -0.0000050  -0.9426134   0.2813920
0.0145240    -0.9986225  -0.0002189   0.0007784   0.0001308   0.0000018   0.0000028  -0.9426510   0.2814696
0.0147026    -0.9985652  -0.0000748   0.0007267   0.0000044   0.0000098  -0.0000082  -0.9425887   0.2815431
0.0148833    -0.9986233  -0.0000766   0.0005650   0.0000217  -0.0000038  -0.0000085  -0.9425701   0.2817147
0.0150663    -0.9987323  -0.0001882   0.0007112   0.0000207   0.0000025  -0.0000094  -0.9425500   0.2817628
0.0152515    -0.9985095  -0.0000631   0.0007149  -0.0001173  -0.0000064  -0.0000097  -0.9425577   0.2819218
0.0154390    -0.9986437  -0.0000872   0.0007364   0.0000463  -0.0000151   0.0000062  -0.9425825   0.2819117
0.0156288    -0.9985994  -0.0001521   0.0007905   0.0000499  -0.0000092  -0.0000074  -0.9426634   0.2819290
0.0158209    -0.9987004  -0.0000415   0.0007589   0.0000088  -0.0000031  -0.0000088  -0.9425187   0.2819562
0.0160154    -0.9986813  -0.0002060   0.0007129  -0.0000342   0.0000012  -0.0000067  -0.9425096   0.2821765
0.0162123    -0.9986437  -0.0000642   0.0007143  -0.0000196  -0.0000041  -0.0000005  -0.9424733   0.2823458
0.0164116    -0.9985483   0.0001096   0.0006028   0.0001055   0.0000020  -0.0000133  -0.9425390   0.2823374
0.0166134    -0.9985828  -0.0000571   0.0007157   0.0001046   0.0000025   0.0000024  -0.9424725   0.2825105
0.0168176    -0.9986695  -0.0001050   0.0006677   0.0000233   0.0000023  -0.0000011  -0.9425681   0.2824212
0.0170243    -0.9986125  -0.0001091   0.0006790  -0.0000569  -0.0000044  -0.0000021  -0.9425075   0.2825839
0.0172336    -0.9986310  -0.0000721   0.0006926   0.0001131   0.0000039  -0.0000065  -0.9424701   0.2825693
0.0174455    -0.9985807  -0.0000765   0.0007243  -0.0000692  -0.0000069   0.0000054  -0.9424511   0.2826684
0.0176599    -0.9986297  -0.0000529   0.0007198   0.0000714  -0.0000030  -0.0000096  -0.9424459   0.2827776
0.0178770    -0.9987382  -0.0000712   0.0007033  -0.0000421  -0.0000056   0.0000042  -0.9424224   0.2829245
0.0180968    -0.9986048  -0.0001480   0.0005052  -0.0001703  -0.0000086  -0.0000035  -0.9424302   0.2828374
0.0183193    -0.9985246  -0.0001019   0.0008680  -0.0000536   0.0000087  -0.0000044  -0.9424509   0.2830002
0.0185445    -0.9986059  -0.0000751   0.0007167  -0.0001444   0.0000103  -0.0000060  -0.9424455   0.2830423
0.0187724    -0.9986365  -0.0000887   0.0005410  -0.0000590   0.0000036   0.0000011  -0.9423371   0.2830841
0.0190032    -0.9985574   0.0000419   0.0007589  -0.0001225  -0.0000030  -0.0000051  -0.9424280   0.2831313
0.0192368    -0.9985574  -0.0001315  -0.0000873  -0.0003814   0.0000020   0.0000008  -0.9425254   0.2832695
0.0194733    -0.9986599  -0.0001194   0.0007859   0.0000517   0.0000098  -0.0000044  -0.9424154   0.2833488
0.0197127    -0.9986333  -0.0000378   0.0005768   0.0000081  -0.0000072  -0.0000149  -0.9423865   0.2834325
0.0199550    -0.9986236  -0.0001146   0.0006959  -0.0000503  -0.0000085  -0.0000115  -0.9424142   0.2834576
0.0202003    -0.9986781  -0.0000358   0.0007690   0.0000064  -0.0000027  -0.0000121  -0.9424186   0.2834956
0.0204487    -0.9986115  -0.0002046   0.0006188  -0.0000008  -0.0000126  -0.0000027  -0.9423482   0.2836018
0.0207001    -0.9985956  -0.0000577   0.0006473   0.0001411  -0.0000050  -0.0000153  -0.9422820   0.2836091
0.0209545    -0.9985559   0.0000340   0.0006518  -0.0000120  -0.0000042  -0.0000062  -0.9422991   0.2836966
0.0212121    -0.9986043  -0.0000883   0.0006790   0.0000225   0.0000013   0.0000014  -0.9422630   0.2838958
0.0214729    -0.9985609   0.0000719   0.0006582  -0.0000014  -0.0000082  -0.0000137  -0.9423046   0.2839225
0.0217369    -0.9985131  -0.0001610   0.0006608   0.0000277   0.0000177  -0.0000012  -0.9422967   0.2839207
0.0220041    -0.9986629  -0.0001578   0.0006441   0.0000014  -0.0000034  -0.0000052  -0.9423316   0.2839710
0.0222746    -0.9985081  -0.0001381   0.0006513  -0.0000543   0.0000044  -0.0000094  -0.9421834   0.2840686
0.0225484    -0.9985676  -0.0001546   0.0006661   0.0000085  -0.0000069   0.0000029  -0.9421589   0.2840821
0.0228256    -0.9986104  -0.0000301   0.0006541   0.0000014  -0.0000015   0.0000000  -0.9422130   0.2841121
0.0231062    -0.9985002  -0.0001264   0.0006975   0.0000146  -0.0000071  -0.0000067  -0.9422103   0.2841453
0.0233902    -0.9985951   0.0000246   0.0007022  -0.0000140  -0.0000062   0.0000041  -0.9421501   0.2842650
0.0236778    -0.9986578  -0.0000664   0.0006776   0.0000053   0.0000026  -0.0000065  -0.9421274   0.2843437
0.0239689    -0.9986426   0.0002395   0.0006762  -0.0000342  -0.0000034  -0.0000028  -0.9431943   0.2849166
0.0242635    -0.9986357  -0.0001111   0.0006897  -0.0000271   0.0000020  -0.0000015  -0.9421554   0.2844378
0.0245618    -0.9986480  -0.0001196   0.0006679  -0.0000004  -0.0000175  -0.0000006  -0.9420997   0.2845678
0.0248637    -0.9986158  -0.0001106   0.0006960  -0.0000168  -0.0000010  -0.0000011  -0.9421057   0.2846436
0.0251694    -0.9986136  -0.0001231   0.0007092  -0.0000094  -0.0000045  -0.0000092  -0.9421237   0.2846718
0.0254788    -0.9985672  -0.0001582   0.0006567  -0.0000054  -0.0000051  -0.0000060  -0.9420106   0.2847303
0.0257920    -0.9986270  -0.0001419   0.0006570  -0.0000145   0.0000011  -0.0000116  -0.9420984   0.2848583
0.0261091    -0.9986929  -0.0002095   0.0006629  -0.0000237   0.0000032  -0.0000093  -0.9419308   0.2848252
0.0264301    -0.9986026  -0.0000125   0.0007093  -0.0000177   0.0000051  -0.0000114  -0.9420806   0.2849199
0.0267550    -0.9985847  -0.0002134   0.0006738  -0.0000289  -0.0000017   0.0000036  -0.9419236   0.2849455
0.0270839    -0.9987133  -0.0001245   0.0006634  -0.0000106  -0.0000150  -0.0000070  -0.9420152   0.2849370
0.0274168    -0.9985541  -0.0001422   0.0006945  -0.0000412  -0.0000071  -0.0000091  -0.9419723   0.2849874
0.0277539    -0.9986048  -0.0000337   0.0006486  -0.0000131  -0.0000055  -0.0000124  -0.9418585   0.2850718
0.0280951    -0.9985078  -0.0001296   0.0006674  -0.0000066  -0.0000084  -0.0000131  -0.9418695   0.2851680
0.0284404    -0.9985812  -0.0001344   0.0006570  -0.0000042  -0.0000050  -0.0000027  -0.9418926   0.2852433
0.0287901    -0.9986646  -0.0000568   0.0006797  -0.0000206  -0.0000104  -0.0000071  -0.9419360   0.2851845
0.0291440    -0.9986531  -0.0001581   0.0006744  -0.0000595   0.0000046  -0.0000088  -0.9418947   0.2853351
0.0295023    -0.9986631  -0.0001241   0.0006725   0.0000023   0.0000158   0.0000033  -0.9418181   0.2853636
0.0298649    -0.9985845  -0.0001493   0.0006998  -0.0000350   0.0000090  -0.0000008  -0.9418149   0.2853996
0.0302321    -0.9985564  -0.0002456   0.0006799  -0.0000418   0.0000043  -0.0000058  -0.9417208   0.2854923
0.0306037    -0.9985275  -0.0000084   0.0006885   0.0000028  -0.0000045  -0.0000008  -0.9417143   0.2855678
0.0309799    -0.9986233  -0.0001077   0.0006905  -0.0000243  -0.0000045   0.0000013  -0.9418265   0.2855831
0.0313608    -0.9986552  -0.0000810   0.0006803  -0.0000758   0.0000041  -0.0000197  -0.9417779   0.2856653
0.0317463    -0.9985045  -0.0001597   0.0006958  -0.0000798  -0.0000047   0.0000050  -0.9416988   0.2857371
0.0321366    -0.9986373  -0.0001163   0.0007376  -0.0000214   0.0000041  -0.0000031  -0.9417880   0.2857474
0.0325316    -0.9985159  -0.0001689   0.0006734  -0.0001186   0.0000030  -0.0000159  -0.9416747   0.2858300
0.0329316    -0.9985452  -0.0000950   0.0006255   0.0000131   0.0000071  -0.0000175  -0.9416642   0.2859160
0.0333364    -0.9986935  -0.0000579   0.0007580   0.0000369   0.0000033  -0.0000037  -0.9416956   0.2859965
0.0337462    -0.9985634  -0.0000338   0.0005408  -0.0000036   0.0000003   0.0000066  -0.9415459   0.2858363
0.0341610    -0.9985288  -0.0001000   0.0006436  -0.0000275   0.0000031  -0.0000018  -0.9415890   0.2860550
0.0345810    -0.9986620  -0.0001638   0.0006499  -0.0000820   0.0000025  -0.0000054  -0.9415994   0.2860402
0.0350061    -0.9986188  -0.0000619   0.0006671  -0.0000584   0.0000041   0.0000028  -0.9416480   0.2861025
0.0354365    -0.9986506  -0.0000849   0.0006506  -0.0000800   0.0000008  -0.0000113  -0.9415532   0.2862356
0.0358721    -0.9986070  -0.0001893   0.0006844  -0.0000063   0.0000027   0.0000040  -0.9415274   0.2861881
0.0363131    -0.9985309  -0.0001099   0.0006569  -0.0000654  -0.0000035  -0.0000022  -0.9415787   0.2862180
0.0367595    -0.9985797  -0.0001322   0.0006727  -0.0000296  -0.0000029  -0.0000134  -0.9414277   0.2863980
0.0372114    -0.9985618  -0.0000580   0.0008136   0.0000019   0.0000021  -0.0000147  -0.9414660   0.2864445
0.0376688    -0.9985488  -0.0002144   0.0007384  -0.0000590  -0.0000015  -0.0000004  -0.9414265   0.2864517
0.0381319    -0.9985715  -0.0002752   0.0007146   0.0000441  -0.0000009  -0.0000148  -0.9414994   0.2864761
0.0386006    -0.9986078  -0.0000490   0.0005639  -0.0001564  -0.0000001  -0.0000062  -0.9414738   0.2866139
0.0390752    -0.9985827  -0.0001447   0.0006960  -0.0000718   0.0000058  -0.0000044  -0.9413666   0.2865701
0.0395555    -0.9985225  -0.0000939   0.0007324  -0.0000147  -0.0000018  -0.0000008  -0.9413887   0.2866159
0.0400418    -0.9985788  -0.0000798   0.0006265  -0.0000675  -0.0000059  -0.0000090  -0.9414225   0.2867169
0.0405340    -0.9986119  -0.0001444   0.0006522  -0.0000695   0.0000032  -0.0000083  -0.9413678   0.2866962
0.0410323    -0.9985719  -0.0001943   0.0006526  -0.0000425   0.0000113  -0.0000063  -0.9412536   0.2867964
0.0415368    -0.9985410  -0.0000935   0.0006521  -0.0000895  -0.0000101   0.0000046  -0.9413906   0.2868516
0.0420474    -0.9986038  -0.0000952   0.0006544  -0.0000486  -0.0000032  -0.0000059  -0.9413047   0.2867908
0.0425643    -0.9986028  -0.0001372   0.0006805  -0.0000494   0.0000041  -0.0000041  -0.9412317   0.2868349
0.0430875    -0.9985998  -0.0001297   0.0006559  -0.0000528   0.0000041  -0.0000004  -0.9413051   0.2869693
0.0436172    -0.9985850  -0.0001103   0.0006930  -0.0000719  -0.0000077  -0.0000074  -0.9412355   0.2870156
0.0441534    -0.9985412  -0.0001656   0.0006527  -0.0000863   0.0000004  -0.0000073  -0.9411886   0.2871031
0.0446962    -0.9986025  -0.0000250   0.0006517  -0.0000801  -0.0000045  -0.0000057  -0.9411981   0.2871376
0.0452457    -0.9985773  -0.0001291   0.0006715  -0.0000789   0.0000028  -0.0000074  -0.9411458   0.2871384
0.0458019    -0.9986695  -0.0001168   0.0006598  -0.0000821   0.0000017  -0.0000085  -0.9411226   0.2871739
0.0463649    -0.9985793  -0.0001918   0.0006464  -0.0000661   0.0000098   0.0000013  -0.9410879   0.2872438
0.0469349    -0.9985354  -0.0001994   0.0006574  -0.0000894  -0.0000076  -0.0000056  -0.9410962   0.2873527
0.0475119    -0.9985478  -0.0001388   0.0006539  -0.0000600   0.0000017  -0.0000071  -0.9410704   0.2873649
0.0480960    -0.9985143  -0.0001194   0.0006619  -0.0000995  -0.0000044  -0.0000019  -0.9409973   0.2874680
0.0486872    -0.9985787  -0.0001174   0.0006602  -0.0000670  -0.0000129  -0.0000110  -0.9409651   0.2874875
0.0492857    -0.9985703  -0.0000608   0.0006522  -0.0000800  -0.0000002  -0.0000042  -0.9409461   0.2875644
0.0498916    -0.9986307  -0.0001406   0.0006486  -0.0000758  -0.0000045  -0.0000018  -0.9408737   0.2876173
0.0505050    -0.9985868  -0.0001304   0.0006747  -0.0000949  -0.0000103  -0.0000166  -0.9409469   0.2876108
0.0511258    -0.9986041  -0.0002411   0.0006325  -0.0000659  -0.0000017  -0.0000074  -0.9409396   0.2877756
0.0517543    -0.9986677  -0.0002067   0.0006593  -0.0000411  -0.0000078  -0.0000062  -0.9409543   0.2877150
0.0523906    -0.9986293  -0.0001625   0.0006128  -0.0000665   0.0000057  -0.0000072  -0.9408638   0.2877875
0.0530346    -0.9985600  -0.0001024   0.0006323  -0.0000840   0.0000032  -0.0000115  -0.9408033   0.2878187
0.0536866    -0.9986015  -0.0001595   0.0006266  -0.0000966  -0.0000095  -0.0000167  -0.9408350   0.2878571
0.0543466    -0.9986618  -0.0001267   0.0006112  -0.0000595  -0.0000052  -0.0000006  -0.9407425   0.2878680
0.0550146    -0.9985883  -0.0000896   0.0006376  -0.0000943  -0.0000055  -0.0000045  -0.9407686   0.2879192
0.0556910    -0.9985408  -0.0001860   0.0006491  -0.0001136  -0.0000121  -0.0000102  -0.9406990   0.2879734
0.0563756    -0.9984987  -0.0001866   0.0006209  -0.0000793   0.0000018  -0.0000108  -0.9407175   0.2881117
0.0570686    -0.9986644  -0.0002000   0.0006306  -0.0000242   0.0000006  -0.0000166  -0.9406780   0.2881488
0.0577702    -0.9986074  -0.0001177   0.0006171  -0.0001635  -0.0000013  -0.0000054  -0.9406106   0.2882546
0.0584804    -0.9985727  -0.0002398   0.0006787  -0.0001291   0.0000011  -0.0000075  -0.9405687   0.2881916
0.0591993    -0.9985781  -0.0000749   0.0006173  -0.0001288   0.0000087   0.0000003  -0.9405477   0.2882490
0.0599270    -0.9985966  -0.0001607   0.0006491  -0.0001033   0.0000084  -0.0000020  -0.9406534   0.2883762
0.0606637    -0.9985698  -0.0002036   0.0006080  -0.0001105  -0.0000008  -0.0000084  -0.9404613   0.2883609
0.0614095    -0.9986145  -0.0001223   0.0006302  -0.0000855  -0.0000130   0.0000009  -0.9405219   0.2883972
0.0621644    -0.9986148  -0.0001548   0.0006182  -0.0000901  -0.0000010  -0.0000074  -0.9405535   0.2885076
0.0629286    -0.9985995  -0.0001430   0.0006336  -0.0000998  -0.0000052  -0.0000012  -0.9404398   0.2884878
0.0637022    -0.9986146  -0.0001561   0.0006253  -0.0001055   0.0000020  -0.0000046  -0.9403573   0.2886245
0.0644853    -0.9986246  -0.0001747   0.0006387  -0.0000942  -0.0000014  -0.0000039  -0.9404157   0.2886764
0.0652780    -0.9986461  -0.0001605   0.0006335  -0.0001074   0.0000039  -0.0000084  -0.9403190   0.2886986
0.0660805    -0.9987037  -0.0001829   0.0006229  -0.0001408  -0.0000050  -0.0000067  -0.9402917   0.2888275
0.0668928    -0.9986727  -0.0001131   0.0006331  -0.0001070  -0.0000128  -0.0000122  -0.9402203   0.2888212
0.0677152    -0.9986592  -0.0001635   0.0006032  -0.0001354   0.0000000  -0.0000112  -0.9402024   0.2888230
0.0685476    -0.9986211  -0.0000896   0.0006283  -0.0001175  -0.0000072  -0.0000117  -0.9401862   0.2888922
0.0693903    -0.9986362  -0.0001233   0.0006569  -0.0001090  -0.0000004  -0.0000041  -0.9401122   0.2890172
0.0702433    -0.9985531  -0.0001862   0.0006324  -0.0001654  -0.0000029   0.0000041  -0.9401311   0.2890242
0.0711068    -0.9985170  -0.0001678   0.0006387  -0.0001491   0.0000037  -0.0000059  -0.9400895   0.2890692
0.0719810    -0.9985394  -0.0001921   0.0006141  -0.0001372  -0.0000091   0.0000050  -0.9400307   0.2890734
0.0728659    -0.9985745  -0.0000957   0.0006203  -0.0000955   0.0000052  -0.0000014  -0.9399982   0.2891921
0.0737616    -0.9986377  -0.0002436   0.0006141  -0.0001326  -0.0000012   0.0000004  -0.9399166   0.2892475
0.0746684    -0.9987306  -0.0001961   0.0006026  -0.0001261   0.0000073  -0.0000086  -0.9399425   0.2892933
0.0755863    -0.9985838  -0.0002006   0.0006049  -0.0001403  -0.0000051  -0.0000018  -0.9398644   0.2893296
0.0765155    -0.9986575  -0.0001848   0.0006821  -0.0001284  -0.0000040  -0.0000102  -0.9398543   0.2893451
0.0774561    -0.9985717  -0.0002431   0.0006171  -0.0001118   0.0000021  -0.0000132  -0.9397228   0.2894283
0.0784083    -0.9986575  -0.0001501   0.0005871  -0.0001175   0.0000033   0.0000006  -0.9396576   0.2894038
0.0793722    -0.9984592  -0.0002291   0.0006183  -0.0001514  -0.0000042  -0.0000104  -0.9396161   0.2895158
0.0803479    -0.9986781  -0.0002938   0.0006262  -0.0001406   0.0000014  -0.0000099  -0.9396115   0.2895176
0.0813357    -0.9985682  -0.0002702   0.0006309  -0.0001416  -0.0000006  -0.0000007  -0.9394970   0.2895606
0.0823356    -0.9985445  -0.0003099   0.0006093  -0.0001124  -0.0000053  -0.0000076  -0.9394075   0.2896695
0.0833477    -0.9985758  -0.0002464   0.0006254  -0.0001503   0.0000061  -0.0000029  -0.9393761   0.2896456
0.0843723    -0.9986788  -0.0001932   0.0006067  -0.0001226   0.0000086  -0.0000037  -0.9393115   0.2897923
0.0854095    -0.9985762  -0.0003107   0.0005978  -0.0001365  -0.0000026  -0.0000074  -0.9392051   0.2896720
0.0864595    -0.9986608  -0.0002211   0.0005853  -0.0001125  -0.0000029   0.0000073  -0.9391912   0.2898053
0.0875224    -0.9985822  -0.0003610   0.0006053  -0.0001354   0.0000034  -0.0000104  -0.9391330   0.2897833
0.0885983    -0.9986076  -0.0003327   0.0005857  -0.0001880  -0.0000022  -0.0000038  -0.9390844   0.2898074
0.0896875    -0.9985381  -0.0002801   0.0005906  -0.0001333   0.0000089  -0.0000091  -0.9389901   0.2898603
0.0907900    -0.9985026  -0.0003234   0.0005953  -0.0001303  -0.0000058  -0.0000009  -0.9389029   0.2897670
0.0919061    -0.9986378  -0.0002052   0.0005876  -0.0001296   0.0000026   0.0000009  -0.9387465   0.2898359
0.0930359    -0.9985213  -0.0003210   0.0006002  -0.0001429   0.0000012   0.0000016  -0.9387368   0.2897206
0.0941797    -0.9985109  -0.0003540   0.0005848  -0.0001108   0.0000025   0.0000095  -0.9386642   0.2897788
0.0953374    -0.9985530  -0.0002904   0.0006182  -0.0001375  -0.0000047   0.0000036  -0.9386589   0.2896874
0.0965094    -0.9984363  -0.0002408   0.0005896  -0.0001534   0.0000008  -0.0000022  -0.9385277   0.2897067
0.0976959    -0.9985713  -0.0002926   0.0005846  -0.0001317   0.0000064  -0.0000051  -0.9385353   0.2896980
0.0988969    -0.9986371  -0.0003836   0.0005686  -0.0001617  -0.0000068  -0.0000015  -0.9384663   0.2896201
0.1001126    -0.9985974  -0.0002613   0.0005768  -0.0001333  -0.0000042  -0.0000113  -0.9384273   0.2896009
0.1013433    -0.9985585  -0.0003392   0.0005869  -0.0001563  -0.0000066  -0.0000005  -0.9384162   0.2895283
0.1025892    -0.9985907  -0.0004014   0.0005755  -0.0001449  -0.0000089  -0.0000156  -0.9383242   0.2894642
0.1038503    -0.9985933  -0.0004255   0.0005715  -0.0001375  -0.0000061   0.0000026  -0.9383898   0.2893628
0.1051270    -0.9985945  -0.0003575   0.0005578  -0.0001561  -0.0000042   0.0000032  -0.9384645   0.2893710
0.1064193    -0.9985562  -0.0004409   0.0005669  -0.0001472  -0.0000009  -0.0000043  -0.9385210   0.2892712
0.1077276    -0.9987370  -0.0003669   0.0005678  -0.0001410  -0.0000010   0.0000042  -0.9385561   0.2893075
0.1090519    -0.9986565  -0.0003865   0.0005562  -0.0001752   0.0000081   0.0000023  -0.9386699   0.2891948
0.1103925    -0.9987368  -0.0003610   0.0005624  -0.0001231  -0.0000053  -0.0000082  -0.9386504   0.2892372
0.1117496    -0.9986425  -0.0003432   0.0005730  -0.0001421   0.0000070  -0.0000009  -0.9387449   0.2892651
0.1131233    -0.9986955  -0.0004600   0.0005701  -0.0001487  -0.0000109  -0.0000063  -0.9388706   0.2892237
0.1145140    -0.9987765  -0.0004329   0.0005742  -0.0001527  -0.0000020  -0.0000139  -0.9389367   0.2893050
0.1159217    -0.9985950  -0.0003977   0.0005527  -0.0001324  -0.0000058  -0.0000006  -0.9389502   0.2893045
0.1173468    -0.9985083  -0.0004339   0.0005701  -0.0001621   0.0000043  -0.0000100  -0.9390159   0.2893834
0.1187893    -0.9986301  -0.0003942   0.0005555  -0.0001646  -0.0000015  -0.0000112  -0.9391408   0.2894386
0.1202497    -0.9985978  -0.0004244   0.0005470  -0.0001625  -0.0000076  -0.0000202  -0.9391425   0.2894774
0.1217279    -0.9986194  -0.0003246   0.0005471  -0.0001433   0.0000047   0.0000067  -0.9391774   0.2895602
0.1232243    -0.9986427  -0.0003034   0.0005297  -0.0001353  -0.0000059  -0.0000097  -0.9393238   0.2897100
0.1247392    -0.9986996  -0.0002805   0.0005412  -0.0001448  -0.0000005  -0.0000021  -0.9393441   0.2897610
0.1262726    -0.9986197  -0.0003228   0.0004949  -0.0001550  -0.0000082  -0.0000107  -0.9393835   0.2898578
0.1278249    -0.9987429  -0.0003597   0.0005283  -0.0001467  -0.0000011  -0.0000062  -0.9393711   0.2899272
0.1293963    -0.9986566  -0.0003837   0.0005099  -0.0001527  -0.0000038  -0.0000042  -0.9394349   0.2900448
0.1309870    -0.9986820  -0.0004081   0.0005402  -0.0001669   0.0000004  -0.0000140  -0.9394403   0.2901690
0.1325973    -0.9986447  -0.0003865   0.0005390  -0.0001629  -0.0000006   0.0000020  -0.9394429   0.2901727
0.1342273    -0.9986956  -0.0003288   0.0005262  -0.0001644  -0.0000030  -0.0000066  -0.9395119   0.2902830
0.1358774    -0.9987459  -0.0004483   0.0005479  -0.0001481  -0.0000045   0.0000028  -0.9394840   0.2904587
0.1375478    -0.9985574  -0.0004025   0.0005190  -0.0001555   0.0000041  -0.0000011  -0.9395102   0.2904983
0.1392387    -0.9985538  -0.0003659   0.0005308  -0.0001623  -0.0000016  -0.0000030  -0.9394896   0.2906542
0.1409504    -0.9986374  -0.0003176   0.0005334  -0.0001498  -0.0000098  -0.0000030  -0.9395416   0.2907525
0.1426831    -0.9985452  -0.0003371   0.0005120  -0.0001709  -0.0000051  -0.0000032  -0.9395182   0.2907696
0.1444371    -0.9986797  -0.0004759   0.0005220  -0.0001643   0.0000040  -0.0000025  -0.9394529   0.2909111
0.1462127    -0.9986903  -0.0003197   0.0005084  -0.0001594   0.0000011  -0.0000080  -0.9395321   0.2910522
0.1480102    -0.9986508  -0.0003502   0.0005041  -0.0001832  -0.0000016  -0.0000117  -0.9394888   0.2911476
0.1498297    -0.9986254  -0.0003542   0.0005113  -0.0001683  -0.0000046   0.0000006  -0.9394295   0.2911965
0.1516716    -0.9987358  -0.0004662   0.0004967  -0.0001706  -0.0000031   0.0000037  -0.9394114   0.2913293
0.1535361    -0.9985926  -0.0004552   0.0005173  -0.0001801  -0.0000056  -0.0000089  -0.9394468   0.2914228
0.1554236    -0.9985853  -0.0004152   0.0005022  -0.0001752   0.0000006   0.0000022  -0.9394299   0.2915906
0.1573342    -0.9985932  -0.0003614   0.0005237  -0.0001493  -0.0000109  -0.0000090  -0.9393141   0.2916879
0.1592684    -0.9985738  -0.0004932   0.0004752  -0.0001732   0.0000048   0.0000032  -0.9394186   0.2917255
0.1612263    -0.9986939  -0.0004425   0.0004991  -0.0001607   0.0000049  -0.0000010  -0.9393069   0.2918717
0.1632083    -0.9987604  -0.0004947   0.0004776  -0.0001699   0.0000052  -0.0000046  -0.9393931   0.2919294
0.1652147    -0.9986144  -0.0004196   0.0004922  -0.0001430  -0.0000054   0.0000015  -0.9392935   0.2920767
0.1672457    -0.9986177  -0.0004360   0.0005045  -0.0001586   0.0000058  -0.0000092  -0.9392819   0.2921465
0.1693017    -0.9987259  -0.0004785   0.0004867  -0.0001509  -0.0000093  -0.0000026  -0.9392562   0.2921591
0.1713829    -0.9986771  -0.0005384   0.0004829  -0.0001592  -0.0000062  -0.0000029  -0.9392212   0.2923577
0.1734898    -0.9986074  -0.0004363   0.0004775  -0.0001537  -0.0000008   0.0000005  -0.9391912   0.2923584
0.1756225    -0.9986248  -0.0004182   0.0004640  -0.0001833   0.0000067  -0.0000024  -0.9391699   0.2925539
0.1777815    -0.9987024  -0.0004897   0.0004729  -0.0001579  -0.0000031  -0.0000086  -0.9390592   0.2925714
0.1799670    -0.9987634  -0.0005077   0.0004806  -0.0001662  -0.0000053  -0.0000102  -0.9390654   0.2927581
0.1821794    -0.9986558  -0.0004851   0.0004820  -0.0001523   0.0000027  -0.0000042  -0.9390483   0.2928551
0.1844190    -0.9987762  -0.0003485   0.0004827  -0.0001649  -0.0000014  -0.0000113  -0.9391059   0.2929285
0.1866861    -0.9986419  -0.0005132   0.0004762  -0.0001588  -0.0000025  -0.0000085  -0.9389236   0.2930493
0.1889811    -0.9987822  -0.0004680   0.0004532  -0.0001366  -0.0000052  -0.0000045  -0.9389341   0.2931909
0.1913043    -0.9986844  -0.0004999   0.0004917  -0.0001608  -0.0000022  -0.0000077  -0.9389398   0.2931881
0.1936560    -0.9986592  -0.0005714   0.0004461  -0.0001561  -0.0000029   0.0000011  -0.9388743   0.2934055
0.1960367    -0.9987998  -0.0006321   0.0004591  -0.0001564  -0.0000034  -0.0000113  -0.9388666   0.2935421
0.1984466    -0.9986516  -0.0005568   0.0004569  -0.0001561  -0.0000069  -0.0000007  -0.9388003   0.2935264
0.2008861    -0.9986340  -0.0004138   0.0004590  -0.0001751  -0.0000035  -0.0000135  -0.9388468   0.2937072
0.2033557    -0.9986710  -0.0005702   0.0004817  -0.0001714  -0.0000017  -0.0000072  -0.9388149   0.2937507
0.2058556    -0.9987325  -0.0004930   0.0004509  -0.0001557   0.0000063  -0.0000012  -0.9386165   0.2938308
0.2083862    -0.9986600  -0.0006075   0.0004431  -0.0001733  -0.0000007  -0.0000098  -0.9386430   0.2939738
0.2109480    -0.9986604  -0.0005861   0.0004521  -0.0001650  -0.0000041   0.0000037  -0.9386125   0.2940661
0.2135412    -0.9985710  -0.0005624   0.0004441  -0.0001702   0.0000026  -0.0000099  -0.9385548   0.2941996
0.2161663    -0.9986852  -0.0005900   0.0004573  -0.0001690   0.0000069  -0.0000061  -0.9385860   0.2942747
0.2188237    -0.9987215  -0.0006060   0.0004430  -0.0001550  -0.0000015  -0.0000051  -0.9385893   0.2944157
0.2215137    -0.9986438  -0.0005468   0.0004363  -0.0001587  -0.0000176  -0.0000081  -0.9384733   0.2944849
0.2242369    -0.9985786  -0.0005421   0.0004394  -0.0001428  -0.0000093  -0.0000156  -0.9383799   0.2946712
0.2269935    -0.9987253  -0.0004964   0.0004389  -0.0001692  -0.0000070  -0.0000102  -0.9383557   0.2947396
0.2297839    -0.9987517  -0.0005082   0.0004223  -0.0001320   0.0000008  -0.0000095  -0.9383288   0.2948782
0.2326087    -0.9986942  -0.0005542   0.0004317  -0.0001470  -0.0000072  -0.0000042  -0.9383012   0.2949777
0.2354682    -0.9986291  -0.0006801   0.0004324  -0.0001483   0.0000062  -0.0000025  -0.9382314   0.2950852
0.2383629    -0.9986499  -0.0007227   0.0004395  -0.0001584   0.0000095  -0.0000077  -0.9382402   0.2951383
0.2412932    -0.9987269  -0.0006285   0.0004235  -0.0001470  -0.0000204  -0.0000146  -0.9381400   0.2952565
0.2442594    -0.9987650  -0.0006337   0.0004258  -0.0001467  -0.0000093   0.0000065  -0.9381314   0.2954319
0.2472622    -0.9986219  -0.0006702   0.0004302  -0.0001345  -0.0000034  -0.0000044  -0.9381191   0.2955686
0.2503018    -0.9986003  -0.0007245   0.0004342  -0.0001547  -0.0000125  -0.0000093  -0.9379876   0.2957517
0.2533788    -0.9987096  -0.0006156   0.0004238  -0.0001513  -0.0000040   0.0000031  -0.9379655   0.2957465
0.2564937    -0.9986755  -0.0005644   0.0004266  -0.0001280  -0.0000017  -0.0000116  -0.9379517   0.2958429
0.2596468    -0.9986661  -0.0007732   0.0004370  -0.0001649  -0.0000103  -0.0000019  -0.9378675   0.2960615
0.2628387    -0.9987469  -0.0006472   0.0004267  -0.0001558   0.0000019   0.0000031  -0.9378421   0.2962113
0.2660699    -0.9986702  -0.0007202   0.0004083  -0.0001413   0.0000030  -0.0000001  -0.9377637   0.2962477
0.2693407    -0.9986346  -0.0008056   0.0004075  -0.0001478   0.0000029   0.0000017  -0.9376920   0.2964796
0.2726518    -0.9987350  -0.0006962   0.0004211  -0.0001404   0.0000098  -0.0000065  -0.9376563   0.2965318
0.2760036    -0.9987469  -0.0008014   0.0004017  -0.0001376  -0.0000009  -0.0000004  -0.9376370   0.2967253
0.2793966    -0.9986673  -0.0006548   0.0004153  -0.0001391   0.0000015  -0.0000069  -0.9375655   0.2967840
0.2828312    -0.9987057  -0.0006964   0.0004091  -0.0001267  -0.0000054  -0.0000065  -0.9375553   0.2969881
0.2863082    -0.9986915  -0.0006391   0.0004157  -0.0001380  -0.0000069  -0.0000156  -0.9374514   0.2970842
0.2898278    -0.9988198  -0.0007358   0.0003918  -0.0001357   0.0000011  -0.0000148  -0.9373987   0.2972562
0.2933907    -0.9986831  -0.0007162   0.0003955  -0.0001306  -0.0000071  -0.0000110  -0.9374491   0.2973166
0.2969975    -0.9987623  -0.0007675   0.0003996  -0.0001387   0.0000025  -0.0000002  -0.9373918   0.2974570
0.3006485    -0.9987066  -0.0007856   0.0004076  -0.0001378  -0.0000037  -0.0000003  -0.9372446   0.2976492
0.3043445    -0.9986887  -0.0007763   0.0003883  -0.0001300   0.0000030  -0.0000090  -0.9372233   0.2977212
0.3080858    -0.9988052  -0.0008582   0.0003841  -0.0001377   0.0000008  -0.0000047  -0.9371217   0.2978439
0.3118732    -0.9988051  -0.0007106   0.0004000  -0.0001258  -0.0000029  -0.0000037  -0.9370846   0.2981255
0.3157071    -0.9986716  -0.0008743   0.0003888  -0.0001182   0.0000001  -0.0000051  -0.9369519   0.2981806
0.3195882    -0.9987204  -0.0008672   0.0004007  -0.0001326  -0.0000056  -0.0000075  -0.9369621   0.2983713
0.3235170    -0.9987515  -0.0007714   0.0003877  -0.0001381   0.0000005  -0.0000101  -0.9368877   0.2985743
0.3274941    -0.9987417  -0.0008239   0.0003854  -0.0001236  -0.0000171  -0.0000030  -0.9368245   0.2986018
0.3315200    -0.9988725  -0.0009291   0.0003758  -0.0001164  -0.0000011  -0.0000002  -0.9366881   0.2987612
0.3355955    -0.9987862  -0.0007557   0.0003888  -0.0001165   0.0000024  -0.0000098  -0.9367534   0.2988743
0.3397210    -0.9987673  -0.0008473   0.0003777  -0.0001193  -0.0000033  -0.0000140  -0.9366286   0.2991156
0.3438973    -0.9986911  -0.0007913   0.0003754  -0.0001066   0.0000025  -0.0000018  -0.9365542   0.2991742
0.3481249    -0.9987744  -0.0008857   0.0003660  -0.0001049  -0.0000090  -0.0000003  -0.9365513   0.2993079
0.3524045    -0.9987938  -0.0008448   0.0003757  -0.0001294   0.0000071  -0.0000049  -0.9364981   0.2994654
0.3567367    -0.9988046  -0.0009953   0.0003584  -0.0001264   0.0000048  -0.0000006  -0.9364733   0.2996630
0.3611221    -0.9987852  -0.0009584   0.0003591  -0.0001200  -0.0000009  -0.0000053  -0.9363157   0.2998125
0.3655615    -0.9987070  -0.0008650   0.0003662  -0.0001133   0.0000008   0.0000035  -0.9362350   0.2999891
0.3700554    -0.9988000  -0.0009421   0.0003673  -0.0001136  -0.0000078   0.0000013  -0.9361766   0.3001423
0.3746046    -0.9987982  -0.0008112   0.0003452  -0.0000922  -0.0000074   0.0000052  -0.9360952   0.3002810
0.3792097    -0.9988352  -0.0009956   0.0003455  -0.0001042   0.0000027  -0.0000014  -0.9360310   0.3005167
0.3838714    -0.9988451  -0.0008908   0.0003520  -0.0001034  -0.0000147   0.0000006  -0.9360487   0.3006684
0.3885905    -0.9986859  -0.0009883   0.0003497  -0.0001176   0.0000014  -0.0000025  -0.9359445   0.3008066
0.3933675    -0.9987646  -0.0010549   0.0003543  -0.0000974  -0.0000064  -0.0000079  -0.9358374   0.3010662
0.3982033    -0.9988905  -0.0010183   0.0003543  -0.0000942   0.0000045  -0.0000028  -0.9357388   0.3011775
0.4030985    -0.9986632  -0.0010619   0.0003563  -0.0001022  -0.0000013  -0.0000019  -0.9356822   0.3013380
0.4080538    -0.9987886  -0.0010871   0.0003449  -0.0001138   0.0000088  -0.0000011  -0.9356213   0.3015114
0.4130701    -0.9988019  -0.0009484   0.0003627  -0.0000936  -0.0000030  -0.0000011  -0.9354990   0.3017008
0.4181481    -0.9987272  -0.0010695   0.0003613  -0.0001005  -0.0000217  -0.0000123  -0.9354835   0.3019167
0.4232885    -0.9986894  -0.0009286   0.0003603  -0.0000889   0.0000013  -0.0000042  -0.9353929   0.3020374
0.4284921    -0.9987379  -0.0011270   0.0003513  -0.0001022   0.0000050  -0.0000019  -0.9353126   0.3021829
0.4337597    -0.9987225  -0.0011233   0.0003529  -0.0000840  -0.0000025  -0.0000129  -0.9351899   0.3024178
0.4390920    -0.9987444  -0.0010338   0.0003586  -0.0000904   0.0000014  -0.0000040  -0.9351455   0.3026475
0.4444898    -0.9988576  -0.0010557   0.0003472  -0.0000808   0.0000003  -0.0000071  -0.9350953   0.3028394
0.4499541    -0.9987956  -0.0010582   0.0003230  -0.0000818   0.0000018   0.0000071  -0.9349420   0.3029515
0.4554854    -0.9987478  -0.0010544   0.0003556  -0.0000932  -0.0000024   0.0000004  -0.9349191   0.3031716
0.4610848    -0.9988592  -0.0010547   0.0003260  -0.0000846   0.0000036  -0.0000010  -0.9347462   0.3034583
0.4667531    -0.9988748  -0.0011547   0.0003482  -0.0000809  -0.0000048  -0.0000122  -0.9347264   0.3035858
0.4724910    -0.9989389  -0.0012101   0.0003437  -0.0000814   0.0000114  -0.0000039  -0.9345766   0.3037551
0.4782994    -0.9987991  -0.0011310   0.0003333  -0.0000747  -0.0000062  -0.0000052  -0.9345650   0.3040264
0.4841793    -0.9987596  -0.0012124   0.0003169  -0.0000577   0.0000106   0.0000023  -0.9344129   0.3041643
0.4901314    -0.9986955  -0.0011914   0.0003444  -0.0000901   0.0000062  -0.0000086  -0.9344641   0.3044346
0.4961567    -0.9988395  -0.0011763   0.0003417  -0.0000782  -0.0000058  -0.0000014  -0.9343045   0.3046205
0.5022561    -0.9988055  -0.0012070   0.0003256  -0.0000617  -0.0000017  -0.0000053  -0.9341865   0.3048411
0.5084304    -0.9988600  -0.0011575   0.0003378  -0.0000767  -0.0000013  -0.0000019  -0.9340425   0.3051119
0.5146807    -0.9987968  -0.0012234   0.0003350  -0.0000645  -0.0000092  -0.0000063  -0.9339961   0.3052493
0.5210078    -0.9987980  -0.0012331   0.0003288  -0.0000752   0.0000043  -0.0000041  -0.9338725   0.3054744
0.5274126    -0.9987943  -0.0012524   0.0003345  -0.0000568  -0.0000064  -0.0000075  -0.9338402   0.3057256
0.5338963    -0.9988184  -0.0011901   0.0003249  -0.0000484   0.0000003   0.0000057  -0.9337405   0.3059158
0.5404596    -0.9988321  -0.0012692   0.0003385  -0.0000615  -0.0000084   0.0000050  -0.9336710   0.3062319
0.5471036    -0.9987413  -0.0011750   0.0003167  -0.0000589  -0.0000094  -0.0000065  -0.9335276   0.3063257
0.5538292    -0.9988647  -0.0012729   0.0003237  -0.0000536   0.0000020  -0.0000054  -0.9334165   0.3066357
0.5606376    -0.9988805  -0.0013071   0.0003271  -0.0000742  -0.0000026  -0.0000073  -0.9332411   0.3068205
0.5675297    -0.9987857  -0.0013495   0.0003005  -0.0000580  -0.0000022  -0.0000028  -0.9331879   0.3071370
0.5745064    -0.9988371  -0.0014213   0.0003221  -0.0000708   0.0000018   0.0000011  -0.9330557   0.3073340
0.5815690    -0.9988655  -0.0013685   0.0003201  -0.0000465   0.0000020   0.0000047  -0.9330523   0.3075216
0.5887183    -0.9988980  -0.0013568   0.0003186  -0.0000698  -0.0000109  -0.0000114  -0.9328489   0.3077647
0.5959556    -0.9988775  -0.0012811   0.0003277  -0.0000712  -0.0000057  -0.0000093  -0.9327533   0.3080503
0.6032818    -0.9987314  -0.0014291   0.0003126  -0.0000476  -0.0000051  -0.0000031  -0.9326622   0.3083318
0.6106981    -0.9988508  -0.0014222   0.0002966  -0.0000409   0.0000033  -0.0000101  -0.9325332   0.3086434
0.6182056    -0.9988739  -0.0014643   0.0002967  -0.0000459   0.0000045  -0.0000047  -0.9324797   0.3087512
0.6258053    -0.9988457  -0.0015131   0.0002972  -0.0000455  -0.0000036   0.0000009  -0.9323100   0.3090988
0.6334985    -0.9987671  -0.0014137   0.0002982  -0.0000390   0.0000043  -0.0000057  -0.9322906   0.3093580
0.6412862    -0.9988434  -0.0014993   0.0003118  -0.0000456  -0.0000087  -0.0000039  -0.9320162   0.3096498
0.6491697    -0.9988990  -0.0013891   0.0003250  -0.0000411  -0.0000025   0.0000017  -0.9320639   0.3099768
0.6571501    -0.9988235  -0.0015338   0.0002919  -0.0000334  -0.0000156  -0.0000076  -0.9318527   0.3101546
0.6652286    -0.9987623  -0.0015956   0.0003023  -0.0000398   0.0000013  -0.0000025  -0.9317385   0.3105023
0.6734064    -0.9988477  -0.0015331   0.0002915  -0.0000312  -0.0000007  -0.0000128  -0.9316249   0.3107810
0.6816848    -0.9988685  -0.0014952   0.0003110  -0.0000370  -0.0000108  -0.0000052  -0.9314518   0.3109770
0.6900649    -0.9989785  -0.0016040   0.0003044  -0.0000380  -0.0000001  -0.0000024  -0.9313558   0.3112493
0.6985480    -0.9988707  -0.0017100   0.0003053  -0.0000427  -0.0000011  -0.0000022  -0.9312130   0.3116300
0.7071355    -0.9988782  -0.0016248   0.0002986  -0.0000147   0.0000024  -0.0000047  -0.9311384   0.3119213
0.7158284    -0.9988794  -0.0017039   0.0002831  -0.0000029   0.0000018  -0.0000044  -0.9310515   0.3121998
0.7246283    -0.9989129  -0.0016875   0.0002917  -0.0000367  -0.0000065  -0.0000022  -0.9308397   0.3124587
0.7335363    -0.9988669  -0.0017231   0.0002870  -0.0000245   0.0000072  -0.0000030  -0.9308036   0.3127722
0.7425539    -0.9988353  -0.0015954   0.0002943  -0.0000279  -0.0000014  -0.0000051  -0.9306783   0.3131388
0.7516822    -0.9988464  -0.0016220   0.0002944  -0.0000041  -0.0000061   0.0000039  -0.9304417   0.3133883
0.7609229    -0.9988362  -0.0017211   0.0002794   0.0000038  -0.0000108  -0.0000073  -0.9302693   0.3136903
0.7702771    -0.9988491  -0.0017974   0.0003025  -0.0000189   0.0000060  -0.0000118  -0.9301103   0.3139566
0.7797463    -0.9989102  -0.0017208   0.0002927  -0.0000052  -0.0000053  -0.0000039  -0.9299867   0.3143409
0.7893319    -0.9989176  -0.0017681   0.0002987  -0.0000028  -0.0000011  -0.0000039  -0.9298566   0.3146606
0.7990353    -0.9988870  -0.0019249   0.0002899  -0.0000011   0.0000108   0.0000006  -0.9297423   0.3149845
0.8088580    -0.9988662  -0.0018409   0.0002965   0.0000018  -0.0000011  -0.0000043  -0.9295781   0.3153214
0.8188015    -0.9990144  -0.0018701   0.0002870   0.0000052  -0.0000041  -0.0000032  -0.9294537   0.3156519
0.8288673    -0.9989442  -0.0018859   0.0003128   0.0000011  -0.0000032  -0.0000065  -0.9292674   0.3159989
0.8390567    -0.9988779  -0.0019778   0.0002767   0.0000099   0.0000029  -0.0000167  -0.9291964   0.3163791
0.8493714    -0.9989723  -0.0019499   0.0002796   0.0000051   0.0000081  -0.0000012  -0.9290133   0.3166715
0.8598130    -0.9989733  -0.0019063   0.0002931   0.0000266   0.0000073  -0.0000083  -0.9288463   0.3170546
0.8703829    -0.9989366  -0.0019681   0.0002958   0.0000190   0.0000037  -0.0000044  -0.9286617   0.3173866
0.8810827    -0.9989483  -0.0019390   0.0002705   0.0000226  -0.0000029  -0.0000054  -0.9285109   0.3178376
0.8919140    -0.9989904  -0.0019661   0.0002736   0.0000062   0.0000023  -0.0000108  -0.9283561   0.3181357
0.9028786    -0.9989288  -0.0020223   0.0002762   0.0000287  -0.0000092   0.0000004  -0.9281942   0.3185210
0.9139779    -0.9989558  -0.0020807   0.0002858   0.0000161  -0.0000026  -0.0000067  -0.9280326   0.3189216
0.9252136    -0.9988841  -0.0021498   0.0002761   0.0000053  -0.0000001  -0.0000139  -0.9278553   0.3192816
0.9365875    -0.9988881  -0.0020708   0.0002771   0.0000346  -0.0000034   0.0000006  -0.9276938   0.3196557
0.9481012    -0.9988399  -0.0020130   0.0002644   0.0000199  -0.0000017  -0.0000055  -0.9275186   0.3200543
0.9597564    -0.9988632  -0.0021812   0.0002757   0.0000212  -0.0000017  -0.0000023  -0.9273121   0.3204456
0.9715549    -0.9989847  -0.0020214   0.0002731   0.0000466  -0.0000036  -0.0000012  -0.9271461   0.3208858
0.9834985    -0.9988419  -0.0020895   0.0002671   0.0000255  -0.0000065  -0.0000013  -0.9270109   0.3212321
0.9955889    -0.9989579  -0.0021647   0.0002827   0.0000483  -0.0000032  -0.0000050  -0.9268638   0.3216050
1.0078279    -0.9988828  -0.0022833   0.0002714   0.0000376   0.0000107  -0.0000079  -0.9265545   0.3220619
1.0202173    -0.9989647  -0.0022370   0.0002789   0.0000471   0.0000011  -0.0000053  -0.9264578   0.3224213
1.0327591    -0.9989003  -0.0022238   0.0002852   0.0000350  -0.0000039  -0.0000004  -0.9262505   0.3229331
1.0454551    -0.9988794  -0.0023397   0.0002701   0.0000469   0.0000008  -0.0000101  -0.9260666   0.3233381
1.0583071    -0.9989532  -0.0022674   0.0002714   0.0000462  -0.0000013   0.0000049  -0.9258682   0.3237213
1.0713171    -0.9988018  -0.0023122   0.0002731   0.0000650  -0.0000064   0.0000018  -0.9255917   0.3241481
1.0844871    -0.9989383  -0.0022880   0.0002769   0.0000469  -0.0000048   0.0000027  -0.9254617   0.3245377
1.0978189    -0.9989166  -0.0024153   0.0002596   0.0000756   0.0000007   0.0000068  -0.9252756   0.3250599
1.1113147    -0.9988591  -0.0024966   0.0002721   0.0000532  -0.0000006  -0.0000055  -0.9250334   0.3254274
1.1249763    -0.9989553  -0.0025488   0.0002611   0.0000835  -0.0000013  -0.0000018  -0.9248774   0.3259905
1.1388059    -0.9989709  -0.0023859   0.0002686   0.0000637  -0.0000019  -0.0000060  -0.9247198   0.3264517
1.1528056    -0.9989050  -0.0025342   0.0002610   0.0000688  -0.0000044  -0.0000036  -0.9244583   0.3268988
1.1669773    -0.9990000  -0.0025161   0.0002603   0.0000761  -0.0000009  -0.0000082  -0.9242727   0.3273953
1.1813232    -0.9989592  -0.0026712   0.0002658   0.0000797  -0.0000031  -0.0000048  -0.9240773   0.3278585
1.1958455    -0.9988445  -0.0027020   0.0002750   0.0000876   0.0000009   0.0000004  -0.9238039   0.3283554
1.2105463    -0.9989704  -0.0026323   0.0002718   0.0000975  -0.0000031  -0.0000085  -0.9236208   0.3288517
1.2254278    -0.9989678  -0.0025762   0.0002409   0.0000991  -0.0000064   0.0000002  -0.9233540   0.3293477
1.2404923    -0.9990191  -0.0026818   0.0002526   0.0000988   0.0000005  -0.0000006  -0.9232183   0.3298264
1.2557420    -0.9990465  -0.0028086   0.0002713   0.0001030   0.0000060  -0.0000034  -0.9229541   0.3303611
1.2711791    -0.9990540  -0.0027970   0.0002574   0.0000948   0.0000058   0.0000032  -0.9226769   0.3308420
1.2868060    -0.9990151  -0.0027215   0.0002420   0.0001091  -0.0000086   0.0000018  -0.9224299   0.3313969
1.3026251    -0.9989899  -0.0028257   0.0002399   0.0000887   0.0000010  -0.0000178  -0.9221532   0.3319239
1.3186385    -0.9990156  -0.0027900   0.0002671   0.0001152  -0.0000032  -0.0000001  -0.9219294   0.3324706
1.3348489    -0.9989512  -0.0029348   0.0002619   0.0001296  -0.0000022  -0.0000067  -0.9217568   0.3330027
1.3512585    -0.9988747  -0.0029405   0.0002551   0.0001150  -0.0000067  -0.0000152  -0.9214508   0.3335168
1.3678698    -0.9990158  -0.0029852   0.0002791   0.0001157  -0.0000091  -0.0000157  -0.9212825   0.3340755
1.3846854    -0.9989789  -0.0030395   0.0002667   0.0001228   0.0000027  -0.0000135  -0.9210106   0.3347380
1.4017077    -0.9990267  -0.0030552   0.0002458   0.0001275   0.0000041   0.0000045  -0.9207423   0.3352204
1.4189392    -0.9989969  -0.0030627   0.0002587   0.0001239   0.0000006   0.0000001  -0.9205003   0.3357456
1.4363825    -0.9989807  -0.0030776   0.0002715   0.0001083  -0.0000072  -0.0000012  -0.9202484   0.3363581
1.4540403    -0.9990997  -0.0030331   0.0002647   0.0001328  -0.0000064  -0.0000011  -0.9199559   0.3369570
1.4719152    -0.9989141  -0.0031488   0.0002533   0.0001566   0.0000078   0.0000075  -0.9197156   0.3376479
1.4900098    -0.9989846  -0.0031934   0.0002612   0.0001374   0.0000059  -0.0000025  -0.9193985   0.3381595
1.5083269    -0.9990343  -0.0032118   0.0002478   0.0001351  -0.0000053   0.0000013  -0.9191216   0.3387463
1.5268691    -0.9990978  -0.0032716   0.0002360   0.0001517   0.0000075  -0.0000016  -0.9188447   0.3393919
1.5456392    -0.9990548  -0.0033329   0.0002499   0.0001355  -0.0000034  -0.0000016  -0.9186352   0.3399954
1.5646402    -0.9990678  -0.0032780   0.0002520   0.0001618   0.0000027  -0.0000022  -0.9183255   0.3407034
1.5838747    -0.9990332  -0.0033864   0.0002613   0.0001684  -0.0000058   0.0000018  -0.9180071   0.3413056
1.6033456    -0.9990318  -0.0034272   0.0002517   0.0001519  -0.0000038   0.0000005  -0.9178175   0.3419714
1.6230559    -0.9990948  -0.0033597   0.0002504   0.0001626   0.0000040  -0.0000088  -0.9174998   0.3426997
1.6430085    -0.9989830  -0.0035537   0.0002464   0.0001676  -0.0000092  -0.0000087  -0.9171685   0.3433497
1.6632064    -0.9990116  -0.0036181   0.0002355   0.0001793  -0.0000108  -0.0000073  -0.9168588   0.3440620
1.6836526    -0.9990703  -0.0036066   0.0002502   0.0001919   0.0000037  -0.0000099  -0.9166106   0.3447857
1.7043502    -0.9990569  -0.0036503   0.0002437   0.0001747   0.0000002  -0.0000113  -0.9161800   0.3455200
1.7253021    -0.9990283  -0.0036416   0.0002562   0.0001852  -0.0000079  -0.0000040  -0.9159925   0.3461715
1.7465117    -0.9989635  -0.0036459   0.0002461   0.0002015   0.0000025  -0.0000055  -0.9157903   0.3469968
1.7679820    -0.9991720  -0.0037002   0.0002604   0.0001846  -0.0000045   0.0000031  -0.9154066   0.3477171
1.7897162    -0.9989410  -0.0038122   0.0002641   0.0002108  -0.0000016  -0.0000074  -0.9151174   0.3484560
1.8117176    -0.9990391  -0.0037429   0.0002489   0.0002031  -0.0000088  -0.0000035  -0.9147761   0.3493066
1.8339895    -0.9990160  -0.0038712   0.0002440   0.0002069  -0.0000118  -0.0000034  -0.9144893   0.3500739
1.8565352    -0.9991074  -0.0039357   0.0002388   0.0002297  -0.0000061  -0.0000007  -0.9141587   0.3508992
1.8793580    -0.9989878  -0.0038975   0.0002405   0.0002003   0.0000050  -0.0000067  -0.9138773   0.3516445
1.9024614    -0.9990999  -0.0040081   0.0002495   0.0002071   0.0000034   0.0000019  -0.9136433   0.3524820
1.9258488    -0.9990277  -0.0041017   0.0002501   0.0002286  -0.0000040  -0.0000066  -0.9132013   0.3533232
1.9495237    -0.9991121  -0.0041235   0.0002353   0.0002186  -0.0000036  -0.0000086  -0.9128573   0.3542622
1.9734897    -0.9990799  -0.0041740   0.0002657   0.0002290  -0.0000027  -0.0000027  -0.9124967   0.3551210
1.9977503    -0.9989779  -0.0041860   0.0002179   0.0002356  -0.0000022  -0.0000100  -0.9121862   0.3560367
2.0223091    -0.9991002  -0.0041818   0.0002474   0.0002138   0.0000036  -0.0000066  -0.9117146   0.3569520
2.0471698    -0.9990970  -0.0042702   0.0002658   0.0002329   0.0000021  -0.0000058  -0.9112576   0.3578717
2.0723362    -0.9990263  -0.0042482   0.0002404   0.0002375  -0.0000052  -0.0000109  -0.9108508   0.3587810
2.0978119    -0.9990803  -0.0044073   0.0002618   0.0002381  -0.0000046  -0.0000081  -0.9103719   0.3597379
2.1236008    -0.9990848  -0.0044909   0.0002564   0.0002522  -0.0000093  -0.0000004  -0.9098752   0.3606545
2.1497067    -0.9990475  -0.0045284   0.0002539   0.0002348  -0.0000046  -0.0000022  -0.9093895   0.3616367
2.1761336    -0.9991251  -0.0044917   0.0002411   0.0002641  -0.0000068  -0.0000094  -0.9089004   0.3624516
2.2028853    -0.9991497  -0.0045835   0.0002609   0.0002688  -0.0000069  -0.0000036  -0.9082573   0.3634525
2.2299659    -0.9991201  -0.0045349   0.0002540   0.0002741  -0.0000041  -0.0000103  -0.9079217   0.3643863
2.2573794    -0.9991904  -0.0046839   0.0002559   0.0002727  -0.0000005   0.0000045  -0.9073349   0.3653268
2.2851299    -0.9991005  -0.0047399   0.0002423   0.0002771  -0.0000203  -0.0000078  -0.9067572   0.3662666
2.3132216    -0.9991764  -0.0047920   0.0002479   0.0002747  -0.0000061  -0.0000051  -0.9062437   0.3671181
2.3416586    -0.9992249  -0.0049077   0.0002724   0.0002948   0.0000013  -0.0000147  -0.9056892   0.3680784
2.3704451    -0.9991456  -0.0048779   0.0002378   0.0002790  -0.0000051  -0.0000091  -0.9051684   0.3691096
2.3995856    -0.9991457  -0.0050091   0.0002482   0.0003055  -0.0000066  -0.0000082  -0.9045189   0.3700807
2.4290843    -0.9991107  -0.0050135   0.0002272   0.0003042  -0.0000003  -0.0000136  -0.9041214   0.3709168
2.4589456    -0.9991208  -0.0051367   0.0002443   0.0002903  -0.0000015  -0.0000055  -0.9035454   0.3719175
2.4891740    -0.9989957  -0.0052059   0.0002442   0.0003103   0.0000065   0.0000046  -0.9030067   0.3729132
2.5197740    -0.9991596  -0.0052771   0.0002403   0.0003180  -0.0000101  -0.0000049  -0.9025121   0.3739415
2.5507502    -0.9991529  -0.0052634   0.0002487   0.0003206  -0.0000041   0.0000006  -0.9019500   0.3748543
2.5821072    -0.9991870  -0.0053227   0.0002496   0.0003268   0.0000005  -0.0000009  -0.9013914   0.3758758
2.6138496    -0.9991860  -0.0054401   0.0002485   0.0003335  -0.0000073  -0.0000027  -0.9007222   0.3768633
2.6459823    -0.9991253  -0.0055538   0.0002530   0.0003471  -0.0000029   0.0000048  -0.9001987   0.3779199
2.6785100    -0.9991565  -0.0054912   0.0002385   0.0003248  -0.0000082  -0.0000121  -0.8996597   0.3790409
2.7114376    -0.9992080  -0.0056279   0.0002457   0.0003505  -0.0000063  -0.0000062  -0.8990225   0.3800620
2.7447699    -0.9991779  -0.0055758   0.0002417   0.0003472   0.0000017  -0.0000063  -0.8984440   0.3810689
2.7785120    -0.9991375  -0.0057703   0.0002627   0.0003613  -0.0000026  -0.0000068  -0.8978285   0.3821643
2.8126689    -0.9991536  -0.0057809   0.0002395   0.0003610  -0.0000122   0.0000035  -0.8973122   0.3833147
2.8472457    -0.9992055  -0.0058877   0.0002407   0.0003600  -0.0000035  -0.0000070  -0.8967607   0.3844286
2.8822476    -0.9992301  -0.0060336   0.0002588   0.0003806   0.0000060   0.0000022  -0.8961782   0.3855124
2.9176798    -0.9993019  -0.0060634   0.0002264   0.0003750  -0.0000007  -0.0000141  -0.8955195   0.3866086
2.9535475    -0.9992252  -0.0061287   0.0002586   0.0003864  -0.0000058  -0.0000054  -0.8949483   0.3878070
2.9898562    -0.9992465  -0.0061731   0.0002389   0.0004015  -0.0000028  -0.0000049  -0.8942470   0.3890268
3.0266112    -0.9991717  -0.0062057   0.0002404   0.0003907  -0.0000014  -0.0000102  -0.8936296   0.3901293
3.0638180    -0.9991262  -0.0063754   0.0002614   0.0003964  -0.0000027  -0.0000106  -0.8929854   0.3913348
3.1014823    -0.9992440  -0.0063286   0.0002349   0.0004174   0.0000122   0.0000001  -0.8923790   0.3926033
3.1396096    -0.9990953  -0.0063773   0.0002414   0.0004165   0.0000007  -0.0000151  -0.8916534   0.3937399
3.1782055    -0.9991831  -0.0065065   0.0002319   0.0003922  -0.0000052  -0.0000060  -0.8910269   0.3950064
3.2172760    -0.9992822  -0.0065951   0.0002437   0.0004166  -0.0000021  -0.0000025  -0.8903442   0.3962763
3.2568267    -0.9992324  -0.0066470   0.0002446   0.0004284   0.0000000   0.0000010  -0.8897056   0.3975141
3.2968637    -0.9992430  -0.0067216   0.0002488   0.0004240   0.0000079  -0.0000071  -0.8889123   0.3988380
3.3373928    -0.9991920  -0.0069282   0.0002521   0.0004359  -0.0000055  -0.0000043  -0.8882090   0.4000991
3.3784202    -0.9992101  -0.0069379   0.0002415   0.0004535   0.0000017  -0.0000115  -0.8874257   0.4014749
3.4199519    -0.9992206  -0.0069820   0.0002425   0.0004485  -0.0000018  -0.0000072  -0.8867184   0.4027799
3.4619942    -0.9992573  -0.0070488   0.0002456   0.0004620   0.0000094  -0.0000015  -0.8859021   0.4040620
3.5045533    -0.9992565  -0.0071792   0.0002510   0.0004759  -0.0000130  -0.0000043  -0.8851955   0.4055343
3.5476356    -0.9992016  -0.0072623   0.0002513   0.0004727  -0.0000032  -0.0000072  -0.8844131   0.4068135
3.5912475    -0.9992826  -0.0072944   0.0002341   0.0004588   0.0000050  -0.0000068  -0.8835820   0.4081858
3.6353956    -0.9992096  -0.0074753   0.0002630   0.0004824  -0.0000033   0.0000033  -0.8828196   0.4096963
3.6800864    -0.9992164  -0.0074619   0.0002400   0.0004959  -0.0000019  -0.0000012  -0.8820544   0.4111741
3.7253266    -0.9992971  -0.0076739   0.0002461   0.0004830  -0.0000012   0.0000029  -0.8812237   0.4125975
3.7711229    -0.9991711  -0.0076212   0.0002505   0.0005078   0.0000036  -0.0000073  -0.8804596   0.4140384
3.8174822    -0.9993057  -0.0076980   0.0002437   0.0005040   0.0000054  -0.0000037  -0.8795996   0.4154965
3.8644115    -0.9992674  -0.0078676   0.0002453   0.0005161  -0.0000027  -0.0000005  -0.8788628   0.4170898
3.9119176    -0.9991968  -0.0079667   0.0002726   0.0005196   0.0000050  -0.0000047  -0.8780034   0.4186069
3.9600077    -0.9993394  -0.0081287   0.0002487   0.0005269  -0.0000003  -0.0000106  -0.8772529   0.4201030
4.0086890    -0.9993523  -0.0080303   0.0002480   0.0005442  -0.0000001  -0.0000011  -0.8762245   0.4216955
4.0579688    -0.9993050  -0.0081870   0.0002526   0.0005523   0.0000105  -0.0000087  -0.8753939   0.4232443
4.1078544    -0.9991519  -0.0083924   0.0002628   0.0005411   0.0000009  -0.0000062  -0.8745147   0.4247613
4.1583532    -0.9991993  -0.0084232   0.0002540   0.0005520  -0.0000076  -0.0000134  -0.8735491   0.4263804
4.2094729    -0.9993159  -0.0086112   0.0002555   0.0005763  -0.0000130  -0.0000085  -0.8727399   0.4279787
4.2612209    -0.9992828  -0.0085652   0.0002512   0.0005624   0.0000049  -0.0000003  -0.8717528   0.4295703
4.3136051    -0.9993445  -0.0086890   0.0002589   0.0005968   0.0000094  -0.0000038  -0.8707551   0.4312195
4.3666333    -0.9993529  -0.0087686   0.0002334   0.0005814  -0.0000042  -0.0000094  -0.8698497   0.4329018
4.4203134    -0.9993364  -0.0089838   0.0002535   0.0005981  -0.0000094  -0.0000055  -0.8687537   0.4345216
4.4746534    -0.9993329  -0.0090836   0.0002493   0.0006099  -0.0000100  -0.0000040  -0.8676684   0.4362446
4.5296613    -0.9993500  -0.0091428   0.0002701   0.0006212  -0.0000140  -0.0000062  -0.8666960   0.4379928
4.5853455    -0.9992565  -0.0093222   0.0002574   0.0006229   0.0000126  -0.0000056  -0.8655878   0.4397037
4.6417143    -0.9993604  -0.0093971   0.0002658   0.0006291   0.0000038  -0.0000010  -0.8644354   0.4412928
4.6987760    -0.9993047  -0.0094855   0.0002498   0.0006409  -0.0000146  -0.0000077  -0.8633619   0.4429503
4.7565392    -0.9992189  -0.0096262   0.0002656   0.0006278  -0.0000048  -0.0000118  -0.8622112   0.4446939
4.8150125    -0.9994170  -0.0096865   0.0002409   0.0006750   0.0000012  -0.0000054  -0.8610678   0.4463435
4.8742045    -0.9992995  -0.0099307   0.0002566   0.0006717   0.0000013  -0.0000100  -0.8598778   0.4479819
4.9341243    -0.9993690  -0.0099170   0.0002616   0.0006523  -0.0000079  -0.0000109  -0.8588102   0.4494953
4.9947807    -0.9992309  -0.0100812   0.0002613   0.0006950  -0.0000006  -0.0000013  -0.8578174   0.4510817
5.0561827    -0.9993494  -0.0102156   0.0002678   0.0006936  -0.0000007  -0.0000055  -0.8568059   0.4527803
5.1183396    -0.9993397  -0.0103141   0.0002771   0.0006983   0.0000014  -0.0000067  -0.8558557   0.4544847
5.1812606    -0.9994001  -0.0105410   0.0002612   0.0007148   0.0000041   0.0000007  -0.8549632   0.4562606
5.2449550    -0.9993938  -0.0105006   0.0002706   0.0007085  -0.0000038  -0.0000165  -0.8540537   0.4582926
5.3094325    -0.9993724  -0.0106848   0.0002670   0.0007353  -0.0000002  -0.0000129  -0.8530595   0.4601084
5.3747026    -0.9994417  -0.0108515   0.0002552   0.0007278  -0.0000032  -0.0000010  -0.8520304   0.4623129
5.4407751    -0.9993435  -0.0109415   0.0002529   0.0007680   0.0000050  -0.0000045  -0.8508710   0.4642557
5.5076599    -0.9993793  -0.0111333   0.0002500   0.0007426  -0.0000117  -0.0000096  -0.8497691   0.4663224
5.5753669    -0.9994707  -0.0111291   0.0002741   0.0007766   0.0000046  -0.0000046  -0.8485973   0.4684798
5.6439062    -0.9994716  -0.0113749   0.0002547   0.0007680   0.0000020  -0.0000020  -0.8474325   0.4705647
5.7132881    -0.9992975  -0.0115068   0.0002694   0.0007694  -0.0000053  -0.0000021  -0.8461542   0.4727491
5.7835229    -0.9994739  -0.0116532   0.0002705   0.0007873   0.0000120  -0.0000015  -0.8448744   0.4749231
5.8546211    -0.9995240  -0.0118576   0.0002678   0.0007938   0.0000019  -0.0000059  -0.8436650   0.4771559
5.9265934    -0.9993339  -0.0118907   0.0002853   0.0008003   0.0000031  -0.0000032  -0.8422969   0.4793258
5.9994504    -0.9994817  -0.0120753   0.0002742   0.0008351  -0.0000047  -0.0000054  -0.8409209   0.4814409
6.0732031    -0.9994415  -0.0123492   0.0002825   0.0008403  -0.0000113  -0.0000100  -0.8395623   0.4836481
6.1478624    -0.9994449  -0.0123931   0.0002771   0.0008436   0.0000063  -0.0000045  -0.8381859   0.4858738
6.2234396    -0.9994496  -0.0124182   0.0002760   0.0008541  -0.0000013  -0.0000036  -0.8366054   0.4881844
6.2999458    -0.9994821  -0.0125849   0.0002669   0.0008658  -0.0000015  -0.0000074  -0.8352632   0.4904485
6.3773925    -0.9994056  -0.0127400   0.0002877   0.0008685  -0.0000065  -0.0000109  -0.8337530   0.4927246
6.4557914    -0.9994928  -0.0130616   0.0002729   0.0008841   0.0000019  -0.0000044  -0.8322471   0.4949631
6.5351539    -0.9995498  -0.0130654   0.0002853   0.0008821  -0.0000016   0.0000001  -0.8307492   0.4973691
6.6154922    -0.9995511  -0.0132583   0.0002866   0.0009064   0.0000017  -0.0000067  -0.8291662   0.4997310
6.6968180    -0.9994603  -0.0134707   0.0002946   0.0009075  -0.0000013  -0.0000054  -0.8275994   0.5021189
6.7791436    -0.9993990  -0.0135910   0.0002889   0.0009298  -0.0000036  -0.0000061  -0.8260330   0.5044637
6.8624812    -0.9995002  -0.0137833   0.0002750   0.0009283  -0.0000017  -0.0000108  -0.8244187   0.5069328
6.9468433    -0.9994879  -0.0139146   0.0002774   0.0009527  -0.0000075   0.0000006  -0.8228260   0.5093485
7.0322425    -0.9993992  -0.0140980   0.0002842   0.0009754  -0.0000001  -0.0000017  -0.8211146   0.5118158
7.1186916    -0.9994821  -0.0141071   0.0002789   0.0009731   0.0000055  -0.0000068  -0.8194095   0.5143454
7.2062034    -0.9995211  -0.0144172   0.0002979   0.0009809  -0.0000054  -0.0000028  -0.8176992   0.5169044
7.2947909    -0.9994146  -0.0145892   0.0002861   0.0010019  -0.0000060  -0.0000003  -0.8159561   0.5194736
7.3844675    -0.9994478  -0.0147981   0.0002888   0.0010056  -0.0000109  -0.0000018  -0.8142863   0.5220747
7.4752466    -0.9995270  -0.0149928   0.0003086   0.0010213   0.0000062  -0.0000064  -0.8124937   0.5246904
7.5671416    -0.9994588  -0.0151866   0.0002822   0.0010349  -0.0000101   0.0000033  -0.8107805   0.5273408
7.6601662    -0.9994411  -0.0152973   0.0002905   0.0010336  -0.0000032  -0.0000058  -0.8089321   0.5300260
7.7543345    -0.9994555  -0.0154737   0.0002872   0.0010618  -0.0000011  -0.0000027  -0.8070409   0.5328550
7.8496604    -0.9995487  -0.0156453   0.0002833   0.0010781  -0.0000081  -0.0000079  -0.8052010   0.5356596
7.9461581    -0.9995668  -0.0158281   0.0002975   0.0010984  -0.0000041  -0.0000001  -0.8031845   0.5385086
8.0438422    -0.9995041  -0.0159335   0.0002840   0.0010990  -0.0000019   0.0000034  -0.8012046   0.5413537
8.1427270    -0.9995615  -0.0163161   0.0003070   0.0011190   0.0000042   0.0000010  -0.7990345   0.5443276
8.2428275    -0.9996294  -0.0164064   0.0002932   0.0011141   0.0000016   0.0000028  -0.7968067   0.5471867
8.3441586    -0.9994411  -0.0166714   0.0002932   0.0011344  -0.0000017   0.0000017  -0.7946318   0.5499687
8.4467353    -0.9995824  -0.0169063   0.0002938   0.0011485   0.0000085  -0.0000037  -0.7923743   0.5529673
8.5505731    -0.9996404  -0.0169817   0.0003119   0.0011626   0.0000036  -0.0000037  -0.7900742   0.5557386
8.6556873    -0.9994933  -0.0172407   0.0002961   0.0011800   0.0000022  -0.0000069  -0.7877981   0.5586649
8.7620937    -0.9996273  -0.0174051   0.0003053   0.0011985  -0.0000146  -0.0000022  -0.7855033   0.5615264
8.8698082    -0.9995351  -0.0176810   0.0003017   0.0012077   0.0000006  -0.0000076  -0.7831491   0.5644380
8.9788469    -0.9995275  -0.0178564   0.0003061   0.0012265   0.0000057  -0.0000060  -0.7808526   0.5673655
9.0892260    -0.9995835  -0.0180370   0.0003072   0.0012414  -0.0000017  -0.0000065  -0.7784899   0.5703176
9.2009621    -0.9995525  -0.0182718   0.0003067   0.0012370  -0.0000012  -0.0000011  -0.7759998   0.5733714
9.3140717    -0.9996132  -0.0184664   0.0003237   0.0012753   0.0000038   0.0000058  -0.7735743   0.5763568
9.4285718    -0.9996001  -0.0187876   0.0003101   0.0012837  -0.0000053  -0.0000121  -0.7711036   0.5794398
9.5444795    -0.9996791  -0.0189131   0.0003168   0.0012872  -0.0000082   0.0000062  -0.7685506   0.5825374
9.6618121    -0.9996646  -0.0191581   0.0003215   0.0013234   0.0000018  -0.0000043  -0.7660223   0.5856292
9.7805870    -0.9996166  -0.0193872   0.0003238   0.0013326   0.0000009   0.0000032  -0.7634060   0.5888029
9.9008221    -0.9995747  -0.0195706   0.0003134   0.0013348   0.0000039  -0.0000012  -0.7607542   0.5920226
10.0225353   -0.9996048  -0.0197961   0.0003181   0.0013749  -0.0000049  -0.0000083  -0.7581033   0.5951324
10.1457447   -0.9995992  -0.0201425   0.0003316   0.0013876  -0.0000039  -0.0000058  -0.7553612   0.5984296
10.2704688   -0.9995754  -0.0203650   0.0003044   0.0013993  -0.0000041  -0.0000085  -0.7526769   0.6017045
10.3967261   -0.9996231  -0.0206499   0.0003167   0.0013961  -0.0000061  -0.0000066  -0.7498397   0.6050384
10.5245356   -0.9995721  -0.0209243   0.0003285   0.0014301  -0.0000079  -0.0000076  -0.7469667   0.6082174
10.6539162   -0.9995761  -0.0210317   0.0003290   0.0014508   0.0000029   0.0000029  -0.7440703   0.6115378
10.7848873   -0.9996469  -0.0213226   0.0003356   0.0014592   0.0000005  -0.0000063  -0.7411368   0.6149778
10.9174685   -0.9996471  -0.0216997   0.0003377   0.0014784  -0.0000070  -0.0000035  -0.7381281   0.6183689
11.0516796   -0.9996748  -0.0218519   0.0003420   0.0014993  -0.0000045   0.0000037  -0.7349763   0.6217995
11.1875405   -0.9996149  -0.0221407   0.0003250   0.0015150   0.0000009  -0.0000076  -0.7319551   0.6253218
11.3250716   -0.9995754  -0.0223623   0.0003320   0.0015319  -0.0000013  -0.0000002  -0.7288001   0.6287838
11.4642934   -0.9995767  -0.0227086   0.0003424   0.0015617  -0.0000070  -0.0000020  -0.7255736   0.6322627
11.6052267   -0.9996485  -0.0229260   0.0003334   0.0015593  -0.0000104  -0.0000051  -0.7223402   0.6358978
11.7478926   -0.9996225  -0.0231708   0.0003626   0.0015802  -0.0000036   0.0000009  -0.7190147   0.6394037
11.8923122   -0.9995663  -0.0234759   0.0003523   0.0016108   0.0000007   0.0000002  -0.7156511   0.6429700
12.0385073   -0.9996345  -0.0238478   0.0003572   0.0016147  -0.0000075  -0.0000003  -0.7121713   0.6466395
12.1864995   -0.9996747  -0.0240551   0.0003584   0.0016446  -0.0000044  -0.0000095  -0.7086981   0.6502674
12.3363111   -0.9996785  -0.0243670   0.0003567   0.0016601  -0.0000098  -0.0000015  -0.7052440   0.6539590
12.4879643   -0.9996842  -0.0245897   0.0003675   0.0016814  -0.0000047  -0.0000026  -0.7015574   0.6576797
12.6414818   -0.9997466  -0.0248815   0.0003572   0.0016971   0.0000050  -0.0000068  -0.6978449   0.6613944
12.7968866   -0.9996784  -0.0251928   0.0003691   0.0017186   0.0000019  -0.0000131  -0.6941116   0.6651428
12.9542018   -0.9997398  -0.0255110   0.0003637   0.0017503   0.0000027   0.0000004  -0.6903715   0.6689079
13.1134509   -0.9997282  -0.0258512   0.0003735   0.0017675  -0.0000100  -0.0000035  -0.6864955   0.6727020
13.2746577   -0.9997941  -0.0261641   0.0003709   0.0017720  -0.0000033  -0.0000037  -0.6825288   0.6765492
13.4378462   -0.9996090  -0.0264014   0.0003588   0.0018076   0.0000116  -0.0000093  -0.6785797   0.6805044
13.6030409   -0.9996767  -0.0267496   0.0003659   0.0018164   0.0000024  -0.0000091  -0.6744924   0.6843455
13.7702663   -0.9996259  -0.0270933   0.0003773   0.0018450  -0.0000078   0.0000053  -0.6703140   0.6882447
13.9395475   -0.9996625  -0.0273763   0.0003846   0.0018815  -0.0000009  -0.0000010  -0.6661352   0.6921232
14.1109097   -0.9995543  -0.0278029   0.0003710   0.0018807  -0.0000038  -0.0000051  -0.6618006   0.6961022
14.2843785   -0.9997071  -0.0280291   0.0003938   0.0019119   0.0000052   0.0000030  -0.6574447   0.7000021
14.4599797   -0.9997078  -0.0284595   0.0003823   0.0019302   0.0000036  -0.0000067  -0.6530176   0.7040575
14.6377397   -0.9997239  -0.0287827   0.0003937   0.0019721  -0.0000093  -0.0000076  -0.6485291   0.7080584
14.8176850   -0.9997336  -0.0291142   0.0003987   0.0019782  -0.0000131   0.0000027  -0.6439510   0.7120446
14.9998423   -0.9996747  -0.0294630   0.0003990   0.0020012  -0.0000022  -0.0000131  -0.6392536   0.7161155
15.1842390   -0.9996952  -0.0297983   0.0003824   0.0020216  -0.0000130   0.0000049  -0.6344815   0.7202062
15.3709024   -0.9996434  -0.0301494   0.0003977   0.0020546  -0.0000048   0.0000017  -0.6297241   0.7242485
15.5598606   -0.9997058  -0.0306017   0.0004005   0.0020665  -0.0000054  -0.0000108  -0.6248621   0.7283607
15.7511417   -0.9997892  -0.0308999   0.0003981   0.0021000   0.0000019  -0.0000063  -0.6198680   0.7325479
15.9447743   -0.9997429  -0.0312901   0.0004009   0.0021039   0.0000020  -0.0000005  -0.6148227   0.7366409
16.1407872   -0.9996359  -0.0316365   0.0004126   0.0021400  -0.0000153  -0.0000110  -0.6095775   0.7408179
16.3392097   -0.9996168  -0.0320353   0.0004240   0.0021587  -0.0000056   0.0000011  -0.6043237   0.7450111
16.5400716   -0.9996826  -0.0324042   0.0004261   0.0021990  -0.0000077   0.0000002  -0.5990279   0.7492048
16.7434026   -0.9997213  -0.0327203   0.0004169   0.0022041  -0.0000112  -0.0000024  -0.5935454   0.7533613
16.9492333   -0.9997782  -0.0331628   0.0004255   0.0022455   0.0000049   0.0000022  -0.5880423   0.7577115
17.1575942   -0.9997296  -0.0334581   0.0004356   0.0022786  -0.0000039   0.0000064  -0.5824226   0.7618352
17.3685166   -0.9997318  -0.0339925   0.0004285   0.0023040  -0.0000002   0.0000013  -0.5767305   0.7661086
17.5820320   -0.9997121  -0.0343079   0.0004303   0.0023347  -0.0000036  -0.0000010  -0.5708657   0.7702965
17.7981721   -0.9996966  -0.0348461   0.0004292   0.0023522  -0.0000008  -0.0000063  -0.5649477   0.7746078
18.0169693   -0.9997609  -0.0352242   0.0004308   0.0023860  -0.0000148   0.0000015  -0.5589829   0.7788677
18.2384562   -0.9996075  -0.0355670   0.0004496   0.0024202  -0.0000088  -0.0000066  -0.5528978   0.7832294
18.4626659   -0.9996996  -0.0360062   0.0004551   0.0024393   0.0000017  -0.0000043  -0.5466180   0.7874117
18.6896319   -0.9997531  -0.0364670   0.0004368   0.0024716  -0.0000066   0.0000047  -0.5403799   0.7916946
18.9193880   -0.9996135  -0.0369138   0.0004514   0.0024988  -0.0000040  -0.0000020  -0.5338648   0.7960754
19.1519686   -0.9997159  -0.0374044   0.0004469   0.0025161   0.0000009  -0.0000067  -0.5272533   0.8003731
19.3874083   -0.9996343  -0.0378527   0.0004533   0.0025549  -0.0000090  -0.0000072  -0.5205907   0.8046701
19.6257423   -0.9996279  -0.0383172   0.0004652   0.0025774  -0.0000034  -0.0000054  -0.5139282   0.8090026
19.8670063   -0.9996666  -0.0388152   0.0004576   0.0026206  -0.0000003  -0.0000053  -0.5070653   0.8132444
20.1112361   -0.9996510  -0.0392536   0.0004729   0.0026524   0.0000014   0.0000039  -0.5000667   0.8175503
20.3584684   -0.9997050  -0.0397379   0.0004807   0.0026785  -0.0000109  -0.0000031  -0.4928451   0.8218131
20.6087399   -0.9996893  -0.0401868   0.0004561   0.0026817   0.0000064  -0.0000074  -0.4856078   0.8260492
20.8620881   -0.9996039  -0.0406293   0.0004679   0.0027503  -0.0000070   0.0000015  -0.4781752   0.8303917
21.1185507   -0.9996991  -0.0413278   0.0004925   0.0027709  -0.0000055   0.0000029  -0.4706816   0.8346281
21.3781661   -0.9996542  -0.0416298   0.0005155   0.0028075  -0.0000035  -0.0000010  -0.4630449   0.8387695
21.6409730   -0.9997116  -0.0421174   0.0004881   0.0028312  -0.0000039  -0.0000078  -0.4552968   0.8429882
21.9070107   -0.9997407  -0.0425823   0.0004940   0.0028732  -0.0000070   0.0000040  -0.4474480   0.8472129
22.1763188   -0.9996324  -0.0431802   0.0005078   0.0028919  -0.0000040   0.0000040  -0.4393970   0.8514093
22.4489376   -0.9996404  -0.0436803   0.0005102   0.0029197  -0.0000043  -0.0000038  -0.4312338   0.8556008
22.7249077   -0.9995790  -0.0441445   0.0005140   0.0029702  -0.0000006  -0.0000028  -0.4229033   0.8597198
23.0042705   -0.9996433  -0.0447107   0.0005215   0.0030241  -0.0000025   0.0000032  -0.4144679   0.8638397
23.2870675   -0.9996469  -0.0453226   0.0005241   0.0030322  -0.0000063   0.0000051  -0.4059703   0.8679089
23.5733409   -0.9995145  -0.0458400   0.0005208   0.0030821  -0.0000101  -0.0000119  -0.3971808   0.8719871
23.8631337   -0.9996566  -0.0464184   0.0005349   0.0031217  -0.0000095   0.0000009  -0.3882574   0.8759217
24.1564889   -0.9995382  -0.0469395   0.0005521   0.0031587  -0.0000145   0.0000020  -0.3793041   0.8799030
24.4534504   -0.9996219  -0.0474527   0.0005414   0.0031719  -0.0000039  -0.0000033  -0.3701540   0.8837846
24.7540625   -0.9995413  -0.0480642   0.0005494   0.0032223  -0.0000011  -0.0000056  -0.3608652   0.8877116
25.0583701   -0.9996176  -0.0486590   0.0005634   0.0032724   0.0000015  -0.0000007  -0.3513553   0.8915770
25.3664186   -0.9995306  -0.0492266   0.0005736   0.0032828  -0.0000058  -0.0000061  -0.3416299   0.8953736
25.6782541   -0.9995184  -0.0498111   0.0005545   0.0033255   0.0000039  -0.0000031  -0.3318719   0.8991532
25.9939230   -0.9994558  -0.0503631   0.0005662   0.0033783  -0.0000041  -0.0000050  -0.3219447   0.9027781
26.3134725   -0.9995412  -0.0510726   0.0005735   0.0034166   0.0000036  -0.0000035  -0.3118192   0.9063520
26.6369503   -0.9994767  -0.0516120   0.0005833   0.0034537  -0.0000030  -0.0000139  -0.3015927   0.9099376
26.9644047   -0.9995122  -0.0522491   0.0005506   0.0034931   0.0000019   0.0000037  -0.2911556   0.9134289
27.2958846   -0.9994600  -0.0528382   0.0005849   0.0035519  -0.0000076   0.0000021  -0.2805167   0.9167797
27.6314394   -0.9995391  -0.0535569   0.0005924   0.0035979  -0.0000017  -0.0000051  -0.2698048   0.9201340
27.9711193   -0.9994803  -0.0542425   0.0006071   0.0036445   0.0000071  -0.0000031  -0.2588429   0.9232956
28.3149750   -0.9993579  -0.0547354   0.0006214   0.0036762   0.0000039  -0.0000051  -0.2477763   0.9264440
28.6630578   -0.9993599  -0.0554558   0.0006304   0.0037287  -0.0000087  -0.0000003  -0.2365017   0.9294491
29.0154196   -0.9993096  -0.0561692   0.0006264   0.0037537  -0.0000064  -0.0000030  -0.2250419   0.9323611
29.3721131   -0.9993338  -0.0568336   0.0006322   0.0037883   0.0000014  -0.0000039  -0.2134533   0.9351741
29.7331915   -0.9993572  -0.0574893   0.0006317   0.0038445  -0.0000054  -0.0000036  -0.2016027   0.9379710
30.0987087   -0.9993976  -0.0581718   0.0006240   0.0038781  -0.0000033   0.0000123  -0.1897006   0.9405994
30.4687194   -0.9993480  -0.0588689   0.0006504   0.0039424  -0.0000021  -0.0000058  -0.1775500   0.9431766
30.8432786   -0.9993070  -0.0595537   0.0006500   0.0039769  -0.0000102   0.0000030  -0.1652043   0.9454509
31.2224424   -0.9992490  -0.0602580   0.0006564   0.0040175   0.0000061   0.0000027  -0.1527992   0.9476807
31.6062674   -0.9991905  -0.0610318   0.0006664   0.0040851  -0.0000091  -0.0000072  -0.1400337   0.9498177
31.9948108   -0.9992326  -0.0618017   0.0006750   0.0041377   0.0000000   0.0000043  -0.1271896   0.9518871
32.3881306   -0.9991863  -0.0624364   0.0006782   0.0041713  -0.0000007  -0.0000042  -0.1141830   0.9537462
32.7862857   -0.9991785  -0.0632677   0.0006968   0.0042190  -0.0000070  -0.0000062  -0.1009629   0.9553778
33.1893353   -0.9992028  -0.0640562   0.0006998   0.0042836  -0.0000018  -0.0000006  -0.0875903   0.9570247
33.5973398   -0.9991049  -0.0647473   0.0006963   0.0043423   0.0000037  -0.0000116  -0.0740442   0.9583378
34.0103599   -0.9990956  -0.0654843   0.0007075   0.0043743  -0.0000011   0.0000036  -0.0602129   0.9594876
34.4284574   -0.9990173  -0.0662733   0.0007152   0.0044481  -0.0000075  -0.0000028  -0.0465159   0.9606917
34.8516946   -0.9990442  -0.0671032   0.0007398   0.0045043  -0.0000053   0.0000028  -0.0322434   0.9616950
35.2801349   -0.9990178  -0.0679607   0.0007477   0.0045577  -0.0000032  -0.0000036  -0.0177784   0.9624635
35.7138420   -0.9990176  -0.0688233   0.0007368   0.0045977  -0.0000069  -0.0000060  -0.0032039   0.9628964
36.1528808   -0.9987825  -0.0695946   0.0007516   0.0046540  -0.0000086  -0.0000063   0.0115347   0.9632563
36.5973168   -0.9989081  -0.0704677   0.0007882   0.0047222   0.0000000  -0.0000055   0.0264333   0.9633738
37.0472164   -0.9988399  -0.0713049   0.0007770   0.0047777  -0.0000010  -0.0000025   0.0415912   0.9631242
37.5026467   -0.9988312  -0.0721586   0.0007890   0.0048440   0.0000005  -0.0000051   0.0569194   0.9628974
37.9636757   -0.9987584  -0.0731022   0.0008219   0.0048766  -0.0000025  -0.0000048   0.0726387   0.9619464
38.4303722   -0.9987177  -0.0739154   0.0008239   0.0049307   0.0000012  -0.0000023   0.0881824   0.9611452
38.9028060   -0.9986994  -0.0747723   0.0008453   0.0049894   0.0000032   0.0000041   0.1040381   0.9599848
39.3810475   -0.9986324  -0.0756758   0.0008692   0.0050436  -0.0000019   0.0000034   0.1201362   0.9586652
39.8651681   -0.9986391  -0.0766028   0.0008872   0.0051106  -0.0000008   0.0000047   0.1362896   0.9569852
40.3552402   -0.9986164  -0.0774076   0.0008817   0.0051616   0.0000052   0.0000025   0.1527017   0.9550329
40.8513368   -0.9985490  -0.0782796   0.0008908   0.0052303  -0.0000009  -0.0000083   0.1693457   0.9526915
41.3535320   -0.9984778  -0.0794500   0.0008922   0.0052756  -0.0000069  -0.0000035   0.1860114   0.9501695
41.8619009   -0.9983714  -0.0803055   0.0009124   0.0053518  -0.0000012   0.0000013   0.2030277   0.9472720
42.3765193   -0.9983481  -0.0812025   0.0009129   0.0054156   0.0000010  -0.0000008   0.2201222   0.9440599
42.8974639   -0.9983820  -0.0821795   0.0009349   0.0054743  -0.0000026   0.0000052   0.2373514   0.9404513
43.4248127   -0.9982077  -0.0833108   0.0009366   0.0055337   0.0000010  -0.0000060   0.2547651   0.9366341
43.9586443   -0.9981771  -0.0843253   0.0009313   0.0055953   0.0000045  -0.0000092   0.2723270   0.9323410
44.4990385   -0.9981133  -0.0852117   0.0009581   0.0056523  -0.0000060   0.0000010   0.2900678   0.9276746
45.0460758   -0.9980619  -0.0862726   0.0009557   0.0057274   0.0000030   0.0000042   0.3079234   0.9226692
45.5998380   -0.9978746  -0.0873065   0.0009798   0.0057935  -0.0000014  -0.0000026   0.3258964   0.9172927
46.1604077   -0.9979708  -0.0884279   0.0009899   0.0058646  -0.0000057  -0.0000096   0.3439905   0.9114112
46.7278686   -0.9979084  -0.0894173   0.0010036   0.0059216  -0.0000078  -0.0000061   0.3622095   0.9051561
47.3023055   -0.9978688  -0.0905371   0.0010205   0.0060063  -0.0000035   0.0000063   0.3805383   0.8984954
47.8838040   -0.9977664  -0.0915947   0.0010244   0.0060640   0.0000035  -0.0000116   0.3990787   0.8913030
48.4724511   -0.9977583  -0.0927083   0.0010459   0.0061521  -0.0000043   0.0000037   0.4175483   0.8837820
49.0683345   -0.9975716  -0.0937291   0.0010704   0.0062556  -0.0000065   0.0000016   0.4362200   0.8757527
49.6715433   -0.9975060  -0.0948910   0.0010739   0.0063126  -0.0000056  -0.0000091   0.4548566   0.8672616
50.2821675   -0.9973840  -0.0960599   0.0011087   0.0063976  -0.0000049  -0.0000026   0.4737366   0.8581977
50.9002982   -0.9972253  -0.0972021   0.0011440   0.0064778  -0.0000001  -0.0000023   0.4925113   0.8486204
51.5260277   -0.9972798  -0.0983081   0.0011544   0.0065303   0.0000016  -0.0000145   0.5114078   0.8386844
52.1594495   -0.9971734  -0.0995626   0.0011390   0.0066093   0.0000007  -0.0000111   0.5302185   0.8281260
52.8006581   -0.9971066  -0.1007177   0.0011626   0.0066828   0.0000019  -0.0000070   0.5491565   0.8169084
53.4497492   -0.9970054  -0.1019277   0.0011758   0.0067584   0.0000038  -0.0000035   0.5682259   0.8053365
54.1068198   -0.9968714  -0.1031808   0.0011857   0.0068689   0.0000014  -0.0000070   0.5870810   0.7931806
54.7719678   -0.9967590  -0.1044313   0.0012143   0.0069429  -0.0000080  -0.0000108   0.6059003   0.7804755
55.4452927   -0.9966681  -0.1056343   0.0012336   0.0070276  -0.0000031   0.0000036   0.6248029   0.7668483
56.1268950   -0.9966090  -0.1070070   0.0012555   0.0070959  -0.0000012  -0.0000006   0.6436129   0.7528409
56.8168763   -0.9965136  -0.1082250   0.0012579   0.0071762  -0.0000113  -0.0000002   0.6623330   0.7382715
57.5153398   -0.9963692  -0.1094888   0.0013027   0.0072650  -0.0000006  -0.0000099   0.6809259   0.7230836
58.2223896   -0.9962072  -0.1108125   0.0013242   0.0073270   0.0000062  -0.0000063   0.6993919   0.7071741
58.9381314   -0.9960911  -0.1122329   0.0013173   0.0074345   0.0000077  -0.0000018   0.7177304   0.6906869
59.6626719   -0.9960079  -0.1135007   0.0013417   0.0075162   0.0000018  -0.0000044   0.7358872   0.6734457
60.3961194   -0.9958503  -0.1149663   0.0013448   0.0076065  -0.0000076  -0.0000076   0.7539451   0.6555725
61.1385834   -0.9957983  -0.1162949   0.0013748   0.0077116   0.0000077  -0.0000151   0.7717916   0.6369847
61.8901746   -0.9955843  -0.1176741   0.0013823   0.0078116  -0.0000007  -0.0000055   0.7892939   0.6177425
62.6510053   -0.9955247  -0.1190666   0.0013939   0.0079000  -0.0000042  -0.0000129   0.8065969   0.5978861
63.4211891   -0.9953171  -0.1204575   0.0014315   0.0080067  -0.0000005   0.0000010   0.8236544   0.5771804
64.2008409   -0.9953189  -0.1219010   0.0014125   0.0080994  -0.0000013  -0.0000071   0.8403290   0.5559154
64.9900772   -0.9950690  -0.1234492   0.0014593   0.0082067   0.0000060  -0.0000039   0.8567017   0.5338548
65.7890158   -0.9948582  -0.1246972   0.0014777   0.0083462   0.0000066  -0.0000067   0.8726612   0.5111127
66.5977759   -0.9947553  -0.1264234   0.0015062   0.0084526  -0.0000110   0.0000004   0.8881822   0.4875516
67.4164783   -0.9946057  -0.1278511   0.0015624   0.0085483   0.0000024  -0.0000098   0.9034119   0.4632958
68.2452452   -0.9943952  -0.1293320   0.0015795   0.0086801  -0.0000016  -0.0000030   0.9180764   0.4384124
69.0842003   -0.9942164  -0.1308735   0.0016343   0.0087720  -0.0000021  -0.0000152   0.9322427   0.4127304
69.9334689   -0.9940261  -0.1324434   0.0016569   0.0088874  -0.0000106  -0.0000085   0.9455765   0.3863505
70.7931778   -0.9937507  -0.1342661   0.0017159   0.0089590   0.0000082  -0.0000021   0.9591080   0.3591561
71.6634552   -0.9935502  -0.1358505   0.0017094   0.0090645  -0.0000035  -0.0000070   0.9716677   0.3310241
72.5444312   -0.9933612  -0.1374325   0.0017499   0.0092089   0.0000123   0.0000005   0.9836817   0.3023485
73.4362373   -0.9932914  -0.1390953   0.0017207   0.0092960  -0.0000012  -0.0000107   0.9948434   0.2729349
74.3390065   -0.9932228  -0.1405396   0.0017752   0.0094495   0.0000080  -0.0000129   1.0046945   0.2431284
75.2528737   -0.9927924  -0.1424181   0.0018429   0.0095545  -0.0000040  -0.0000102   1.0143737   0.2123149
76.1779753   -0.9926622  -0.1439733   0.0018473   0.0097053  -0.0000051  -0.0000124   1.0232854   0.1808396
77.1144493   -0.9924462  -0.1457479   0.0019154   0.0098295  -0.0000026  -0.0000045   1.0313023   0.1486103
78.0624357   -0.9921146  -0.1473796   0.0019495   0.0099536  -0.0000029  -0.0000080   1.0384154   0.1157628
79.0220759   -0.9919786  -0.1492425   0.0020035   0.0101133   0.0000002  -0.0000036   1.0445212   0.0821697
79.9935132   -0.9916123  -0.1510643   0.0020859   0.0102292   0.0000041  -0.0000131   1.0496229   0.0480313
80.9768926   -0.9914832  -0.1528488   0.0021326   0.0103727  -0.0000064  -0.0000116   1.0537186   0.0132410
81.9723609   -0.9912129  -0.1547147   0.0022043   0.0104711   0.0000053  -0.0000071   1.0567157  -0.0222640
82.9800667   -0.9908938  -0.1564889   0.0022727   0.0105874  -0.0000016  -0.0000180   1.0586042  -0.0582525
84.0001605   -0.9906511  -0.1583358   0.0022892   0.0106988   0.0000053  -0.0000160   1.0593000  -0.0947391
85.0327946   -0.9903390  -0.1602157   0.0023454   0.0108277   0.0000022  -0.0000081   1.0586965  -0.1319093
86.0781231   -0.9901840  -0.1622055   0.0023898   0.0109761   0.0000029  -0.0000101   1.0568105  -0.1694968
87.1363020   -0.9896973  -0.1641997   0.0024399   0.0111005   0.0000048  -0.0000041   1.0536046  -0.2074041
88.2074894   -0.9894378  -0.1661073   0.0025204   0.0112626  -0.0000051  -0.0000155   1.0489040  -0.2458368
89.2918452   -0.9891877  -0.1680739   0.0026078   0.0114347  -0.0000005  -0.0000021   1.0430306  -0.2849234
90.3895312   -0.9888435  -0.1700152   0.0027113   0.0114993  -0.0000024  -0.0000180   1.0355088  -0.3237174
91.5007114   -0.9885539  -0.1721258   0.0027269   0.0116363  -0.0000084  -0.0000163   1.0264270  -0.3630294
92.6255515   -0.9881909  -0.1741366   0.0027932   0.0117817  -0.0000034  -0.0000041   1.0155656  -0.4024850
93.7642195   -0.9879599  -0.1762710   0.0028536   0.0118901  -0.0000052  -0.0000188   1.0031624  -0.4420937
94.9168855   -0.9875980  -0.1782949   0.0029495   0.0120289  -0.0000125  -0.0000104   0.9892346  -0.4818269
96.0837215   -0.9871802  -0.1803954   0.0030071   0.0121460  -0.0000039  -0.0000178   0.9734644  -0.5215695
97.2649017   -0.9868224  -0.1825413   0.0030676   0.0122629  -0.0000004  -0.0000104   0.9559370  -0.5609835
98.4606024   -0.9864797  -0.1846834   0.0031188   0.0124154  -0.0000038  -0.0000064   0.9365502  -0.6005025
99.6710021   -0.9861024  -0.1868546   0.0031869   0.0125305  -0.0000145  -0.0000062   0.9153443  -0.6396754
100.8962816  -0.9856521  -0.1891211   0.0032516   0.0126645  -0.0000102  -0.0000124   0.8922365  -0.6784421
102.1366237  -0.9852284  -0.1913766   0.0032917   0.0128146   0.0000052  -0.0000179   0.8671283  -0.7166929
103.3922136  -0.9847690  -0.1936679   0.0033587   0.0129538  -0.0000096  -0.0000112   0.8401955  -0.7544722
104.6632389  -0.9842141  -0.1959538   0.0034420   0.0130990  -0.0000105  -0.0000055   0.8113415  -0.7912682
105.9498891  -0.9833442  -0.1981983   0.0033849   0.0131647  -0.0000069  -0.0000089   0.7803574  -0.8250929
107.2523564  -0.9839979  -0.2004000   0.0036019   0.0134153  -0.0000016  -0.0000085   0.7458400  -0.8653272
108.5708353  -0.9834757  -0.2028860   0.0036251   0.0136063  -0.0000106  -0.0000041   0.7121824  -0.8993932
109.9055225  -0.9813132  -0.2056053   0.0035898   0.0136611   0.0000076  -0.0000064   0.6774515  -0.9319120
111.2566174  -0.9819414  -0.2077249   0.0036513   0.0139280  -0.0000017  -0.0000120   0.6366632  -0.9623526
112.6243216  -0.9814924  -0.2100952   0.0038005   0.0141442   0.0000017  -0.0000150   0.5956314  -0.9930429
114.0088393  -0.9810221  -0.2126483   0.0038951   0.0143059  -0.0000127  -0.0000032   0.5528684  -1.0220177
115.4103773  -0.9805804  -0.2153624   0.0040022   0.0144668  -0.0000076  -0.0000214   0.5080600  -1.0493846
116.8291446  -0.9800306  -0.2176696   0.0040836   0.0146462   0.0000125  -0.0000049   0.4616156  -1.0748125
118.2653533  -0.9794804  -0.2201933   0.0041909   0.0148366  -0.0000004  -0.0000118   0.4131618  -1.0983546
119.7192175  -0.9788123  -0.2228538   0.0042905   0.0149899  -0.0000147  -0.0000006   0.3630310  -1.1198741
121.1909545  -0.9783098  -0.2254577   0.0043874   0.0151040  -0.0000096  -0.0000137   0.3112472  -1.1389094
122.6807839  -0.9777860  -0.2282217   0.0044606   0.0152835  -0.0000186  -0.0000183   0.2578829  -1.1556283
124.1889281  -0.9771566  -0.2308477   0.0045696   0.0154353   0.0000025  -0.0000021   0.2030196  -1.1697805
125.7156123  -0.9764258  -0.2334567   0.0046171   0.0155943  -0.0000108  -0.0000053   0.1468018  -1.1813263
127.2610644  -0.9759150  -0.2360825   0.0046916   0.0157644  -0.0000061  -0.0000096   0.0899457  -1.1898236
128.8255151  -0.9751912  -0.2390377   0.0047520   0.0159576  -0.0000125  -0.0000101   0.0310541  -1.1954536
130.4091980  -0.9744501  -0.2417068   0.0047787   0.0161586  -0.0000132  -0.0000125  -0.0282397  -1.1979713
132.0123495  -0.9737462  -0.2444351   0.0048332   0.0164162  -0.0000062  -0.0000027  -0.0885005  -1.1971293
133.6352088  -0.9730217  -0.2474029   0.0048744   0.0166598  -0.0000239  -0.0000059  -0.1491135  -1.1931309
135.2780184  -0.9723916  -0.2503836   0.0049842   0.0169716  -0.0000031  -0.0000057  -0.2103454  -1.1854267
136.9410235  -0.9714567  -0.2532353   0.0050543   0.0172967  -0.0000093  -0.0000137  -0.2717939  -1.1740384
138.6244722  -0.9706912  -0.2562023   0.0052294   0.0175839  -0.0000096  -0.0000023  -0.3330388  -1.1591738
140.3286160  -0.9700104  -0.2591566   0.0053557   0.0179147  -0.0000127  -0.0000127  -0.3943408  -1.1406394
142.0537093  -0.9689722  -0.2620314   0.0056465   0.0183083  -0.0000183  -0.0000196  -0.4577303  -1.1193078
143.8000095  -0.9682381  -0.2650612   0.0058756   0.0185339  -0.0000058   0.0000000  -0.5114804  -1.0920313
145.5677774  -0.9674290  -0.2684285   0.0061669   0.0187959   0.0000058  -0.0000122  -0.5686752  -1.0596310
147.3572769  -0.9665462  -0.2714417   0.0064742   0.0189439  -0.0000021  -0.0000169  -0.6296031  -1.0274029
149.1687752  -0.9657254  -0.2744975   0.0067092   0.0191450   0.0000015  -0.0000091  -0.6842854  -0.9897038
151.0025426  -0.9646785  -0.2775708   0.0069504   0.0192547  -0.0000053  -0.0000193  -0.7376444  -0.9478988
152.8588530  -0.9639786  -0.2809612   0.0071356   0.0194535  -0.0000013  -0.0000092  -0.7884430  -0.9023780
154.7379834  -0.9629147  -0.2841584   0.0073747   0.0196264  -0.0000086  -0.0000110  -0.8368112  -0.8532143
156.6402144  -0.9619510  -0.2874341   0.0075665   0.0198155  -0.0000084  -0.0000061  -0.8822036  -0.8005717
158.5658301  -0.9609466  -0.2907601   0.0077654   0.0199578  -0.0000037   0.0000147  -0.9241073  -0.7445390
160.5151177  -0.9598921  -0.2940726   0.0079974   0.0201139   0.0000014  -0.0000065  -0.9630209  -0.6849737
162.4883685  -0.9589294  -0.2976323   0.0081739   0.0203367   0.0000013  -0.0000028  -0.9967976  -0.6237559
164.4858769  -0.9575800  -0.3007879   0.0083800   0.0205611   0.0000046  -0.0000033  -1.0278789  -0.5582318
166.5079411  -0.9563598  -0.3041964   0.0085747   0.0207122  -0.0000070  -0.0000102  -1.0539276  -0.4910024
168.5548630  -0.9552924  -0.3077559   0.0088051   0.0208820  -0.0000107   0.0000016  -1.0755896  -0.4214285
170.6269483  -0.9541814  -0.3111579   0.0090078   0.0210768  -0.0000006  -0.0000172  -1.0920161  -0.3500769
172.7245062  -0.9529317  -0.3148157   0.0091796   0.0212861   0.0000046  -0.0000030  -1.1035268  -0.2774294
174.8478498  -0.9517392  -0.3184594   0.0093761   0.0215149   0.0000061  -0.0000036  -1.1094082  -0.2032648
176.9972963  -0.9505690  -0.3219850   0.0096158   0.0216960   0.0000235  -0.0000062  -1.1102204  -0.1277967
179.1731664  -0.9499194  -0.3284991   0.0098655   0.0221371  -0.0000187  -0.0000088  -1.1019377  -0.0580540
181.3757850  -0.9487485  -0.3291747   0.0099310   0.0222285  -0.0000020  -0.0000058  -1.0923748   0.0172629
183.6054809  -0.9465277  -0.3332210   0.0103248   0.0223944  -0.0000115  -0.0000014  -1.0773858   0.0954521
185.8625870  -0.9451372  -0.3367295   0.0104895   0.0225797  -0.0000271  -0.0000083  -1.0548059   0.1676861
188.1474402  -0.9440022  -0.3406547   0.0107329   0.0227962  -0.0000045  -0.0000041  -1.0266452   0.2388777
190.4603817  -0.9422298  -0.3446338   0.0109221   0.0230830  -0.0000241  -0.0000166  -0.9928692   0.3077410
192.8017567  -0.9407335  -0.3484285   0.0112123   0.0232695   0.0000113  -0.0000080  -0.9528826   0.3737659
195.1719148  -0.9391405  -0.3523092   0.0114693   0.0235918  -0.0000411   0.0000164  -0.9079903   0.4365081
197.5712099  -0.9378632  -0.3558528   0.0117243   0.0238501   0.0000064  -0.0000064  -0.8584258   0.4960860
200.0000000  -0.9360526  -0.3604203   0.0119873   0.0242406  -0.0000129  -0.0000066  -0.8026131   0.5505821
