! ListType=Log
# MHZ S RI R 50
0.0010000    -0.9994497   0.0002230   0.0000710   0.0000228  -0.0000115  -0.0000299  -0.9088780   0.2599563
0.0010123    -1.0004580  -0.0001182  -0.0000056  -0.0000239   0.0000121  -0.0000287  -0.9094622   0.2603417
0.0010247    -0.9979846  -0.0001293   0.0001333  -0.0000248  -0.0000157   0.0000266  -0.9095897   0.2591301
0.0010373    -0.9995142  -0.0001135   0.0000723  -0.0000373  -0.0000085  -0.0000056  -0.9097936   0.2598523
0.0010501    -0.9991595   0.0012255   0.0000365   0.0000579  -0.0000136  -0.0000118  -0.9091506   0.2596915
0.0010630    -1.0002563  -0.0002042   0.0000387  -0.0000317   0.0000229   0.0000125  -0.9105505   0.2595735
0.0010761    -0.9985538  -0.0005306   0.0000833   0.0000025  -0.0000149   0.0000095  -0.9107037   0.2587981
0.0010893    -1.0007875  -0.0000579  -0.0000126   0.0000135   0.0000198  -0.0000037  -0.9110865   0.2599258
0.0011027    -0.9991968   0.0000536   0.0000638   0.0000289   0.0000030  -0.0000187  -0.9110775   0.2587990
0.0011162    -0.9986104  -0.0007901   0.0000953  -0.0000646  -0.0000056   0.0000030  -0.9120701   0.2584382
0.0011300    -0.9990142   0.0004690   0.0000742   0.0000315  -0.0000259  -0.0000173  -0.9112969   0.2587179
0.0011439    -0.9998660  -0.0000351   0.0000288  -0.0000805   0.0000190  -0.0000020  -0.9120502   0.2590832
0.0011579    -0.9982096  -0.0000866   0.0001069   0.0000181  -0.0000080   0.0000011  -0.9120575   0.2578675
0.0011721    -0.9993521   0.0000436   0.0000267  -0.0000114   0.0000114  -0.0000118  -0.9124015   0.2585311
0.0011866    -0.9985850   0.0008798   0.0000875   0.0000389  -0.0000454  -0.0000152  -0.9122040   0.2582435
0.0012011    -0.9996121   0.0000379   0.0000263   0.0000059  -0.0000151   0.0000003  -0.9128818   0.2582597
0.0012159    -1.0002746  -0.0005878   0.0000203  -0.0000216   0.0000208   0.0000031  -0.9136437   0.2584854
0.0012309    -0.9990097  -0.0000878   0.0000934  -0.0000199   0.0000094   0.0000109  -0.9137401   0.2577885
0.0012460    -0.9991128   0.0009029   0.0000388   0.0000485  -0.0000062  -0.0000060  -0.9134154   0.2581256
0.0012613    -0.9997247  -0.0006715   0.0000540  -0.0000401   0.0000269  -0.0000021  -0.9147353   0.2579363
0.0012768    -0.9986193   0.0002271   0.0001081   0.0000334  -0.0000207   0.0000053  -0.9141770   0.2576231
0.0012925    -1.0003888  -0.0004146   0.0000123  -0.0000264   0.0000140   0.0000076  -0.9151106   0.2580592
0.0013084    -0.9989176   0.0001510   0.0000687   0.0000153  -0.0000049   0.0000097  -0.9149123   0.2575421
0.0013245    -0.9999018  -0.0005134   0.0000317  -0.0000180   0.0000181  -0.0000016  -0.9155488   0.2580240
0.0013408    -0.9991533   0.0001105   0.0000729   0.0000246   0.0000024  -0.0000096  -0.9153819   0.2572752
0.0013572    -1.0000318  -0.0004906   0.0000452  -0.0000532   0.0000187   0.0000077  -0.9163567   0.2576933
0.0013739    -0.9991260   0.0002785   0.0000519   0.0000056   0.0000133   0.0000164  -0.9162218   0.2575399
0.0013908    -0.9994506  -0.0010694   0.0000650  -0.0000261   0.0000136   0.0000045  -0.9169530   0.2576089
0.0014079    -0.9993642   0.0004554   0.0000673   0.0000287  -0.0000214  -0.0000005  -0.9167295   0.2573538
0.0014252    -0.9991444  -0.0009255   0.0000408  -0.0000654   0.0000186   0.0000247  -0.9176592   0.2572531
0.0014427    -0.9993000   0.0004057   0.0000688   0.0000477  -0.0000097  -0.0000156  -0.9173659   0.2571991
0.0014605    -0.9995944  -0.0007048   0.0000189  -0.0000386   0.0000009  -0.0000180  -0.9180822   0.2573986
0.0014784    -0.9989142   0.0004194   0.0000495  -0.0000220  -0.0000049   0.0000082  -0.9178605   0.2569127
0.0014966    -0.9997119   0.0004985   0.0000488   0.0000257   0.0000002  -0.0000287  -0.9186111   0.2574162
0.0015150    -0.9990728  -0.0006892   0.0000705  -0.0000245   0.0000270   0.0000241  -0.9189818   0.2573396
0.0015336    -0.9989661   0.0001990   0.0000754  -0.0000067  -0.0000074  -0.0000028  -0.9190102   0.2570696
0.0015525    -0.9993741   0.0008916   0.0000718   0.0000231  -0.0000076  -0.0000167  -0.9190290   0.2573496
0.0015716    -0.9990066  -0.0001947   0.0000482   0.0000103   0.0000126  -0.0000211  -0.9196280   0.2571869
0.0015909    -0.9997639   0.0000949   0.0000663   0.0000154   0.0000100  -0.0000345  -0.9199847   0.2575694
0.0016104    -0.9988015  -0.0002026   0.0000300  -0.0000150  -0.0000243   0.0000094  -0.9203199   0.2569523
0.0016302    -0.9997624   0.0005952   0.0000434   0.0000099   0.0000135  -0.0000063  -0.9203642   0.2573044
0.0016503    -0.9994658  -0.0003943   0.0000223  -0.0000072   0.0000088  -0.0000100  -0.9213751   0.2574882
0.0016706    -0.9994348  -0.0000644   0.0000902  -0.0000252   0.0000033  -0.0000045  -0.9211996   0.2574022
0.0016911    -0.9988500  -0.0005760   0.0000787   0.0000199  -0.0000210  -0.0000159  -0.9218180   0.2570958
0.0017119    -0.9993043   0.0002253   0.0000347   0.0000257  -0.0000161  -0.0000298  -0.9218589   0.2574357
0.0017329    -0.9991124  -0.0006456   0.0000653  -0.0000222  -0.0000031   0.0000134  -0.9220861   0.2573962
0.0017542    -0.9989106  -0.0007974   0.0000785  -0.0000249   0.0000071   0.0000175  -0.9225671   0.2571541
0.0017758    -0.9996597  -0.0000886   0.0000298  -0.0000294  -0.0000018  -0.0000029  -0.9227763   0.2574617
0.0017976    -0.9991503  -0.0001493   0.0000497  -0.0000222   0.0000059  -0.0000063  -0.9233452   0.2574793
0.0018197    -0.9988086   0.0001544   0.0000755  -0.0000121  -0.0000150  -0.0000040  -0.9231438   0.2573279
0.0018421    -0.9993099  -0.0002059   0.0000392  -0.0000174   0.0000151  -0.0000070  -0.9238326   0.2577191
0.0018648    -0.9990554   0.0000017   0.0000780  -0.0000160  -0.0000028   0.0000040  -0.9239003   0.2574820
0.0018877    -0.9993262   0.0005395   0.0000434   0.0000095  -0.0000105  -0.0000158  -0.9239804   0.2577066
0.0019109    -0.9990154  -0.0005283   0.0000588   0.0000037  -0.0000036   0.0000066  -0.9248491   0.2579357
0.0019344    -0.9989761  -0.0000920   0.0000522  -0.0000158  -0.0000050  -0.0000064  -0.9247153   0.2577397
0.0019582    -0.9992219   0.0004392   0.0000504   0.0000064   0.0000018  -0.0000051  -0.9248236   0.2579512
0.0019822    -0.9996753  -0.0001596   0.0000441  -0.0000664   0.0000061   0.0000007  -0.9256894   0.2580907
0.0020066    -0.9993028   0.0000213   0.0000472  -0.0000084   0.0000030   0.0000010  -0.9257598   0.2582423
0.0020313    -0.9992774  -0.0003113   0.0000587   0.0000014   0.0000072   0.0000076  -0.9261621   0.2581689
0.0020562    -0.9989647  -0.0004559   0.0000623  -0.0000072  -0.0000161  -0.0000018  -0.9265384   0.2580705
0.0020815    -0.9992541   0.0002218   0.0000472   0.0000279   0.0000003  -0.0000015  -0.9265952   0.2584793
0.0021071    -0.9991793   0.0000350   0.0000645   0.0000114  -0.0000104  -0.0000033  -0.9270215   0.2585237
0.0021330    -0.9994948   0.0001926   0.0000443   0.0000104  -0.0000010  -0.0000229  -0.9272019   0.2587586
0.0021592    -0.9995468  -0.0000321   0.0000307  -0.0000137  -0.0000025  -0.0000190  -0.9277383   0.2588852
0.0021858    -0.9990121  -0.0005987   0.0000422  -0.0000027  -0.0000026  -0.0000044  -0.9279115   0.2586740
0.0022126    -0.9995038  -0.0000750   0.0000289   0.0000031  -0.0000054  -0.0000144  -0.9280733   0.2590422
0.0022398    -0.9992669  -0.0000102   0.0000637  -0.0000182  -0.0000122   0.0000062  -0.9283379   0.2590142
0.0022674    -0.9995139   0.0000319   0.0000504   0.0000270   0.0000047  -0.0000181  -0.9287816   0.2593020
0.0022953    -0.9995627  -0.0002585   0.0000382  -0.0000081   0.0000060  -0.0000025  -0.9290308   0.2594769
0.0023235    -0.9991535  -0.0006199   0.0000526  -0.0000196  -0.0000061  -0.0000002  -0.9294341   0.2594680
0.0023520    -0.9992987   0.0003031   0.0000571  -0.0000120  -0.0000078  -0.0000054  -0.9292532   0.2594361
0.0023809    -0.9994191  -0.0001624   0.0000498  -0.0000244  -0.0000079   0.0000077  -0.9299422   0.2596373
0.0024102    -0.9993382   0.0000400   0.0000661   0.0000265   0.0000131   0.0000064  -0.9298942   0.2598229
0.0024398    -0.9991689  -0.0000508   0.0000825   0.0000045   0.0000033   0.0000032  -0.9303333   0.2599209
0.0024698    -0.9994252  -0.0000360   0.0000381   0.0000119   0.0000079  -0.0000170  -0.9305707   0.2602177
0.0025002    -0.9994705   0.0001051   0.0000427   0.0000134  -0.0000013  -0.0000042  -0.9307198   0.2603729
0.0025309    -0.9996936  -0.0000355   0.0000531  -0.0000033  -0.0000087  -0.0000112  -0.9309336   0.2606611
0.0025621    -0.9997293  -0.0001917   0.0000478  -0.0000211   0.0000070  -0.0000087  -0.9313972   0.2606534
0.0025935    -0.9994678  -0.0004835   0.0000598  -0.0000218  -0.0000057  -0.0000035  -0.9316742   0.2605261
0.0026254    -0.9990568  -0.0002687   0.0000723   0.0000032  -0.0000042  -0.0000026  -0.9317934   0.2605545
0.0026577    -0.9990706   0.0003510   0.0000503   0.0000045  -0.0000107  -0.0000105  -0.9319015   0.2609742
0.0026904    -0.9995731  -0.0000467   0.0000454  -0.0000025  -0.0000128  -0.0000062  -0.9320964   0.2613407
0.0027235    -0.9994120  -0.0004268   0.0000327  -0.0000248  -0.0000013  -0.0000137  -0.9327563   0.2611832
0.0027569    -0.9989785   0.0002081   0.0000687   0.0000040  -0.0000088  -0.0000033  -0.9327095   0.2612955
0.0027908    -0.9994845   0.0002340   0.0000525   0.0000006   0.0000059  -0.0000083  -0.9327881   0.2617246
0.0028251    -0.9995028  -0.0002251   0.0000466   0.0000043   0.0000069   0.0000018  -0.9332618   0.2618815
0.0028599    -0.9992635  -0.0003249   0.0000429  -0.0000125  -0.0000022   0.0000010  -0.9334185   0.2618729
0.0028950    -0.9989243   0.0000165   0.0000845  -0.0000032   0.0000031   0.0000025  -0.9336124   0.2618484
0.0029306    -0.9990658   0.0001151   0.0000528  -0.0000001  -0.0000042  -0.0000190  -0.9337557   0.2620064
0.0029666    -0.9990334   0.0000081   0.0000562  -0.0000075   0.0000131  -0.0000065  -0.9339990   0.2622600
0.0030031    -0.9992249   0.0000134   0.0000601  -0.0000171  -0.0000049   0.0000133  -0.9341076   0.2625548
0.0030400    -0.9993658  -0.0000980   0.0000512   0.0000142  -0.0000027  -0.0000165  -0.9343379   0.2628196
0.0030774    -0.9992389  -0.0000012   0.0000402   0.0000144  -0.0000097  -0.0000045  -0.9345217   0.2629743
0.0031152    -0.9992443  -0.0001781   0.0000563  -0.0000347   0.0000102   0.0000018  -0.9348862   0.2629809
0.0031535    -0.9993750   0.0000567   0.0000483   0.0000021  -0.0000035  -0.0000120  -0.9349260   0.2633534
0.0031923    -0.9994956  -0.0001722   0.0000495  -0.0000176   0.0000126  -0.0000124  -0.9353236   0.2634966
0.0032315    -0.9993217  -0.0004087   0.0000429   0.0000029  -0.0000004  -0.0000064  -0.9355121   0.2636469
0.0032713    -0.9993413  -0.0003482   0.0000671  -0.0000047   0.0000023  -0.0000089  -0.9356770   0.2636865
0.0033115    -0.9993479  -0.0001585   0.0000203   0.0000002   0.0000084  -0.0000006  -0.9357024   0.2639999
0.0033522    -0.9992203  -0.0000308   0.0000297  -0.0000143  -0.0000109  -0.0000057  -0.9360229   0.2644064
0.0033934    -0.9992800  -0.0002640   0.0000356   0.0000056   0.0000014   0.0000021  -0.9362628   0.2642656
0.0034351    -0.9991082  -0.0003386   0.0000372   0.0000052  -0.0000013   0.0000084  -0.9364516   0.2645556
0.0034773    -0.9992604   0.0000844   0.0000497   0.0000060   0.0000084  -0.0000086  -0.9364323   0.2647053
0.0035201    -0.9993562  -0.0001911   0.0000424   0.0000061   0.0000056  -0.0000029  -0.9367876   0.2648143
0.0035634    -0.9991152   0.0000960   0.0000355   0.0000093   0.0000070  -0.0000048  -0.9368663   0.2649771
0.0036072    -0.9992519  -0.0000822   0.0000516  -0.0000124  -0.0000008  -0.0000046  -0.9369396   0.2652301
0.0036515    -0.9990925   0.0000799   0.0000672   0.0000146  -0.0000051   0.0000044  -0.9372120   0.2655556
0.0036964    -0.9993652   0.0002046   0.0000557   0.0000129  -0.0000114   0.0000007  -0.9371598   0.2658447
0.0037418    -0.9992236   0.0000666   0.0000303   0.0000065   0.0000014  -0.0000077  -0.9373776   0.2659021
0.0037878    -0.9993307  -0.0000233   0.0000383   0.0000162   0.0000009  -0.0000191  -0.9374859   0.2660117
0.0038344    -0.9996316  -0.0001173   0.0000204   0.0000023   0.0000059  -0.0000063  -0.9376847   0.2663411
0.0038815    -0.9994213  -0.0001880   0.0000493  -0.0000096  -0.0000009   0.0000041  -0.9378065   0.2664228
0.0039293    -0.9990787  -0.0000127   0.0000437   0.0000058   0.0000049  -0.0000071  -0.9379777   0.2663981
0.0039776    -0.9993154  -0.0000629   0.0000335   0.0000160  -0.0000018  -0.0000120  -0.9381920   0.2668196
0.0040265    -0.9991469  -0.0001679   0.0000669  -0.0000095   0.0000000   0.0000014  -0.9383100   0.2667670
0.0040759    -0.9993313  -0.0000181   0.0000310  -0.0000041  -0.0000007   0.0000008  -0.9384242   0.2671272
0.0041261    -0.9992750  -0.0002377   0.0000560  -0.0000156   0.0000015  -0.0000048  -0.9385339   0.2672093
0.0041768    -0.9993133  -0.0000924   0.0000358  -0.0000139  -0.0000009   0.0000009  -0.9387328   0.2675105
0.0042281    -0.9992311  -0.0002999   0.0000525  -0.0000309   0.0000064  -0.0000054  -0.9388509   0.2677209
0.0042801    -0.9993511  -0.0000078   0.0000469  -0.0000035   0.0000041  -0.0000002  -0.9389324   0.2679158
0.0043327    -0.9994828  -0.0001818   0.0000467  -0.0000075  -0.0000035  -0.0000042  -0.9390299   0.2683019
0.0043860    -0.9992981  -0.0002520   0.0000644  -0.0000066  -0.0000025   0.0000091  -0.9392749   0.2683077
0.0044399    -0.9993164  -0.0002152   0.0000561  -0.0000193   0.0000007  -0.0000043  -0.9393379   0.2684832
0.0044945    -0.9991992  -0.0002302   0.0000628  -0.0000106  -0.0000065  -0.0000034  -0.9394909   0.2686169
0.0045497    -0.9993495   0.0000238   0.0000597  -0.0000070  -0.0000109  -0.0000034  -0.9394766   0.2688047
0.0046057    -0.9995273   0.0001339   0.0000427   0.0000080  -0.0000053   0.0000049  -0.9395575   0.2689400
0.0046623    -0.9994501   0.0001503   0.0000531   0.0000052   0.0000035  -0.0000071  -0.9395089   0.2692334
0.0047196    -0.9994302   0.0000587   0.0000397   0.0000049  -0.0000083  -0.0000009  -0.9398293   0.2694102
0.0047776    -0.9993521  -0.0001764   0.0000417  -0.0000055   0.0000065  -0.0000104  -0.9398891   0.2695281
0.0048363    -0.9996542   0.0000694   0.0000415   0.0000187   0.0000003  -0.0000094  -0.9399332   0.2697804
0.0048958    -0.9994274   0.0002032   0.0000492   0.0000025  -0.0000047  -0.0000137  -0.9400721   0.2700554
0.0049560    -0.9994387  -0.0002044   0.0000525  -0.0000071  -0.0000099  -0.0000067  -0.9402632   0.2701632
0.0050169    -0.9993700  -0.0000783   0.0000468  -0.0000073  -0.0000178   0.0000051  -0.9403351   0.2701639
0.0050786    -0.9994290  -0.0000250   0.0000469   0.0000023   0.0000062   0.0000011  -0.9403187   0.2703988
0.0051410    -0.9992173  -0.0000235   0.0000456  -0.0000132  -0.0000039  -0.0000105  -0.9404152   0.2706001
0.0052042    -0.9994018  -0.0002061   0.0000429  -0.0000222   0.0000035  -0.0000032  -0.9405021   0.2708001
0.0052682    -0.9993733  -0.0001967   0.0000677   0.0000093   0.0000060  -0.0000054  -0.9406327   0.2710467
0.0053330    -0.9994780  -0.0000351   0.0000399   0.0000010  -0.0000089  -0.0000088  -0.9406896   0.2711812
0.0053985    -0.9994808  -0.0001173   0.0000344  -0.0000124  -0.0000131  -0.0000073  -0.9407775   0.2713440
0.0054649    -0.9995997  -0.0001436   0.0000440  -0.0000015   0.0000164  -0.0000018  -0.9409076   0.2714998
0.0055321    -0.9994113  -0.0001091   0.0000539  -0.0000110  -0.0000015  -0.0000112  -0.9409565   0.2716945
0.0056001    -0.9993680  -0.0002167   0.0000377  -0.0000062   0.0000146   0.0000031  -0.9411138   0.2719386
0.0056689    -0.9994165  -0.0001638   0.0000446   0.0000153  -0.0000082  -0.0000200  -0.9411273   0.2720064
0.0057386    -0.9995784  -0.0000464   0.0000378   0.0000010   0.0000036  -0.0000155  -0.9411893   0.2721200
0.0058091    -0.9994163  -0.0000637   0.0000422  -0.0000050   0.0000022   0.0000047  -0.9411386   0.2723728
0.0058806    -0.9992887  -0.0001137   0.0000471   0.0000124  -0.0000013  -0.0000061  -0.9411190   0.2724188
0.0059529    -0.9993176  -0.0001000   0.0000496  -0.0000076  -0.0000054  -0.0000104  -0.9412062   0.2727041
0.0060260    -0.9994203  -0.0000007   0.0000562  -0.0000117  -0.0000053  -0.0000183  -0.9412507   0.2727098
0.0061001    -0.9994075  -0.0000774   0.0000357   0.0000069  -0.0000142  -0.0000055  -0.9413455   0.2729546
0.0061751    -0.9995021  -0.0000135   0.0000575   0.0000148   0.0000003   0.0000049  -0.9413314   0.2731470
0.0062510    -0.9995260  -0.0001537   0.0000566  -0.0000102  -0.0000030  -0.0000002  -0.9415101   0.2732916
0.0063279    -0.9993024  -0.0002498   0.0000554  -0.0000099  -0.0000043  -0.0000012  -0.9416430   0.2734560
0.0064056    -0.9993786  -0.0002145   0.0000762   0.0000019   0.0000044  -0.0000061  -0.9416371   0.2736081
0.0064844    -0.9993586  -0.0000618   0.0000524   0.0000112   0.0000000  -0.0000076  -0.9416977   0.2736701
0.0065641    -0.9992856   0.0000193   0.0000741  -0.0000104  -0.0000063  -0.0000193  -0.9415242   0.2737903
0.0066448    -0.9991142  -0.0000300   0.0000407  -0.0000027   0.0000005  -0.0000093  -0.9416728   0.2739591
0.0067265    -0.9991693  -0.0001539   0.0000572  -0.0000017  -0.0000082   0.0000041  -0.9417777   0.2741424
0.0068092    -0.9993493  -0.0000755   0.0000457  -0.0000128   0.0000036   0.0000010  -0.9418365   0.2743665
0.0068929    -0.9991701  -0.0002269   0.0000371   0.0000011   0.0000128  -0.0000086  -0.9418909   0.2744498
0.0069776    -0.9993492  -0.0002145   0.0000441  -0.0000263   0.0000024  -0.0000116  -0.9420478   0.2746782
0.0070634    -0.9993371  -0.0002538   0.0000386   0.0000079   0.0000023  -0.0000052  -0.9419420   0.2748400
0.0071502    -0.9994744   0.0000101   0.0000305  -0.0000067   0.0000031  -0.0000154  -0.9419125   0.2748555
0.0072381    -0.9992527  -0.0000228   0.0000473   0.0000107  -0.0000033  -0.0000122  -0.9418756   0.2750367
0.0073271    -0.9993312  -0.0001191   0.0000349   0.0000125  -0.0000089  -0.0000030  -0.9420109   0.2752536
0.0074172    -0.9992695  -0.0001963   0.0000575   0.0000148   0.0000121  -0.0000083  -0.9421284   0.2753567
0.0075084    -0.9993805  -0.0002159   0.0000519   0.0000079   0.0000064  -0.0000108  -0.9421577   0.2755385
0.0076007    -0.9994548  -0.0000845   0.0000340  -0.0000225   0.0000004  -0.0000116  -0.9421461   0.2756577
0.0076941    -0.9996026  -0.0000231   0.0000476  -0.0000135  -0.0000021   0.0000084  -0.9421786   0.2759126
0.0077887    -0.9994428  -0.0001574   0.0000581  -0.0000007   0.0000107  -0.0000020  -0.9421820   0.2759312
0.0078844    -0.9993483  -0.0001712   0.0000728  -0.0000124  -0.0000035  -0.0000018  -0.9422685   0.2760016
0.0079814    -0.9995072  -0.0000377   0.0000411   0.0000050   0.0000006  -0.0000059  -0.9422404   0.2762762
0.0080795    -0.9993544  -0.0001172   0.0000526  -0.0000086   0.0000058  -0.0000034  -0.9423989   0.2763341
0.0081788    -0.9994669  -0.0001776   0.0000515  -0.0000063  -0.0000045   0.0000043  -0.9422137   0.2765218
0.0082793    -0.9991939  -0.0000719   0.0000541  -0.0000087  -0.0000005  -0.0000093  -0.9423942   0.2765888
0.0083811    -0.9993813  -0.0000540   0.0000492   0.0000083  -0.0000037   0.0000070  -0.9423573   0.2767983
0.0084842    -0.9993939  -0.0000532   0.0000484   0.0000121  -0.0000016   0.0000005  -0.9423313   0.2768930
0.0085885    -0.9995651   0.0000134   0.0000397   0.0000030   0.0000015  -0.0000070  -0.9424398   0.2769427
0.0086940    -0.9993842  -0.0000604   0.0000434  -0.0000125   0.0000127  -0.0000141  -0.9423699   0.2771411
0.0088009    -0.9995409  -0.0001600   0.0000354  -0.0000150   0.0000002   0.0000062  -0.9423860   0.2772914
0.0089091    -0.9993829  -0.0001359   0.0000465   0.0000135   0.0000024  -0.0000112  -0.9423989   0.2774866
0.0090186    -0.9993390  -0.0000930   0.0000565  -0.0000089  -0.0000090  -0.0000046  -0.9424998   0.2774735
0.0091295    -0.9995473  -0.0001602   0.0000435  -0.0000121   0.0000055  -0.0000005  -0.9425199   0.2777457
0.0092417    -0.9993205   0.0000826   0.0000609   0.0000073   0.0000093  -0.0000054  -0.9424069   0.2777833
0.0093553    -0.9994115  -0.0001804   0.0000552   0.0000159   0.0000041  -0.0000095  -0.9424297   0.2779104
0.0094703    -0.9994405  -0.0000756   0.0000592  -0.0000046   0.0000006   0.0000108  -0.9425230   0.2779699
0.0095868    -0.9993272  -0.0000189   0.0000493   0.0000106  -0.0000033  -0.0000074  -0.9424579   0.2781670
0.0097046    -0.9994403  -0.0001221   0.0000489   0.0000028  -0.0000017   0.0000127  -0.9425030   0.2781965
0.0098239    -0.9993960  -0.0001119   0.0000371  -0.0000042  -0.0000008   0.0000001  -0.9425577   0.2783250
0.0099447    -0.9994007  -0.0000946   0.0000541   0.0000108  -0.0000004  -0.0000051  -0.9425478   0.2783615
0.0100669    -0.9994919  -0.0001628   0.0000361  -0.0000004  -0.0000093  -0.0000186  -0.9425242   0.2785836
0.0101907    -0.9993947  -0.0000740   0.0000258   0.0000086  -0.0000033  -0.0000092  -0.9425358   0.2786114
0.0103160    -0.9993101  -0.0001831   0.0000515  -0.0000035   0.0000116  -0.0000083  -0.9425019   0.2787091
0.0104428    -0.9995022   0.0000161   0.0000384  -0.0000020  -0.0000035   0.0000003  -0.9425838   0.2789201
0.0105712    -0.9993756  -0.0000116   0.0000452   0.0000231   0.0000088   0.0000015  -0.9425830   0.2789347
0.0107011    -0.9993417   0.0000010   0.0000442  -0.0000023   0.0000044  -0.0000051  -0.9426090   0.2791118
0.0108327    -0.9994449  -0.0001089   0.0000443   0.0000150   0.0000012  -0.0000062  -0.9425325   0.2791449
0.0109658    -0.9993818  -0.0002461   0.0000440  -0.0000091  -0.0000070  -0.0000045  -0.9426464   0.2792784
0.0111006    -0.9993381  -0.0000474   0.0000541  -0.0000088  -0.0000041  -0.0000068  -0.9426136   0.2795289
0.0112371    -0.9992371  -0.0000249   0.0000337   0.0000117  -0.0000054   0.0000003  -0.9426557   0.2794251
0.0113752    -0.9992556  -0.0001947   0.0000422   0.0000079  -0.0000107   0.0000007  -0.9425597   0.2795968
0.0115151    -0.9996763   0.0000881   0.0000273   0.0000098   0.0000003  -0.0000004  -0.9427017   0.2798539
0.0116566    -0.9992625  -0.0001908   0.0000571   0.0000108  -0.0000025  -0.0000093  -0.9425976   0.2797545
0.0117999    -0.9994627  -0.0000110   0.0000424  -0.0000033  -0.0000078  -0.0000039  -0.9426702   0.2800117
0.0119450    -0.9969458  -0.0030145   0.0000252  -0.0000046  -0.0000012   0.0000006  -0.9434624   0.2782170
0.0120918    -0.9993537   0.0000416   0.0000540  -0.0000014   0.0000006  -0.0000104  -0.9426943   0.2801527
0.0122405    -0.9993083  -0.0001569   0.0000554   0.0000055  -0.0000107   0.0000039  -0.9427471   0.2801706
0.0123910    -0.9994538  -0.0000410   0.0000501  -0.0000093  -0.0000042  -0.0000100  -0.9426088   0.2804391
0.0125433    -0.9993198  -0.0002494   0.0000430   0.0000018  -0.0000016   0.0000043  -0.9427097   0.2803775
0.0126975    -0.9994224   0.0000086   0.0000554  -0.0000262  -0.0000036  -0.0000023  -0.9425424   0.2804387
0.0128536    -0.9993908  -0.0000050   0.0000439   0.0000110   0.0000036  -0.0000033  -0.9426407   0.2806492
0.0130116    -0.9993683  -0.0001433   0.0000348   0.0000032   0.0000031   0.0000037  -0.9426215   0.2806846
0.0131716    -0.9993519  -0.0000887   0.0000419  -0.0000014  -0.0000045   0.0000010  -0.9426642   0.2806807
0.0133335    -0.9993667   0.0000350   0.0000491   0.0000148  -0.0000017  -0.0000095  -0.9425145   0.2809397
0.0134974    -0.9995002  -0.0000021   0.0000462   0.0000069   0.0000014  -0.0000020  -0.9425677   0.2809175
0.0136633    -0.9994176  -0.0000914   0.0000458   0.0000046   0.0000013  -0.0000062  -0.9426221   0.2811150
0.0138313    -0.9995374  -0.0000358   0.0000524   0.0000064  -0.0000014  -0.0000050  -0.9425397   0.2811490
0.0140013    -0.9993998  -0.0000585   0.0000528   0.0000050  -0.0000043  -0.0000027  -0.9426175   0.2812854
0.0141734    -0.9994222  -0.0000663   0.0000377  -0.0000042  -0.0000133  -0.0000052  -0.9426482   0.2814176
0.0143477    -0.9993873  -0.0000696   0.0000591   0.0000203   0.0000019  -0.0000050  -0.9426134   0.2813920
0.0145240    -0.9993296  -0.0001928   0.0000400   0.0000008   0.0000018   0.0000028  -0.9426510   0.2814696
0.0147026    -0.9993690  -0.0000990   0.0000365   0.0000262   0.0000098  -0.0000082  -0.9425887   0.2815431
0.0148833    -0.9994021  -0.0000252   0.0000518  -0.0000048  -0.0000038  -0.0000085  -0.9425701   0.2817147
0.0150663    -0.9995268  -0.0000975   0.0000482   0.0000146   0.0000025  -0.0000094  -0.9425500   0.2817628
0.0152515    -0.9993169  -0.0000903   0.0000345   0.0000060  -0.0000064  -0.0000097  -0.9425577   0.2819218
0.0154390    -0.9994103  -0.0000252   0.0000446   0.0000192  -0.0000151   0.0000062  -0.9425825   0.2819117
0.0156288    -0.9993617  -0.0000853   0.0000416   0.0000022  -0.0000092  -0.0000074  -0.9426634   0.2819290
0.0158209    -0.9994691  -0.0000379   0.0000372   0.0000039  -0.0000031  -0.0000088  -0.9425187   0.2819562
0.0160154    -0.9994298  -0.0001353   0.0000420   0.0000082   0.0000012  -0.0000067  -0.9425096   0.2821765
0.0162123    -0.9994701  -0.0000625   0.0000311  -0.0000032  -0.0000041  -0.0000005  -0.9424733   0.2823458
0.0164116    -0.9993727  -0.0000431   0.0000354   0.0000032   0.0000020  -0.0000133  -0.9425390   0.2823374
0.0166134    -0.9994356  -0.0000478   0.0000587   0.0000211   0.0000025   0.0000024  -0.9424725   0.2825105
0.0168176    -0.9993858  -0.0000968   0.0000430   0.0000116   0.0000023  -0.0000011  -0.9425681   0.2824212
0.0170243    -0.9994231   0.0000120   0.0000559  -0.0000058  -0.0000044  -0.0000021  -0.9425075   0.2825839
0.0172336    -0.9994653   0.0000201   0.0000360   0.0000015   0.0000039  -0.0000065  -0.9424701   0.2825693
0.0174455    -0.9993180  -0.0000505   0.0000337   0.0000035  -0.0000069   0.0000054  -0.9424511   0.2826684
0.0176599    -0.9994065  -0.0000885   0.0000540   0.0000180  -0.0000030  -0.0000096  -0.9424459   0.2827776
0.0178770    -0.9995281  -0.0001087   0.0000494   0.0000038  -0.0000056   0.0000042  -0.9424224   0.2829245
0.0180968    -0.9993304  -0.0000689   0.0000540   0.0000089  -0.0000086  -0.0000035  -0.9424302   0.2828374
0.0183193    -0.9994993  -0.0001829   0.0000534   0.0000012   0.0000087  -0.0000044  -0.9424509   0.2830002
0.0185445    -0.9992863  -0.0000228   0.0000597   0.0000033   0.0000103  -0.0000060  -0.9424455   0.2830423
0.0187724    -0.9993757  -0.0000707   0.0000577   0.0000107   0.0000036   0.0000011  -0.9423371   0.2830841
0.0190032    -0.9993730  -0.0000017   0.0000326  -0.0000012  -0.0000030  -0.0000051  -0.9424280   0.2831313
0.0192368    -0.9993436  -0.0001396   0.0000373   0.0000033   0.0000020   0.0000008  -0.9425254   0.2832695
0.0194733    -0.9994389  -0.0000856   0.0000519   0.0000111   0.0000098  -0.0000044  -0.9424154   0.2833488
0.0197127    -0.9995066  -0.0000878   0.0000345   0.0000025  -0.0000072  -0.0000149  -0.9423865   0.2834325
0.0199550    -0.9994015  -0.0001164   0.0000514  -0.0000101  -0.0000085  -0.0000115  -0.9424142   0.2834576
0.0202003    -0.9994055   0.0000474   0.0000628   0.0000155  -0.0000027  -0.0000121  -0.9424186   0.2834956
0.0204487    -0.9995083  -0.0000714   0.0000479  -0.0000044  -0.0000126  -0.0000027  -0.9423482   0.2836018
0.0207001    -0.9994176  -0.0000810   0.0000488   0.0000070  -0.0000050  -0.0000153  -0.9422820   0.2836091
0.0209545    -0.9994257   0.0000233   0.0000511   0.0000219  -0.0000042  -0.0000062  -0.9422991   0.2836966
0.0212121    -0.9993621  -0.0000986   0.0000375   0.0000026   0.0000013   0.0000014  -0.9422630   0.2838958
0.0214729    -0.9993993   0.0000059   0.0000493  -0.0000032  -0.0000082  -0.0000137  -0.9423046   0.2839225
0.0217369    -0.9993711  -0.0001090   0.0000546   0.0000098   0.0000177  -0.0000012  -0.9422967   0.2839207
0.0220041    -0.9994842  -0.0001810   0.0000253   0.0000095  -0.0000034  -0.0000052  -0.9423316   0.2839710
0.0222746    -0.9994504  -0.0000558   0.0000484   0.0000081   0.0000044  -0.0000094  -0.9421834   0.2840686
0.0225484    -0.9995081  -0.0000835   0.0000500   0.0000214  -0.0000069   0.0000029  -0.9421589   0.2840821
0.0228256    -0.9994559  -0.0000194   0.0000338   0.0000087  -0.0000015   0.0000000  -0.9422130   0.2841121
0.0231062    -0.9994091  -0.0000944   0.0000508   0.0000156  -0.0000071  -0.0000067  -0.9422103   0.2841453
0.0233902    -0.9994768  -0.0000125   0.0000459   0.0000115  -0.0000062   0.0000041  -0.9421501   0.2842650
0.0236778    -0.9994081  -0.0000481   0.0000481  -0.0000060   0.0000026  -0.0000065  -0.9421274   0.2843437
0.0239689    -1.0016238  -0.0006723   0.0000401  -0.0000063  -0.0000034  -0.0000028  -0.9431943   0.2849166
0.0242635    -0.9994231  -0.0000599   0.0000451   0.0000060   0.0000020  -0.0000015  -0.9421554   0.2844378
0.0245618    -0.9993844  -0.0000910   0.0000270   0.0000213  -0.0000175  -0.0000006  -0.9420997   0.2845678
0.0248637    -0.9994033  -0.0001069   0.0000552  -0.0000003  -0.0000010  -0.0000011  -0.9421057   0.2846436
0.0251694    -0.9994939  -0.0001387   0.0000487   0.0000140  -0.0000045  -0.0000092  -0.9421237   0.2846718
0.0254788    -0.9993368  -0.0000704   0.0000472   0.0000264  -0.0000051  -0.0000060  -0.9420106   0.2847303
0.0257920    -0.9993196  -0.0000810   0.0000490  -0.0000100   0.0000011  -0.0000116  -0.9420984   0.2848583
0.0261091    -0.9993871  -0.0001470   0.0000436   0.0000135   0.0000032  -0.0000093  -0.9419308   0.2848252
0.0264301    -0.9994183  -0.0000775   0.0000613   0.0000087   0.0000051  -0.0000114  -0.9420806   0.2849199
0.0267550    -0.9993452  -0.0001673   0.0000479  -0.0000076  -0.0000017   0.0000036  -0.9419236   0.2849455
0.0270839    -0.9994424  -0.0000545   0.0000555   0.0000192  -0.0000150  -0.0000070  -0.9420152   0.2849370
0.0274168    -0.9993601  -0.0001731   0.0000479   0.0000061  -0.0000071  -0.0000091  -0.9419723   0.2849874
0.0277539    -0.9994990  -0.0001588   0.0000380   0.0000105  -0.0000055  -0.0000124  -0.9418585   0.2850718
0.0280951    -0.9993148  -0.0001026   0.0000590   0.0000014  -0.0000084  -0.0000131  -0.9418695   0.2851680
0.0284404    -0.9994287  -0.0001278   0.0000289   0.0000073  -0.0000050  -0.0000027  -0.9418926   0.2852433
0.0287901    -0.9994913  -0.0000530   0.0000475   0.0000087  -0.0000104  -0.0000071  -0.9419360   0.2851845
0.0291440    -0.9994338  -0.0001137   0.0000430  -0.0000127   0.0000046  -0.0000088  -0.9418947   0.2853351
0.0295023    -0.9994454  -0.0001610   0.0000433  -0.0000017   0.0000158   0.0000033  -0.9418181   0.2853636
0.0298649    -0.9995194  -0.0001601   0.0000444   0.0000076   0.0000090  -0.0000008  -0.9418149   0.2853996
0.0302321    -0.9993198  -0.0002700   0.0000392  -0.0000106   0.0000043  -0.0000058  -0.9417208   0.2854923
0.0306037    -0.9993752  -0.0001230   0.0000615   0.0000230  -0.0000045  -0.0000008  -0.9417143   0.2855678
0.0309799    -0.9994183  -0.0001663   0.0000498  -0.0000083  -0.0000045   0.0000013  -0.9418265   0.2855831
0.0313608    -0.9995516  -0.0000914   0.0000429   0.0000090   0.0000041  -0.0000197  -0.9417779   0.2856653
0.0317463    -0.9994236  -0.0002315   0.0000473   0.0000301  -0.0000047   0.0000050  -0.9416988   0.2857371
0.0321366    -0.9994989  -0.0001142   0.0000631   0.0000044   0.0000041  -0.0000031  -0.9417880   0.2857474
0.0325316    -0.9993700  -0.0001882   0.0000398   0.0000180   0.0000030  -0.0000159  -0.9416747   0.2858300
0.0329316    -0.9993557  -0.0000697   0.0000374   0.0000198   0.0000071  -0.0000175  -0.9416642   0.2859160
0.0333364    -0.9995029  -0.0001853   0.0000572   0.0000116   0.0000033  -0.0000037  -0.9416956   0.2859965
0.0337462    -0.9994361  -0.0001652   0.0000407   0.0000023   0.0000003   0.0000066  -0.9415459   0.2858363
0.0341610    -0.9993925  -0.0000762   0.0000406   0.0000076   0.0000031  -0.0000018  -0.9415890   0.2860550
0.0345810    -0.9995199  -0.0000883   0.0000451   0.0000069   0.0000025  -0.0000054  -0.9415994   0.2860402
0.0350061    -0.9995053  -0.0001711   0.0000393   0.0000188   0.0000041   0.0000028  -0.9416480   0.2861025
0.0354365    -0.9994240  -0.0000517   0.0000552   0.0000003   0.0000008  -0.0000113  -0.9415532   0.2862356
0.0358721    -0.9994276  -0.0002317   0.0000387   0.0000197   0.0000027   0.0000040  -0.9415274   0.2861881
0.0363131    -0.9993951  -0.0001155   0.0000375   0.0000006  -0.0000035  -0.0000022  -0.9415787   0.2862180
0.0367595    -0.9994903  -0.0000690   0.0000399   0.0000069  -0.0000029  -0.0000134  -0.9414277   0.2863980
0.0372114    -0.9994797  -0.0001113   0.0000449   0.0000131   0.0000021  -0.0000147  -0.9414660   0.2864445
0.0376688    -0.9994236  -0.0001919   0.0000463   0.0000076  -0.0000015  -0.0000004  -0.9414265   0.2864517
0.0381319    -0.9994176  -0.0003156   0.0000429   0.0000145  -0.0000009  -0.0000148  -0.9414994   0.2864761
0.0386006    -0.9994408  -0.0001115   0.0000408   0.0000220  -0.0000001  -0.0000062  -0.9414738   0.2866139
0.0390752    -0.9994762  -0.0001640   0.0000598   0.0000221   0.0000058  -0.0000044  -0.9413666   0.2865701
0.0395555    -0.9994290  -0.0000722   0.0000403   0.0000013  -0.0000018  -0.0000008  -0.9413887   0.2866159
0.0400418    -0.9993937  -0.0002026   0.0000482   0.0000037  -0.0000059  -0.0000090  -0.9414225   0.2867169
0.0405340    -0.9994175  -0.0001373   0.0000567   0.0000096   0.0000032  -0.0000083  -0.9413678   0.2866962
0.0410323    -0.9994962  -0.0001542   0.0000398   0.0000249   0.0000113  -0.0000063  -0.9412536   0.2867964
0.0415368    -0.9993657  -0.0001122   0.0000374  -0.0000055  -0.0000101   0.0000046  -0.9413906   0.2868516
0.0420474    -0.9993806  -0.0000545   0.0000420   0.0000191  -0.0000032  -0.0000059  -0.9413047   0.2867908
0.0425643    -0.9994764  -0.0001122   0.0000547   0.0000177   0.0000041  -0.0000041  -0.9412317   0.2868349
0.0430875    -0.9994700  -0.0001928   0.0000483   0.0000196   0.0000041  -0.0000004  -0.9413051   0.2869693
0.0436172    -0.9994344  -0.0000929   0.0000494   0.0000159  -0.0000077  -0.0000074  -0.9412355   0.2870156
0.0441534    -0.9994485  -0.0002381   0.0000342  -0.0000005   0.0000004  -0.0000073  -0.9411886   0.2871031
0.0446962    -0.9993786  -0.0000731   0.0000411  -0.0000043  -0.0000045  -0.0000057  -0.9411981   0.2871376
0.0452457    -0.9995345  -0.0002410   0.0000467   0.0000136   0.0000028  -0.0000074  -0.9411458   0.2871384
0.0458019    -0.9993846  -0.0001004   0.0000364   0.0000100   0.0000017  -0.0000085  -0.9411226   0.2871739
0.0463649    -0.9993630  -0.0002006   0.0000493   0.0000028   0.0000098   0.0000013  -0.9410879   0.2872438
0.0469349    -0.9994053  -0.0002184   0.0000643   0.0000077  -0.0000076  -0.0000056  -0.9410962   0.2873527
0.0475119    -0.9994016  -0.0001797   0.0000425   0.0000143   0.0000017  -0.0000071  -0.9410704   0.2873649
0.0480960    -0.9993624  -0.0002343   0.0000558   0.0000103  -0.0000044  -0.0000019  -0.9409973   0.2874680
0.0486872    -0.9995199  -0.0001482   0.0000567   0.0000108  -0.0000129  -0.0000110  -0.9409651   0.2874875
0.0492857    -0.9994351  -0.0002338   0.0000492   0.0000070  -0.0000002  -0.0000042  -0.9409461   0.2875644
0.0498916    -0.9994295  -0.0001648   0.0000521   0.0000161  -0.0000045  -0.0000018  -0.9408737   0.2876173
0.0505050    -0.9994710  -0.0001213   0.0000556   0.0000060  -0.0000103  -0.0000166  -0.9409469   0.2876108
0.0511258    -0.9993938  -0.0002399   0.0000452   0.0000101  -0.0000017  -0.0000074  -0.9409396   0.2877756
0.0517543    -0.9995330  -0.0002581   0.0000531   0.0000146  -0.0000078  -0.0000062  -0.9409543   0.2877150
0.0523906    -0.9994754  -0.0001797   0.0000384   0.0000283   0.0000057  -0.0000072  -0.9408638   0.2877875
0.0530346    -0.9994516  -0.0001022   0.0000444   0.0000206   0.0000032  -0.0000115  -0.9408033   0.2878187
0.0536866    -0.9995162  -0.0001139   0.0000536   0.0000075  -0.0000095  -0.0000167  -0.9408350   0.2878571
0.0543466    -0.9994197  -0.0002221   0.0000540   0.0000153  -0.0000052  -0.0000006  -0.9407425   0.2878680
0.0550146    -0.9994449  -0.0001390   0.0000553   0.0000144  -0.0000055  -0.0000045  -0.9407686   0.2879192
0.0556910    -0.9994097  -0.0002003   0.0000424   0.0000270  -0.0000121  -0.0000102  -0.9406990   0.2879734
0.0563756    -0.9994145  -0.0002307   0.0000309   0.0000115   0.0000018  -0.0000108  -0.9407175   0.2881117
0.0570686    -0.9994441  -0.0002457   0.0000379   0.0000009   0.0000006  -0.0000166  -0.9406780   0.2881488
0.0577702    -0.9994732  -0.0000746   0.0000509   0.0000101  -0.0000013  -0.0000054  -0.9406106   0.2882546
0.0584804    -0.9994126  -0.0001784   0.0000425   0.0000155   0.0000011  -0.0000075  -0.9405687   0.2881916
0.0591993    -0.9994310  -0.0002323   0.0000364   0.0000224   0.0000087   0.0000003  -0.9405477   0.2882490
0.0599270    -0.9994389  -0.0002371   0.0000457   0.0000096   0.0000084  -0.0000020  -0.9406534   0.2883762
0.0606637    -0.9994413  -0.0002691   0.0000341   0.0000140  -0.0000008  -0.0000084  -0.9404613   0.2883609
0.0614095    -0.9994815  -0.0002455   0.0000454   0.0000276  -0.0000130   0.0000009  -0.9405219   0.2883972
0.0621644    -0.9995053  -0.0000931   0.0000287   0.0000152  -0.0000010  -0.0000074  -0.9405535   0.2885076
0.0629286    -0.9994350  -0.0001887   0.0000588   0.0000061  -0.0000052  -0.0000012  -0.9404398   0.2884878
0.0637022    -0.9993831  -0.0001947   0.0000478   0.0000169   0.0000020  -0.0000046  -0.9403573   0.2886245
0.0644853    -0.9993991  -0.0002598   0.0000409   0.0000165  -0.0000014  -0.0000039  -0.9404157   0.2886764
0.0652780    -0.9994348  -0.0002199   0.0000370   0.0000274   0.0000039  -0.0000084  -0.9403190   0.2886986
0.0660805    -0.9995320  -0.0002756   0.0000361   0.0000076  -0.0000050  -0.0000067  -0.9402917   0.2888275
0.0668928    -0.9994863  -0.0002524   0.0000506   0.0000075  -0.0000128  -0.0000122  -0.9402203   0.2888212
0.0677152    -0.9995248  -0.0002438   0.0000510   0.0000186   0.0000000  -0.0000112  -0.9402024   0.2888230
0.0685476    -0.9994577  -0.0001597   0.0000410   0.0000221  -0.0000072  -0.0000117  -0.9401862   0.2888922
0.0693903    -0.9994805  -0.0001567   0.0000499   0.0000237  -0.0000004  -0.0000041  -0.9401122   0.2890172
0.0702433    -0.9994800  -0.0001522   0.0000427   0.0000041  -0.0000029   0.0000041  -0.9401311   0.2890242
0.0711068    -0.9994702  -0.0002458   0.0000512   0.0000132   0.0000037  -0.0000059  -0.9400895   0.2890692
0.0719810    -0.9994258  -0.0002539   0.0000458   0.0000081  -0.0000091   0.0000050  -0.9400307   0.2890734
0.0728659    -0.9994683  -0.0002580   0.0000613   0.0000274   0.0000052  -0.0000014  -0.9399982   0.2891921
0.0737616    -0.9995014  -0.0002493   0.0000271   0.0000272  -0.0000012   0.0000004  -0.9399166   0.2892475
0.0746684    -0.9994939  -0.0002081   0.0000329   0.0000176   0.0000073  -0.0000086  -0.9399425   0.2892933
0.0755863    -0.9994245  -0.0002488   0.0000375   0.0000041  -0.0000051  -0.0000018  -0.9398644   0.2893296
0.0765155    -0.9995310  -0.0002406   0.0000526   0.0000217  -0.0000040  -0.0000102  -0.9398543   0.2893451
0.0774561    -0.9995123  -0.0003212   0.0000497   0.0000215   0.0000021  -0.0000132  -0.9397228   0.2894283
0.0784083    -0.9994792  -0.0002444   0.0000306   0.0000119   0.0000033   0.0000006  -0.9396576   0.2894038
0.0793722    -0.9993956  -0.0002307   0.0000321   0.0000207  -0.0000042  -0.0000104  -0.9396161   0.2895158
0.0803479    -0.9996167  -0.0002995   0.0000528   0.0000044   0.0000014  -0.0000099  -0.9396115   0.2895176
0.0813357    -0.9994967  -0.0003486   0.0000582   0.0000131  -0.0000006  -0.0000007  -0.9394970   0.2895606
0.0823356    -0.9994718  -0.0003585   0.0000506   0.0000163  -0.0000053  -0.0000076  -0.9394075   0.2896695
0.0833477    -0.9993881  -0.0002736   0.0000393   0.0000097   0.0000061  -0.0000029  -0.9393761   0.2896456
0.0843723    -0.9995750  -0.0002439   0.0000414   0.0000226   0.0000086  -0.0000037  -0.9393115   0.2897923
0.0854095    -0.9995609  -0.0002837   0.0000369   0.0000087  -0.0000026  -0.0000074  -0.9392051   0.2896720
0.0864595    -0.9995152  -0.0003543   0.0000314   0.0000183  -0.0000029   0.0000073  -0.9391912   0.2898053
0.0875224    -0.9995152  -0.0003290   0.0000351   0.0000291   0.0000034  -0.0000104  -0.9391330   0.2897833
0.0885983    -0.9995294  -0.0003644   0.0000567  -0.0000020  -0.0000022  -0.0000038  -0.9390844   0.2898074
0.0896875    -0.9994423  -0.0003253   0.0000383   0.0000187   0.0000089  -0.0000091  -0.9389901   0.2898603
0.0907900    -0.9994473  -0.0003175   0.0000393   0.0000098  -0.0000058  -0.0000009  -0.9389029   0.2897670
0.0919061    -0.9995303  -0.0002641   0.0000382   0.0000129   0.0000026   0.0000009  -0.9387465   0.2898359
0.0930359    -0.9994792  -0.0003815   0.0000548   0.0000107   0.0000012   0.0000016  -0.9387368   0.2897206
0.0941797    -0.9994379  -0.0004513   0.0000469   0.0000166   0.0000025   0.0000095  -0.9386642   0.2897788
0.0953374    -0.9993425  -0.0003114   0.0000570   0.0000237  -0.0000047   0.0000036  -0.9386589   0.2896874
0.0965094    -0.9993996  -0.0003194   0.0000451   0.0000229   0.0000008  -0.0000022  -0.9385277   0.2897067
0.0976959    -0.9994873  -0.0004171   0.0000341   0.0000142   0.0000064  -0.0000051  -0.9385353   0.2896980
0.0988969    -0.9995254  -0.0004481   0.0000417   0.0000205  -0.0000068  -0.0000015  -0.9384663   0.2896201
0.1001126    -0.9994673  -0.0004468   0.0000430   0.0000211  -0.0000042  -0.0000113  -0.9384273   0.2896009
0.1013433    -0.9994878  -0.0002819   0.0000396   0.0000090  -0.0000066  -0.0000005  -0.9384162   0.2895283
0.1025892    -0.9994793  -0.0004219   0.0000461   0.0000146  -0.0000089  -0.0000156  -0.9383242   0.2894642
0.1038503    -0.9995343  -0.0004010   0.0000510   0.0000216  -0.0000061   0.0000026  -0.9383898   0.2893628
0.1051270    -0.9994718  -0.0004076   0.0000471   0.0000233  -0.0000042   0.0000032  -0.9384645   0.2893710
0.1064193    -0.9994541  -0.0004584   0.0000478   0.0000336  -0.0000009  -0.0000043  -0.9385210   0.2892712
0.1077276    -0.9995567  -0.0004322   0.0000360   0.0000172  -0.0000010   0.0000042  -0.9385561   0.2893075
0.1090519    -0.9995185  -0.0003370   0.0000392   0.0000180   0.0000081   0.0000023  -0.9386699   0.2891948
0.1103925    -0.9994992  -0.0004263   0.0000477   0.0000296  -0.0000053  -0.0000082  -0.9386504   0.2892372
0.1117496    -0.9995266  -0.0003473   0.0000460   0.0000198   0.0000070  -0.0000009  -0.9387449   0.2892651
0.1131233    -0.9995302  -0.0004558   0.0000400   0.0000255  -0.0000109  -0.0000063  -0.9388706   0.2892237
0.1145140    -0.9996713  -0.0003970   0.0000563   0.0000221  -0.0000020  -0.0000139  -0.9389367   0.2893050
0.1159217    -0.9994338  -0.0003147   0.0000495   0.0000256  -0.0000058  -0.0000006  -0.9389502   0.2893045
0.1173468    -0.9995412  -0.0004332   0.0000322   0.0000201   0.0000043  -0.0000100  -0.9390159   0.2893834
0.1187893    -0.9995924  -0.0003961   0.0000555   0.0000231  -0.0000015  -0.0000112  -0.9391408   0.2894386
0.1202497    -0.9995671  -0.0005857   0.0000418   0.0000142  -0.0000076  -0.0000202  -0.9391425   0.2894774
0.1217279    -0.9995866  -0.0004789   0.0000330   0.0000309   0.0000047   0.0000067  -0.9391774   0.2895602
0.1232243    -0.9995382  -0.0003953   0.0000362   0.0000408  -0.0000059  -0.0000097  -0.9393238   0.2897100
0.1247392    -0.9995976  -0.0003361   0.0000488   0.0000254  -0.0000005  -0.0000021  -0.9393441   0.2897610
0.1262726    -0.9994652  -0.0003721   0.0000404   0.0000193  -0.0000082  -0.0000107  -0.9393835   0.2898578
0.1278249    -0.9995284  -0.0004317   0.0000505   0.0000200  -0.0000011  -0.0000062  -0.9393711   0.2899272
0.1293963    -0.9994572  -0.0004890   0.0000556   0.0000203  -0.0000038  -0.0000042  -0.9394349   0.2900448
0.1309870    -0.9996092  -0.0004676   0.0000582   0.0000174   0.0000004  -0.0000140  -0.9394403   0.2901690
0.1325973    -0.9994997  -0.0005054   0.0000459   0.0000307  -0.0000006   0.0000020  -0.9394429   0.2901727
0.1342273    -0.9995590  -0.0005118   0.0000513   0.0000253  -0.0000030  -0.0000066  -0.9395119   0.2902830
0.1358774    -0.9995528  -0.0004794   0.0000614   0.0000330  -0.0000045   0.0000028  -0.9394840   0.2904587
0.1375478    -0.9994060  -0.0004592   0.0000596   0.0000308   0.0000041  -0.0000011  -0.9395102   0.2904983
0.1392387    -0.9994972  -0.0003671   0.0000407   0.0000279  -0.0000016  -0.0000030  -0.9394896   0.2906542
0.1409504    -0.9995363  -0.0003969   0.0000511   0.0000250  -0.0000098  -0.0000030  -0.9395416   0.2907525
0.1426831    -0.9996066  -0.0004536   0.0000327   0.0000346  -0.0000051  -0.0000032  -0.9395182   0.2907696
0.1444371    -0.9995535  -0.0005047   0.0000510   0.0000269   0.0000040  -0.0000025  -0.9394529   0.2909111
0.1462127    -0.9996532  -0.0004820   0.0000363   0.0000190   0.0000011  -0.0000080  -0.9395321   0.2910522
0.1480102    -0.9995301  -0.0004598   0.0000442   0.0000216  -0.0000016  -0.0000117  -0.9394888   0.2911476
0.1498297    -0.9995673  -0.0004059   0.0000554   0.0000270  -0.0000046   0.0000006  -0.9394295   0.2911965
0.1516716    -0.9996113  -0.0004869   0.0000423   0.0000210  -0.0000031   0.0000037  -0.9394114   0.2913293
0.1535361    -0.9994431  -0.0004633   0.0000281   0.0000237  -0.0000056  -0.0000089  -0.9394468   0.2914228
0.1554236    -0.9994878  -0.0005285   0.0000511   0.0000274   0.0000006   0.0000022  -0.9394299   0.2915906
0.1573342    -0.9994572  -0.0004812   0.0000529   0.0000269  -0.0000109  -0.0000090  -0.9393141   0.2916879
0.1592684    -0.9995576  -0.0004954   0.0000284   0.0000272   0.0000048   0.0000032  -0.9394186   0.2917255
0.1612263    -0.9995093  -0.0005251   0.0000229   0.0000307   0.0000049  -0.0000010  -0.9393069   0.2918717
0.1632083    -0.9996283  -0.0004817   0.0000533   0.0000323   0.0000052  -0.0000046  -0.9393931   0.2919294
0.1652147    -0.9995858  -0.0005405   0.0000448   0.0000318  -0.0000054   0.0000015  -0.9392935   0.2920767
0.1672457    -0.9995651  -0.0005421   0.0000399   0.0000371   0.0000058  -0.0000092  -0.9392819   0.2921465
0.1693017    -0.9996901  -0.0005673   0.0000355   0.0000306  -0.0000093  -0.0000026  -0.9392562   0.2921591
0.1713829    -0.9996215  -0.0006043   0.0000437   0.0000268  -0.0000062  -0.0000029  -0.9392212   0.2923577
0.1734898    -0.9994711  -0.0004402   0.0000462   0.0000308  -0.0000008   0.0000005  -0.9391912   0.2923584
0.1756225    -0.9995910  -0.0005046   0.0000319   0.0000156   0.0000067  -0.0000024  -0.9391699   0.2925539
0.1777815    -0.9995488  -0.0005546   0.0000496   0.0000247  -0.0000031  -0.0000086  -0.9390592   0.2925714
0.1799670    -0.9995989  -0.0006077   0.0000589   0.0000164  -0.0000053  -0.0000102  -0.9390654   0.2927581
0.1821794    -0.9996084  -0.0006095   0.0000440   0.0000300   0.0000027  -0.0000042  -0.9390483   0.2928551
0.1844190    -0.9996285  -0.0005993   0.0000477   0.0000325  -0.0000014  -0.0000113  -0.9391059   0.2929285
0.1866861    -0.9996272  -0.0005791   0.0000446   0.0000345  -0.0000025  -0.0000085  -0.9389236   0.2930493
0.1889811    -0.9997334  -0.0005256   0.0000426   0.0000539  -0.0000052  -0.0000045  -0.9389341   0.2931909
0.1913043    -0.9997058  -0.0005591   0.0000608   0.0000382  -0.0000022  -0.0000077  -0.9389398   0.2931881
0.1936560    -0.9995766  -0.0005628   0.0000528   0.0000372  -0.0000029   0.0000011  -0.9388743   0.2934055
0.1960367    -0.9997609  -0.0007488   0.0000385   0.0000283  -0.0000034  -0.0000113  -0.9388666   0.2935421
0.1984466    -0.9995976  -0.0006459   0.0000544   0.0000238  -0.0000069  -0.0000007  -0.9388003   0.2935264
0.2008861    -0.9995269  -0.0005065   0.0000384   0.0000154  -0.0000035  -0.0000135  -0.9388468   0.2937072
0.2033557    -0.9995806  -0.0006491   0.0000419   0.0000323  -0.0000017  -0.0000072  -0.9388149   0.2937507
0.2058556    -0.9996208  -0.0006112   0.0000412   0.0000344   0.0000063  -0.0000012  -0.9386165   0.2938308
0.2083862    -0.9995330  -0.0006228   0.0000368   0.0000287  -0.0000007  -0.0000098  -0.9386430   0.2939738
0.2109480    -0.9995466  -0.0006505   0.0000429   0.0000254  -0.0000041   0.0000037  -0.9386125   0.2940661
0.2135412    -0.9995911  -0.0005925   0.0000550   0.0000189   0.0000026  -0.0000099  -0.9385548   0.2941996
0.2161663    -0.9995988  -0.0007144   0.0000503   0.0000331   0.0000069  -0.0000061  -0.9385860   0.2942747
0.2188237    -0.9995165  -0.0006519   0.0000469   0.0000294  -0.0000015  -0.0000051  -0.9385893   0.2944157
0.2215137    -0.9996428  -0.0006719   0.0000513   0.0000330  -0.0000176  -0.0000081  -0.9384733   0.2944849
0.2242369    -0.9996324  -0.0006852   0.0000404   0.0000352  -0.0000093  -0.0000156  -0.9383799   0.2946712
0.2269935    -0.9996221  -0.0007276   0.0000393   0.0000282  -0.0000070  -0.0000102  -0.9383557   0.2947396
0.2297839    -0.9997205  -0.0005632   0.0000256   0.0000551   0.0000008  -0.0000095  -0.9383288   0.2948782
0.2326087    -0.9996639  -0.0006282   0.0000520   0.0000412  -0.0000072  -0.0000042  -0.9383012   0.2949777
0.2354682    -0.9995446  -0.0007607   0.0000306   0.0000386   0.0000062  -0.0000025  -0.9382314   0.2950852
0.2383629    -0.9995576  -0.0007447   0.0000478   0.0000363   0.0000095  -0.0000077  -0.9382402   0.2951383
0.2412932    -0.9997624  -0.0006491   0.0000447   0.0000460  -0.0000204  -0.0000146  -0.9381400   0.2952565
0.2442594    -0.9996791  -0.0007277   0.0000428   0.0000317  -0.0000093   0.0000065  -0.9381314   0.2954319
0.2472622    -0.9995452  -0.0008128   0.0000527   0.0000550  -0.0000034  -0.0000044  -0.9381191   0.2955686
0.2503018    -0.9996117  -0.0007378   0.0000531   0.0000458  -0.0000125  -0.0000093  -0.9379876   0.2957517
0.2533788    -0.9996590  -0.0007422   0.0000412   0.0000460  -0.0000040   0.0000031  -0.9379655   0.2957465
0.2564937    -0.9995831  -0.0006697   0.0000234   0.0000627  -0.0000017  -0.0000116  -0.9379517   0.2958429
0.2596468    -0.9996657  -0.0008256   0.0000538   0.0000280  -0.0000103  -0.0000019  -0.9378675   0.2960615
0.2628387    -0.9996857  -0.0007132   0.0000552   0.0000455   0.0000019   0.0000031  -0.9378421   0.2962113
0.2660699    -0.9996210  -0.0008764   0.0000345   0.0000496   0.0000030  -0.0000001  -0.9377637   0.2962477
0.2693407    -0.9996146  -0.0008938   0.0000537   0.0000440   0.0000029   0.0000017  -0.9376920   0.2964796
0.2726518    -0.9996290  -0.0006911   0.0000442   0.0000400   0.0000098  -0.0000065  -0.9376563   0.2965318
0.2760036    -0.9996468  -0.0009155   0.0000330   0.0000270  -0.0000009  -0.0000004  -0.9376370   0.2967253
0.2793966    -0.9996315  -0.0007273   0.0000438   0.0000478   0.0000015  -0.0000069  -0.9375655   0.2967840
0.2828312    -0.9995692  -0.0007889   0.0000385   0.0000587  -0.0000054  -0.0000065  -0.9375553   0.2969881
0.2863082    -0.9996462  -0.0008476   0.0000479   0.0000399  -0.0000069  -0.0000156  -0.9374514   0.2970842
0.2898278    -0.9996889  -0.0008772   0.0000459   0.0000482   0.0000011  -0.0000148  -0.9373987   0.2972562
0.2933907    -0.9995957  -0.0007090   0.0000363   0.0000679  -0.0000071  -0.0000110  -0.9374491   0.2973166
0.2969975    -0.9997212  -0.0008851   0.0000523   0.0000499   0.0000025  -0.0000002  -0.9373918   0.2974570
0.3006485    -0.9997415  -0.0008081   0.0000487   0.0000525  -0.0000037  -0.0000003  -0.9372446   0.2976492
0.3043445    -0.9996642  -0.0008364   0.0000560   0.0000492   0.0000030  -0.0000090  -0.9372233   0.2977212
0.3080858    -0.9997583  -0.0009463   0.0000328   0.0000311   0.0000008  -0.0000047  -0.9371217   0.2978439
0.3118732    -0.9996959  -0.0008199   0.0000605   0.0000569  -0.0000029  -0.0000037  -0.9370846   0.2981255
0.3157071    -0.9996117  -0.0009088   0.0000373   0.0000537   0.0000001  -0.0000051  -0.9369519   0.2981806
0.3195882    -0.9996500  -0.0008969   0.0000415   0.0000487  -0.0000056  -0.0000075  -0.9369621   0.2983713
0.3235170    -0.9996701  -0.0008641   0.0000553   0.0000456   0.0000005  -0.0000101  -0.9368877   0.2985743
0.3274941    -0.9997181  -0.0008412   0.0000468   0.0000437  -0.0000171  -0.0000030  -0.9368245   0.2986018
0.3315200    -0.9997447  -0.0009404   0.0000326   0.0000531  -0.0000011  -0.0000002  -0.9366881   0.2987612
0.3355955    -0.9997344  -0.0009194   0.0000558   0.0000443   0.0000024  -0.0000098  -0.9367534   0.2988743
0.3397210    -0.9997528  -0.0010280   0.0000477   0.0000503  -0.0000033  -0.0000140  -0.9366286   0.2991156
0.3438973    -0.9996953  -0.0009897   0.0000289   0.0000607   0.0000025  -0.0000018  -0.9365542   0.2991742
0.3481249    -0.9996935  -0.0009971   0.0000518   0.0000573  -0.0000090  -0.0000003  -0.9365513   0.2993079
0.3524045    -0.9996954  -0.0009630   0.0000628   0.0000601   0.0000071  -0.0000049  -0.9364981   0.2994654
0.3567367    -0.9997783  -0.0009810   0.0000377   0.0000435   0.0000048  -0.0000006  -0.9364733   0.2996630
0.3611221    -0.9997257  -0.0010157   0.0000502   0.0000404  -0.0000009  -0.0000053  -0.9363157   0.2998125
0.3655615    -0.9995993  -0.0009582   0.0000362   0.0000668   0.0000008   0.0000035  -0.9362350   0.2999891
0.3700554    -0.9997143  -0.0010273   0.0000602   0.0000627  -0.0000078   0.0000013  -0.9361766   0.3001423
0.3746046    -0.9997496  -0.0009825   0.0000319   0.0000695  -0.0000074   0.0000052  -0.9360952   0.3002810
0.3792097    -0.9998469  -0.0010525   0.0000374   0.0000631   0.0000027  -0.0000014  -0.9360310   0.3005167
0.3838714    -0.9998178  -0.0009285   0.0000350   0.0000515  -0.0000147   0.0000006  -0.9360487   0.3006684
0.3885905    -0.9996945  -0.0009993   0.0000406   0.0000473   0.0000014  -0.0000025  -0.9359445   0.3008066
0.3933675    -0.9997710  -0.0011051   0.0000511   0.0000667  -0.0000064  -0.0000079  -0.9358374   0.3010662
0.3982033    -0.9997786  -0.0011015   0.0000499   0.0000631   0.0000045  -0.0000028  -0.9357388   0.3011775
0.4030985    -0.9997441  -0.0011026   0.0000398   0.0000667  -0.0000013  -0.0000019  -0.9356822   0.3013380
0.4080538    -0.9998223  -0.0010641   0.0000430   0.0000749   0.0000088  -0.0000011  -0.9356213   0.3015114
0.4130701    -0.9998287  -0.0011364   0.0000563   0.0000678  -0.0000030  -0.0000011  -0.9354990   0.3017008
0.4181481    -0.9997570  -0.0011675   0.0000436   0.0000564  -0.0000217  -0.0000123  -0.9354835   0.3019167
0.4232885    -0.9996909  -0.0010395   0.0000501   0.0000710   0.0000013  -0.0000042  -0.9353929   0.3020374
0.4284921    -0.9997979  -0.0011725   0.0000500   0.0000625   0.0000050  -0.0000019  -0.9353126   0.3021829
0.4337597    -0.9997860  -0.0011216   0.0000612   0.0000740  -0.0000025  -0.0000129  -0.9351899   0.3024178
0.4390920    -0.9997672  -0.0011096   0.0000615   0.0000675   0.0000014  -0.0000040  -0.9351455   0.3026475
0.4444898    -0.9998184  -0.0011289   0.0000407   0.0000758   0.0000003  -0.0000071  -0.9350953   0.3028394
0.4499541    -0.9998015  -0.0010924   0.0000444   0.0000655   0.0000018   0.0000071  -0.9349420   0.3029515
0.4554854    -0.9998018  -0.0011022   0.0000470   0.0000754  -0.0000024   0.0000004  -0.9349191   0.3031716
0.4610848    -0.9998487  -0.0011768   0.0000432   0.0000673   0.0000036  -0.0000010  -0.9347462   0.3034583
0.4667531    -0.9999331  -0.0011708   0.0000538   0.0000695  -0.0000048  -0.0000122  -0.9347264   0.3035858
0.4724910    -0.9998602  -0.0013364   0.0000446   0.0000865   0.0000114  -0.0000039  -0.9345766   0.3037551
0.4782994    -0.9997927  -0.0012111   0.0000468   0.0000787  -0.0000062  -0.0000052  -0.9345650   0.3040264
0.4841793    -0.9998097  -0.0012903   0.0000414   0.0000791   0.0000106   0.0000023  -0.9344129   0.3041643
0.4901314    -0.9997025  -0.0012515   0.0000353   0.0000691   0.0000062  -0.0000086  -0.9344641   0.3044346
0.4961567    -0.9997940  -0.0012789   0.0000507   0.0000818  -0.0000058  -0.0000014  -0.9343045   0.3046205
0.5022561    -0.9997868  -0.0013187   0.0000445   0.0000745  -0.0000017  -0.0000053  -0.9341865   0.3048411
0.5084304    -0.9998470  -0.0012803   0.0000601   0.0000902  -0.0000013  -0.0000019  -0.9340425   0.3051119
0.5146807    -0.9998581  -0.0013892   0.0000504   0.0000684  -0.0000092  -0.0000063  -0.9339961   0.3052493
0.5210078    -0.9998806  -0.0013138   0.0000556   0.0000757   0.0000043  -0.0000041  -0.9338725   0.3054744
0.5274126    -0.9997960  -0.0013327   0.0000533   0.0000855  -0.0000064  -0.0000075  -0.9338402   0.3057256
0.5338963    -0.9998800  -0.0013342   0.0000381   0.0000882   0.0000003   0.0000057  -0.9337405   0.3059158
0.5404596    -0.9997695  -0.0013912   0.0000502   0.0000785  -0.0000084   0.0000050  -0.9336710   0.3062319
0.5471036    -0.9998569  -0.0014142   0.0000497   0.0000871  -0.0000094  -0.0000065  -0.9335276   0.3063257
0.5538292    -0.9998779  -0.0013992   0.0000326   0.0000789   0.0000020  -0.0000054  -0.9334165   0.3066357
0.5606376    -0.9999086  -0.0013860   0.0000457   0.0000763  -0.0000026  -0.0000073  -0.9332411   0.3068205
0.5675297    -0.9998556  -0.0015254   0.0000339   0.0000856  -0.0000022  -0.0000028  -0.9331879   0.3071370
0.5745064    -0.9999013  -0.0014981   0.0000446   0.0001013   0.0000018   0.0000011  -0.9330557   0.3073340
0.5815690    -0.9998188  -0.0014549   0.0000374   0.0000814   0.0000020   0.0000047  -0.9330523   0.3075216
0.5887183    -0.9998315  -0.0014383   0.0000572   0.0000831  -0.0000109  -0.0000114  -0.9328489   0.3077647
0.5959556    -0.9998987  -0.0015260   0.0000614   0.0001056  -0.0000057  -0.0000093  -0.9327533   0.3080503
0.6032818    -0.9998458  -0.0014521   0.0000458   0.0000786  -0.0000051  -0.0000031  -0.9326622   0.3083318
0.6106981    -0.9999125  -0.0014709   0.0000380   0.0000972   0.0000033  -0.0000101  -0.9325332   0.3086434
0.6182056    -0.9998468  -0.0015150   0.0000360   0.0001139   0.0000045  -0.0000047  -0.9324797   0.3087512
0.6258053    -0.9999294  -0.0015520   0.0000412   0.0001035  -0.0000036   0.0000009  -0.9323100   0.3090988
0.6334985    -0.9998627  -0.0014230   0.0000512   0.0000983   0.0000043  -0.0000057  -0.9322906   0.3093580
0.6412862    -0.9998492  -0.0015365   0.0000615   0.0001039  -0.0000087  -0.0000039  -0.9320162   0.3096498
0.6491697    -0.9999213  -0.0015484   0.0000455   0.0000930  -0.0000025   0.0000017  -0.9320639   0.3099768
0.6571501    -0.9999691  -0.0015537   0.0000523   0.0000924  -0.0000156  -0.0000076  -0.9318527   0.3101546
0.6652286    -0.9998419  -0.0016101   0.0000372   0.0000958   0.0000013  -0.0000025  -0.9317385   0.3105023
0.6734064    -0.9999164  -0.0016042   0.0000346   0.0001037  -0.0000007  -0.0000128  -0.9316249   0.3107810
0.6816848    -0.9998407  -0.0016793   0.0000489   0.0000837  -0.0000108  -0.0000052  -0.9314518   0.3109770
0.6900649    -0.9999989  -0.0016775   0.0000453   0.0000981  -0.0000001  -0.0000024  -0.9313558   0.3112493
0.6985480    -0.9998584  -0.0018003   0.0000398   0.0000890  -0.0000011  -0.0000022  -0.9312130   0.3116300
0.7071355    -0.9999118  -0.0017000   0.0000566   0.0001225   0.0000024  -0.0000047  -0.9311384   0.3119213
0.7158284    -0.9998848  -0.0017994   0.0000350   0.0001087   0.0000018  -0.0000044  -0.9310515   0.3121998
0.7246283    -0.9999851  -0.0017675   0.0000498   0.0000984  -0.0000065  -0.0000022  -0.9308397   0.3124587
0.7335363    -0.9998851  -0.0018040   0.0000500   0.0001158   0.0000072  -0.0000030  -0.9308036   0.3127722
0.7425539    -0.9997893  -0.0016690   0.0000350   0.0001151  -0.0000014  -0.0000051  -0.9306783   0.3131388
0.7516822    -0.9998425  -0.0017354   0.0000455   0.0001064  -0.0000061   0.0000039  -0.9304417   0.3133883
0.7609229    -0.9999165  -0.0017701   0.0000392   0.0001053  -0.0000108  -0.0000073  -0.9302693   0.3136903
0.7702771    -0.9999720  -0.0018496   0.0000547   0.0001098   0.0000060  -0.0000118  -0.9301103   0.3139566
0.7797463    -1.0000252  -0.0017387   0.0000495   0.0001132  -0.0000053  -0.0000039  -0.9299867   0.3143409
0.7893319    -1.0000265  -0.0017867   0.0000496   0.0001221  -0.0000011  -0.0000039  -0.9298566   0.3146606
0.7990353    -0.9999137  -0.0019283   0.0000469   0.0001118   0.0000108   0.0000006  -0.9297423   0.3149845
0.8088580    -0.9998323  -0.0019730   0.0000473   0.0001396  -0.0000011  -0.0000043  -0.9295781   0.3153214
0.8188015    -1.0000004  -0.0019427   0.0000494   0.0001129  -0.0000041  -0.0000032  -0.9294537   0.3156519
0.8288673    -0.9999272  -0.0019336   0.0000621   0.0001280  -0.0000032  -0.0000065  -0.9292674   0.3159989
0.8390567    -0.9998593  -0.0019129   0.0000433   0.0001288   0.0000029  -0.0000167  -0.9291964   0.3163791
0.8493714    -1.0000805  -0.0019719   0.0000453   0.0001278   0.0000081  -0.0000012  -0.9290133   0.3166715
0.8598130    -1.0000168  -0.0019331   0.0000536   0.0001366   0.0000073  -0.0000083  -0.9288463   0.3170546
0.8703829    -1.0000348  -0.0020444   0.0000376   0.0001327   0.0000037  -0.0000044  -0.9286617   0.3173866
0.8810827    -0.9999697  -0.0020047   0.0000428   0.0001289  -0.0000029  -0.0000054  -0.9285109   0.3178376
0.8919140    -1.0000137  -0.0019482   0.0000449   0.0001327   0.0000023  -0.0000108  -0.9283561   0.3181357
0.9028786    -0.9999992  -0.0020388   0.0000373   0.0001465  -0.0000092   0.0000004  -0.9281942   0.3185210
0.9139779    -0.9999982  -0.0021503   0.0000469   0.0001533  -0.0000026  -0.0000067  -0.9280326   0.3189216
0.9252136    -0.9999488  -0.0021163   0.0000581   0.0001239  -0.0000001  -0.0000139  -0.9278553   0.3192816
0.9365875    -0.9999643  -0.0021335   0.0000363   0.0001481  -0.0000034   0.0000006  -0.9276938   0.3196557
0.9481012    -0.9999962  -0.0020689   0.0000408   0.0001337  -0.0000017  -0.0000055  -0.9275186   0.3200543
0.9597564    -0.9999578  -0.0021297   0.0000402   0.0001360  -0.0000017  -0.0000023  -0.9273121   0.3204456
0.9715549    -1.0000147  -0.0021105   0.0000440   0.0001494  -0.0000036  -0.0000012  -0.9271461   0.3208858
0.9834985    -1.0000080  -0.0022428   0.0000363   0.0001333  -0.0000065  -0.0000013  -0.9270109   0.3212321
0.9955889    -0.9998282  -0.0022763   0.0000663   0.0001544  -0.0000032  -0.0000050  -0.9268638   0.3216050
1.0078279    -1.0000153  -0.0023444   0.0000319   0.0001495   0.0000107  -0.0000079  -0.9265545   0.3220619
1.0202173    -1.0000437  -0.0022790   0.0000480   0.0001416   0.0000011  -0.0000053  -0.9264578   0.3224213
1.0327591    -1.0000831  -0.0022546   0.0000420   0.0001596  -0.0000039  -0.0000004  -0.9262505   0.3229331
1.0454551    -0.9999721  -0.0022886   0.0000428   0.0001592   0.0000008  -0.0000101  -0.9260666   0.3233381
1.0583071    -1.0000730  -0.0023402   0.0000394   0.0001520  -0.0000013   0.0000049  -0.9258682   0.3237213
1.0713171    -0.9999120  -0.0023079   0.0000448   0.0001571  -0.0000064   0.0000018  -0.9255917   0.3241481
1.0844871    -1.0000290  -0.0023619   0.0000555   0.0001569  -0.0000048   0.0000027  -0.9254617   0.3245377
1.0978189    -1.0000336  -0.0024828   0.0000487   0.0001759   0.0000007   0.0000068  -0.9252756   0.3250599
1.1113147    -0.9999261  -0.0024439   0.0000449   0.0001636  -0.0000006  -0.0000055  -0.9250334   0.3254274
1.1249763    -1.0000332  -0.0024343   0.0000517   0.0001747  -0.0000013  -0.0000018  -0.9248774   0.3259905
1.1388059    -1.0000649  -0.0025474   0.0000452   0.0001551  -0.0000019  -0.0000060  -0.9247198   0.3264517
1.1528056    -0.9999833  -0.0025790   0.0000627   0.0001705  -0.0000044  -0.0000036  -0.9244583   0.3268988
1.1669773    -1.0001181  -0.0025340   0.0000421   0.0001785  -0.0000009  -0.0000082  -0.9242727   0.3273953
1.1813232    -1.0000273  -0.0025873   0.0000438   0.0001777  -0.0000031  -0.0000048  -0.9240773   0.3278585
1.1958455    -0.9999934  -0.0026385   0.0000484   0.0001834   0.0000009   0.0000004  -0.9238039   0.3283554
1.2105463    -1.0000856  -0.0026034   0.0000373   0.0001888  -0.0000031  -0.0000085  -0.9236208   0.3288517
1.2254278    -1.0000087  -0.0026585   0.0000352   0.0001791  -0.0000064   0.0000002  -0.9233540   0.3293477
1.2404923    -1.0000878  -0.0027153   0.0000398   0.0001916   0.0000005  -0.0000006  -0.9232183   0.3298264
1.2557420    -1.0001139  -0.0027106   0.0000542   0.0001884   0.0000060  -0.0000034  -0.9229541   0.3303611
1.2711791    -1.0002373  -0.0027743   0.0000370   0.0001792   0.0000058   0.0000032  -0.9226769   0.3308420
1.2868060    -1.0000972  -0.0026376   0.0000501   0.0001931  -0.0000086   0.0000018  -0.9224299   0.3313969
1.3026251    -1.0000862  -0.0028695   0.0000407   0.0001943   0.0000010  -0.0000178  -0.9221532   0.3319239
1.3186385    -1.0001065  -0.0028734   0.0000422   0.0001931  -0.0000032  -0.0000001  -0.9219294   0.3324706
1.3348489    -1.0000621  -0.0028947   0.0000366   0.0002091  -0.0000022  -0.0000067  -0.9217568   0.3330027
1.3512585    -1.0000296  -0.0029504   0.0000370   0.0001956  -0.0000067  -0.0000152  -0.9214508   0.3335168
1.3678698    -1.0000882  -0.0029210   0.0000486   0.0001968  -0.0000091  -0.0000157  -0.9212825   0.3340755
1.3846854    -1.0001866  -0.0029904   0.0000496   0.0002128   0.0000027  -0.0000135  -0.9210106   0.3347380
1.4017077    -1.0001531  -0.0030277   0.0000545   0.0002210   0.0000041   0.0000045  -0.9207423   0.3352204
1.4189392    -1.0001017  -0.0030505   0.0000541   0.0002052   0.0000006   0.0000001  -0.9205003   0.3357456
1.4363825    -1.0000747  -0.0030419   0.0000543   0.0002200  -0.0000072  -0.0000012  -0.9202484   0.3363581
1.4540403    -1.0001881  -0.0030399   0.0000508   0.0002206  -0.0000064  -0.0000011  -0.9199559   0.3369570
1.4719152    -1.0000117  -0.0031424   0.0000367   0.0002289   0.0000078   0.0000075  -0.9197156   0.3376479
1.4900098    -1.0002269  -0.0031221   0.0000534   0.0002132   0.0000059  -0.0000025  -0.9193985   0.3381595
1.5083269    -1.0002348  -0.0032283   0.0000463   0.0002140  -0.0000053   0.0000013  -0.9191216   0.3387463
1.5268691    -1.0001559  -0.0032863   0.0000329   0.0002278   0.0000075  -0.0000016  -0.9188447   0.3393919
1.5456392    -1.0001708  -0.0032771   0.0000577   0.0002340  -0.0000034  -0.0000016  -0.9186352   0.3399954
1.5646402    -1.0002150  -0.0032352   0.0000405   0.0002480   0.0000027  -0.0000022  -0.9183255   0.3407034
1.5838747    -1.0001470  -0.0033821   0.0000488   0.0002486  -0.0000058   0.0000018  -0.9180071   0.3413056
1.6033456    -1.0001752  -0.0033555   0.0000480   0.0002519  -0.0000038   0.0000005  -0.9178175   0.3419714
1.6230559    -1.0001808  -0.0033967   0.0000458   0.0002580   0.0000040  -0.0000088  -0.9174998   0.3426997
1.6430085    -1.0000927  -0.0035137   0.0000388   0.0002413  -0.0000092  -0.0000087  -0.9171685   0.3433497
1.6632064    -1.0001585  -0.0035589   0.0000417   0.0002504  -0.0000108  -0.0000073  -0.9168588   0.3440620
1.6836526    -1.0000946  -0.0034630   0.0000490   0.0002601   0.0000037  -0.0000099  -0.9166106   0.3447857
1.7043502    -1.0001669  -0.0036217   0.0000380   0.0002353   0.0000002  -0.0000113  -0.9161800   0.3455200
1.7253021    -1.0002022  -0.0036815   0.0000514   0.0002686  -0.0000079  -0.0000040  -0.9159925   0.3461715
1.7465117    -1.0001743  -0.0036077   0.0000413   0.0002765   0.0000025  -0.0000055  -0.9157903   0.3469968
1.7679820    -1.0002692  -0.0035972   0.0000514   0.0002555  -0.0000045   0.0000031  -0.9154066   0.3477171
1.7897162    -1.0001295  -0.0037870   0.0000393   0.0002786  -0.0000016  -0.0000074  -0.9151174   0.3484560
1.8117176    -1.0001956  -0.0037111   0.0000555   0.0002744  -0.0000088  -0.0000035  -0.9147761   0.3493066
1.8339895    -1.0002065  -0.0038278   0.0000332   0.0002830  -0.0000118  -0.0000034  -0.9144893   0.3500739
1.8565352    -1.0001334  -0.0038841   0.0000357   0.0002926  -0.0000061  -0.0000007  -0.9141587   0.3508992
1.8793580    -1.0001681  -0.0038154   0.0000391   0.0002784   0.0000050  -0.0000067  -0.9138773   0.3516445
1.9024614    -1.0002258  -0.0040058   0.0000456   0.0002761   0.0000034   0.0000019  -0.9136433   0.3524820
1.9258488    -1.0001564  -0.0039971   0.0000395   0.0002780  -0.0000040  -0.0000066  -0.9132013   0.3533232
1.9495237    -1.0001644  -0.0040493   0.0000465   0.0002930  -0.0000036  -0.0000086  -0.9128573   0.3542622
1.9734897    -1.0002140  -0.0040912   0.0000416   0.0003056  -0.0000027  -0.0000027  -0.9124967   0.3551210
1.9977503    -1.0001332  -0.0040513   0.0000356   0.0002996  -0.0000022  -0.0000100  -0.9121862   0.3560367
2.0223091    -1.0002916  -0.0042205   0.0000359   0.0002954   0.0000036  -0.0000066  -0.9117146   0.3569520
2.0471698    -1.0002966  -0.0042407   0.0000466   0.0003051   0.0000021  -0.0000058  -0.9112576   0.3578717
2.0723362    -1.0001890  -0.0041586   0.0000400   0.0003051  -0.0000052  -0.0000109  -0.9108508   0.3587810
2.0978119    -1.0001144  -0.0043084   0.0000432   0.0003049  -0.0000046  -0.0000081  -0.9103719   0.3597379
2.1236008    -1.0002634  -0.0044162   0.0000422   0.0003275  -0.0000093  -0.0000004  -0.9098752   0.3606545
2.1497067    -1.0001187  -0.0044394   0.0000524   0.0003129  -0.0000046  -0.0000022  -0.9093895   0.3616367
2.1761336    -1.0003165  -0.0044146   0.0000511   0.0003190  -0.0000068  -0.0000094  -0.9089004   0.3624516
2.2028853    -1.0002550  -0.0045044   0.0000525   0.0003239  -0.0000069  -0.0000036  -0.9082573   0.3634525
2.2299659    -1.0003551  -0.0045832   0.0000442   0.0003209  -0.0000041  -0.0000103  -0.9079217   0.3643863
2.2573794    -1.0003380  -0.0045944   0.0000537   0.0003387  -0.0000005   0.0000045  -0.9073349   0.3653268
2.2851299    -1.0004703  -0.0045572   0.0000392   0.0003466  -0.0000203  -0.0000078  -0.9067572   0.3662666
2.3132216    -1.0004043  -0.0046509   0.0000450   0.0003374  -0.0000061  -0.0000051  -0.9062437   0.3671181
2.3416586    -1.0003767  -0.0047518   0.0000468   0.0003622   0.0000013  -0.0000147  -0.9056892   0.3680784
2.3704451    -1.0003927  -0.0048049   0.0000309   0.0003339  -0.0000051  -0.0000091  -0.9051684   0.3691096
2.3995856    -1.0003223  -0.0049037   0.0000474   0.0003520  -0.0000066  -0.0000082  -0.9045189   0.3700807
2.4290843    -1.0002545  -0.0049282   0.0000284   0.0003740  -0.0000003  -0.0000136  -0.9041214   0.3709168
2.4589456    -1.0003086  -0.0049430   0.0000452   0.0003580  -0.0000015  -0.0000055  -0.9035454   0.3719175
2.4891740    -1.0002895  -0.0050782   0.0000319   0.0003615   0.0000065   0.0000046  -0.9030067   0.3729132
2.5197740    -1.0003682  -0.0050965   0.0000381   0.0003763  -0.0000101  -0.0000049  -0.9025121   0.3739415
2.5507502    -1.0003391  -0.0051415   0.0000496   0.0003793  -0.0000041   0.0000006  -0.9019500   0.3748543
2.5821072    -1.0004423  -0.0051894   0.0000522   0.0003868   0.0000005  -0.0000009  -0.9013914   0.3758758
2.6138496    -1.0003053  -0.0052888   0.0000457   0.0003848  -0.0000073  -0.0000027  -0.9007222   0.3768633
2.6459823    -1.0003202  -0.0054245   0.0000347   0.0004036  -0.0000029   0.0000048  -0.9001987   0.3779199
2.6785100    -1.0003394  -0.0053474   0.0000438   0.0003937  -0.0000082  -0.0000121  -0.8996597   0.3790409
2.7114376    -1.0004288  -0.0054231   0.0000604   0.0004080  -0.0000063  -0.0000062  -0.8990225   0.3800620
2.7447699    -1.0003337  -0.0053873   0.0000436   0.0003985   0.0000017  -0.0000063  -0.8984440   0.3810689
2.7785120    -1.0004035  -0.0055932   0.0000565   0.0003942  -0.0000026  -0.0000068  -0.8978285   0.3821643
2.8126689    -1.0002895  -0.0055227   0.0000502   0.0004162  -0.0000122   0.0000035  -0.8973122   0.3833147
2.8472457    -1.0004154  -0.0055522   0.0000535   0.0004279  -0.0000035  -0.0000070  -0.8967607   0.3844286
2.8822476    -1.0003386  -0.0058214   0.0000507   0.0004183   0.0000060   0.0000022  -0.8961782   0.3855124
2.9176798    -1.0004069  -0.0059328   0.0000404   0.0004308  -0.0000007  -0.0000141  -0.8955195   0.3866086
2.9535475    -1.0005152  -0.0058761   0.0000480   0.0004362  -0.0000058  -0.0000054  -0.8949483   0.3878070
2.9898562    -1.0003888  -0.0059538   0.0000521   0.0004438  -0.0000028  -0.0000049  -0.8942470   0.3890268
3.0266112    -1.0004641  -0.0060528   0.0000468   0.0004455  -0.0000014  -0.0000102  -0.8936296   0.3901293
3.0638180    -1.0003211  -0.0060739   0.0000548   0.0004452  -0.0000027  -0.0000106  -0.8929854   0.3913348
3.1014823    -1.0004471  -0.0061311   0.0000327   0.0004469   0.0000122   0.0000001  -0.8923790   0.3926033
3.1396096    -1.0004030  -0.0062131   0.0000334   0.0004707   0.0000007  -0.0000151  -0.8916534   0.3937399
3.1782055    -1.0003451  -0.0062484   0.0000497   0.0004644  -0.0000052  -0.0000060  -0.8910269   0.3950064
3.2172760    -1.0004348  -0.0064148   0.0000277   0.0004713  -0.0000021  -0.0000025  -0.8903442   0.3962763
3.2568267    -1.0005324  -0.0063900   0.0000394   0.0004830   0.0000000   0.0000010  -0.8897056   0.3975141
3.2968637    -1.0004666  -0.0065648   0.0000434   0.0004823   0.0000079  -0.0000071  -0.8889123   0.3988380
3.3373928    -1.0003796  -0.0066724   0.0000488   0.0004912  -0.0000055  -0.0000043  -0.8882090   0.4000991
3.3784202    -1.0004065  -0.0067406   0.0000400   0.0004904   0.0000017  -0.0000115  -0.8874257   0.4014749
3.4199519    -1.0004597  -0.0068128   0.0000510   0.0004886  -0.0000018  -0.0000072  -0.8867184   0.4027799
3.4619942    -1.0005001  -0.0068735   0.0000358   0.0005184   0.0000094  -0.0000015  -0.8859021   0.4040620
3.5045533    -1.0004348  -0.0069141   0.0000576   0.0005147  -0.0000130  -0.0000043  -0.8851955   0.4055343
3.5476356    -1.0003598  -0.0070168   0.0000411   0.0005121  -0.0000032  -0.0000072  -0.8844131   0.4068135
3.5912475    -1.0004893  -0.0070463   0.0000402   0.0005211   0.0000050  -0.0000068  -0.8835820   0.4081858
3.6353956    -1.0003774  -0.0071270   0.0000492   0.0005262  -0.0000033   0.0000033  -0.8828196   0.4096963
3.6800864    -1.0004356  -0.0071843   0.0000486   0.0005420  -0.0000019  -0.0000012  -0.8820544   0.4111741
3.7253266    -1.0004419  -0.0074087   0.0000391   0.0005353  -0.0000012   0.0000029  -0.8812237   0.4125975
3.7711229    -1.0005815  -0.0073238   0.0000547   0.0005522   0.0000036  -0.0000073  -0.8804596   0.4140384
3.8174822    -1.0005164  -0.0074261   0.0000478   0.0005496   0.0000054  -0.0000037  -0.8795996   0.4154965
3.8644115    -1.0004903  -0.0076262   0.0000455   0.0005534  -0.0000027  -0.0000005  -0.8788628   0.4170898
3.9119176    -1.0004690  -0.0076461   0.0000403   0.0005751   0.0000050  -0.0000047  -0.8780034   0.4186069
3.9600077    -1.0005093  -0.0078470   0.0000375   0.0005787  -0.0000003  -0.0000106  -0.8772529   0.4201030
4.0086890    -1.0005420  -0.0077624   0.0000561   0.0005885  -0.0000001  -0.0000011  -0.8762245   0.4216955
4.0579688    -1.0005130  -0.0079717   0.0000535   0.0005819   0.0000105  -0.0000087  -0.8753939   0.4232443
4.1078544    -1.0004903  -0.0080659   0.0000639   0.0006106   0.0000009  -0.0000062  -0.8745147   0.4247613
4.1583532    -1.0004537  -0.0080471   0.0000402   0.0005976  -0.0000076  -0.0000134  -0.8735491   0.4263804
4.2094729    -1.0004951  -0.0082213   0.0000369   0.0006100  -0.0000130  -0.0000085  -0.8727399   0.4279787
4.2612209    -1.0005684  -0.0082555   0.0000390   0.0006134   0.0000049  -0.0000003  -0.8717528   0.4295703
4.3136051    -1.0005977  -0.0083580   0.0000435   0.0006342   0.0000094  -0.0000038  -0.8707551   0.4312195
4.3666333    -1.0004986  -0.0084150   0.0000366   0.0006376  -0.0000042  -0.0000094  -0.8698497   0.4329018
4.4203134    -1.0004935  -0.0086284   0.0000423   0.0006464  -0.0000094  -0.0000055  -0.8687537   0.4345216
4.4746534    -1.0005768  -0.0087640   0.0000498   0.0006538  -0.0000100  -0.0000040  -0.8676684   0.4362446
4.5296613    -1.0006730  -0.0087359   0.0000504   0.0006648  -0.0000140  -0.0000062  -0.8666960   0.4379928
4.5853455    -1.0004877  -0.0089135   0.0000519   0.0006603   0.0000126  -0.0000056  -0.8655878   0.4397037
4.6417143    -1.0005664  -0.0090441   0.0000536   0.0006883   0.0000038  -0.0000010  -0.8644354   0.4412928
4.6987760    -1.0005870  -0.0090785   0.0000427   0.0006865  -0.0000146  -0.0000077  -0.8633619   0.4429503
4.7565392    -1.0004950  -0.0091988   0.0000623   0.0006928  -0.0000048  -0.0000118  -0.8622112   0.4446939
4.8150125    -1.0006907  -0.0093045   0.0000370   0.0007080   0.0000012  -0.0000054  -0.8610678   0.4463435
4.8742045    -1.0004872  -0.0094512   0.0000488   0.0007056   0.0000013  -0.0000100  -0.8598778   0.4479819
4.9341243    -1.0007517  -0.0094694   0.0000393   0.0007273  -0.0000079  -0.0000109  -0.8588102   0.4494953
4.9947807    -1.0005749  -0.0097281   0.0000522   0.0007287  -0.0000006  -0.0000013  -0.8578174   0.4510817
5.0561827    -1.0006123  -0.0097136   0.0000493   0.0007361  -0.0000007  -0.0000055  -0.8568059   0.4527803
5.1183396    -1.0006237  -0.0098681   0.0000545   0.0007466   0.0000014  -0.0000067  -0.8558557   0.4544847
5.1812606    -1.0006075  -0.0099809   0.0000469   0.0007452   0.0000041   0.0000007  -0.8549632   0.4562606
5.2449550    -1.0005514  -0.0100399   0.0000480   0.0007564  -0.0000038  -0.0000165  -0.8540537   0.4582926
5.3094325    -1.0006325  -0.0101995   0.0000542   0.0007822  -0.0000002  -0.0000129  -0.8530595   0.4601084
5.3747026    -1.0006663  -0.0104485   0.0000447   0.0007857  -0.0000032  -0.0000010  -0.8520304   0.4623129
5.4407751    -1.0006961  -0.0104777   0.0000415   0.0007925   0.0000050  -0.0000045  -0.8508710   0.4642557
5.5076599    -1.0006935  -0.0105597   0.0000401   0.0008085  -0.0000117  -0.0000096  -0.8497691   0.4663224
5.5753669    -1.0006865  -0.0106384   0.0000477   0.0008163   0.0000046  -0.0000046  -0.8485973   0.4684798
5.6439062    -1.0006543  -0.0109243   0.0000499   0.0008150   0.0000020  -0.0000020  -0.8474325   0.4705647
5.7132881    -1.0005932  -0.0109751   0.0000519   0.0008332  -0.0000053  -0.0000021  -0.8461542   0.4727491
5.7835229    -1.0008177  -0.0111045   0.0000410   0.0008272   0.0000120  -0.0000015  -0.8448744   0.4749231
5.8546211    -1.0007894  -0.0112925   0.0000505   0.0008568   0.0000019  -0.0000059  -0.8436650   0.4771559
5.9265934    -1.0006481  -0.0113603   0.0000704   0.0008639   0.0000031  -0.0000032  -0.8422969   0.4793258
5.9994504    -1.0007449  -0.0115634   0.0000410   0.0008748  -0.0000047  -0.0000054  -0.8409209   0.4814409
6.0732031    -1.0007418  -0.0117145   0.0000528   0.0008872  -0.0000113  -0.0000100  -0.8395623   0.4836481
6.1478624    -1.0006854  -0.0118379   0.0000517   0.0009013   0.0000063  -0.0000045  -0.8381859   0.4858738
6.2234396    -1.0006310  -0.0118990   0.0000416   0.0008940  -0.0000013  -0.0000036  -0.8366054   0.4881844
6.2999458    -1.0006656  -0.0119994   0.0000390   0.0009175  -0.0000015  -0.0000074  -0.8352632   0.4904485
6.3773925    -1.0007354  -0.0122245   0.0000644   0.0009137  -0.0000065  -0.0000109  -0.8337530   0.4927246
6.4557914    -1.0008076  -0.0123840   0.0000516   0.0009461   0.0000019  -0.0000044  -0.8322471   0.4949631
6.5351539    -1.0008284  -0.0124332   0.0000526   0.0009457  -0.0000016   0.0000001  -0.8307492   0.4973691
6.6154922    -1.0008920  -0.0126257   0.0000484   0.0009724   0.0000017  -0.0000067  -0.8291662   0.4997310
6.6968180    -1.0007815  -0.0127723   0.0000588   0.0009726  -0.0000013  -0.0000054  -0.8275994   0.5021189
6.7791436    -1.0007288  -0.0129130   0.0000532   0.0009812  -0.0000036  -0.0000061  -0.8260330   0.5044637
6.8624812    -1.0008066  -0.0131005   0.0000472   0.0009797  -0.0000017  -0.0000108  -0.8244187   0.5069328
6.9468433    -1.0006704  -0.0132574   0.0000482   0.0010145  -0.0000075   0.0000006  -0.8228260   0.5093485
7.0322425    -1.0007389  -0.0133315   0.0000407   0.0010133  -0.0000001  -0.0000017  -0.8211146   0.5118158
7.1186916    -1.0008547  -0.0135423   0.0000513   0.0010431   0.0000055  -0.0000068  -0.8194095   0.5143454
7.2062034    -1.0007332  -0.0136333   0.0000507   0.0010455  -0.0000054  -0.0000028  -0.8176992   0.5169044
7.2947909    -1.0007419  -0.0138021   0.0000649   0.0010562  -0.0000060  -0.0000003  -0.8159561   0.5194736
7.3844675    -1.0007811  -0.0140174   0.0000604   0.0010711  -0.0000109  -0.0000018  -0.8142863   0.5220747
7.4752466    -1.0007658  -0.0142349   0.0000379   0.0010885   0.0000062  -0.0000064  -0.8124937   0.5246904
7.5671416    -1.0007700  -0.0143510   0.0000515   0.0011002  -0.0000101   0.0000033  -0.8107805   0.5273408
7.6601662    -1.0007649  -0.0145448   0.0000469   0.0011123  -0.0000032  -0.0000058  -0.8089321   0.5300260
7.7543345    -1.0008794  -0.0146725   0.0000378   0.0011217  -0.0000011  -0.0000027  -0.8070409   0.5328550
7.8496604    -1.0009194  -0.0147312   0.0000378   0.0011225  -0.0000081  -0.0000079  -0.8052010   0.5356596
7.9461581    -1.0008653  -0.0150077   0.0000559   0.0011516  -0.0000041  -0.0000001  -0.8031845   0.5385086
8.0438422    -1.0009045  -0.0151476   0.0000470   0.0011559  -0.0000019   0.0000034  -0.8012046   0.5413537
8.1427270    -1.0008992  -0.0153476   0.0000533   0.0011810   0.0000042   0.0000010  -0.7990345   0.5443276
8.2428275    -1.0008781  -0.0154882   0.0000364   0.0011864   0.0000016   0.0000028  -0.7968067   0.5471867
8.3441586    -1.0008613  -0.0158334   0.0000514   0.0012118  -0.0000017   0.0000017  -0.7946318   0.5499687
8.4467353    -1.0009684  -0.0159180   0.0000273   0.0012073   0.0000085  -0.0000037  -0.7923743   0.5529673
8.5505731    -1.0009084  -0.0160237   0.0000556   0.0012431   0.0000036  -0.0000037  -0.7900742   0.5557386
8.6556873    -1.0009199  -0.0163325   0.0000412   0.0012512   0.0000022  -0.0000069  -0.7877981   0.5586649
8.7620937    -1.0009268  -0.0164638   0.0000507   0.0012561  -0.0000146  -0.0000022  -0.7855033   0.5615264
8.8698082    -1.0009248  -0.0167604   0.0000530   0.0012969   0.0000006  -0.0000076  -0.7831491   0.5644380
8.9788469    -1.0009136  -0.0168307   0.0000555   0.0013094   0.0000057  -0.0000060  -0.7808526   0.5673655
9.0892260    -1.0008705  -0.0171534   0.0000525   0.0013195  -0.0000017  -0.0000065  -0.7784899   0.5703176
9.2009621    -1.0009925  -0.0172780   0.0000570   0.0013199  -0.0000012  -0.0000011  -0.7759998   0.5733714
9.3140717    -1.0009729  -0.0175237   0.0000481   0.0013502   0.0000038   0.0000058  -0.7735743   0.5763568
9.4285718    -1.0008680  -0.0177137   0.0000346   0.0013645  -0.0000053  -0.0000121  -0.7711036   0.5794398
9.5444795    -1.0010091  -0.0179299   0.0000472   0.0013669  -0.0000082   0.0000062  -0.7685506   0.5825374
9.6618121    -1.0009915  -0.0180660   0.0000570   0.0014089   0.0000018  -0.0000043  -0.7660223   0.5856292
9.7805870    -1.0009651  -0.0183221   0.0000537   0.0014172   0.0000009   0.0000032  -0.7634060   0.5888029
9.9008221    -1.0009890  -0.0184894   0.0000461   0.0014224   0.0000039  -0.0000012  -0.7607542   0.5920226
10.0225353   -1.0009788  -0.0187652   0.0000530   0.0014531  -0.0000049  -0.0000083  -0.7581033   0.5951324
10.1457447   -1.0009511  -0.0190116   0.0000578   0.0014634  -0.0000039  -0.0000058  -0.7553612   0.5984296
10.2704688   -1.0010250  -0.0191978   0.0000470   0.0014763  -0.0000041  -0.0000085  -0.7526769   0.6017045
10.3967261   -1.0010486  -0.0194924   0.0000328   0.0014970  -0.0000061  -0.0000066  -0.7498397   0.6050384
10.5245356   -1.0009681  -0.0196604   0.0000534   0.0015208  -0.0000079  -0.0000076  -0.7469667   0.6082174
10.6539162   -1.0010222  -0.0198159   0.0000430   0.0015509   0.0000029   0.0000029  -0.7440703   0.6115378
10.7848873   -1.0010844  -0.0201079   0.0000488   0.0015459   0.0000005  -0.0000063  -0.7411368   0.6149778
10.9174685   -1.0010823  -0.0203328   0.0000390   0.0015705  -0.0000070  -0.0000035  -0.7381281   0.6183689
11.0516796   -1.0010939  -0.0206283   0.0000503   0.0016017  -0.0000045   0.0000037  -0.7349763   0.6217995
11.1875405   -1.0010023  -0.0208811   0.0000571   0.0016330   0.0000009  -0.0000076  -0.7319551   0.6253218
11.3250716   -1.0010862  -0.0211303   0.0000532   0.0016315  -0.0000013  -0.0000002  -0.7288001   0.6287838
11.4642934   -1.0010381  -0.0214140   0.0000395   0.0016472  -0.0000070  -0.0000020  -0.7255736   0.6322627
11.6052267   -1.0011117  -0.0216673   0.0000488   0.0016710  -0.0000104  -0.0000051  -0.7223402   0.6358978
11.7478926   -1.0010064  -0.0218339   0.0000463   0.0016871  -0.0000036   0.0000009  -0.7190147   0.6394037
11.8923122   -1.0010425  -0.0222007   0.0000464   0.0017143   0.0000007   0.0000002  -0.7156511   0.6429700
12.0385073   -1.0010827  -0.0225373   0.0000583   0.0017295  -0.0000075  -0.0000003  -0.7121713   0.6466395
12.1864995   -1.0010413  -0.0226512   0.0000396   0.0017627  -0.0000044  -0.0000095  -0.7086981   0.6502674
12.3363111   -1.0010819  -0.0229382   0.0000514   0.0017534  -0.0000098  -0.0000015  -0.7052440   0.6539590
12.4879643   -1.0010713  -0.0232025   0.0000461   0.0017896  -0.0000047  -0.0000026  -0.7015574   0.6576797
12.6414818   -1.0011187  -0.0235159   0.0000396   0.0018274   0.0000050  -0.0000068  -0.6978449   0.6613944
12.7968866   -1.0011497  -0.0237872   0.0000587   0.0018425   0.0000019  -0.0000131  -0.6941116   0.6651428
12.9542018   -1.0011277  -0.0240847   0.0000513   0.0018567   0.0000027   0.0000004  -0.6903715   0.6689079
13.1134509   -1.0011792  -0.0243356   0.0000389   0.0018850  -0.0000100  -0.0000035  -0.6864955   0.6727020
13.2746577   -1.0011358  -0.0245599   0.0000528   0.0019003  -0.0000033  -0.0000037  -0.6825288   0.6765492
13.4378462   -1.0010262  -0.0248603   0.0000532   0.0019208   0.0000116  -0.0000093  -0.6785797   0.6805044
13.6030409   -1.0011019  -0.0251257   0.0000402   0.0019557   0.0000024  -0.0000091  -0.6744924   0.6843455
13.7702663   -1.0011330  -0.0255090   0.0000514   0.0019671  -0.0000078   0.0000053  -0.6703140   0.6882447
13.9395475   -1.0011026  -0.0258058   0.0000478   0.0020075  -0.0000009  -0.0000010  -0.6661352   0.6921232
14.1109097   -1.0009637  -0.0260892   0.0000491   0.0020203  -0.0000038  -0.0000051  -0.6618006   0.6961022
14.2843785   -1.0011827  -0.0263850   0.0000556   0.0020473   0.0000052   0.0000030  -0.6574447   0.7000021
14.4599797   -1.0012170  -0.0267832   0.0000378   0.0020816   0.0000036  -0.0000067  -0.6530176   0.7040575
14.6377397   -1.0012230  -0.0270071   0.0000571   0.0020952  -0.0000093  -0.0000076  -0.6485291   0.7080584
14.8176850   -1.0012382  -0.0273732   0.0000488   0.0021143  -0.0000131   0.0000027  -0.6439510   0.7120446
14.9998423   -1.0011629  -0.0277489   0.0000595   0.0021379  -0.0000022  -0.0000131  -0.6392536   0.7161155
15.1842390   -1.0012541  -0.0280267   0.0000464   0.0021826  -0.0000130   0.0000049  -0.6344815   0.7202062
15.3709024   -1.0011654  -0.0283338   0.0000430   0.0022049  -0.0000048   0.0000017  -0.6297241   0.7242485
15.5598606   -1.0012162  -0.0287514   0.0000390   0.0022314  -0.0000054  -0.0000108  -0.6248621   0.7283607
15.7511417   -1.0012708  -0.0290501   0.0000256   0.0022700   0.0000019  -0.0000063  -0.6198680   0.7325479
15.9447743   -1.0011060  -0.0293387   0.0000451   0.0022771   0.0000020  -0.0000005  -0.6148227   0.7366409
16.1407872   -1.0010930  -0.0296627   0.0000594   0.0023140  -0.0000153  -0.0000110  -0.6095775   0.7408179
16.3392097   -1.0012156  -0.0300948   0.0000446   0.0023453  -0.0000056   0.0000011  -0.6043237   0.7450111
16.5400716   -1.0011631  -0.0304346   0.0000495   0.0023718  -0.0000077   0.0000002  -0.5990279   0.7492048
16.7434026   -1.0012734  -0.0307540   0.0000500   0.0023859  -0.0000112  -0.0000024  -0.5935454   0.7533613
16.9492333   -1.0012990  -0.0311183   0.0000462   0.0024347   0.0000049   0.0000022  -0.5880423   0.7577115
17.1575942   -1.0012602  -0.0314990   0.0000553   0.0024613  -0.0000039   0.0000064  -0.5824226   0.7618352
17.3685166   -1.0012449  -0.0319485   0.0000372   0.0024719  -0.0000002   0.0000013  -0.5767305   0.7661086
17.5820320   -1.0012687  -0.0322175   0.0000336   0.0025059  -0.0000036  -0.0000010  -0.5708657   0.7702965
17.7981721   -1.0012403  -0.0326412   0.0000437   0.0025422  -0.0000008  -0.0000063  -0.5649477   0.7746078
18.0169693   -1.0012464  -0.0331232   0.0000333   0.0025715  -0.0000148   0.0000015  -0.5589829   0.7788677
18.2384562   -1.0011518  -0.0334304   0.0000445   0.0026129  -0.0000088  -0.0000066  -0.5528978   0.7832294
18.4626659   -1.0012711  -0.0338315   0.0000435   0.0026347   0.0000017  -0.0000043  -0.5466180   0.7874117
18.6896319   -1.0013017  -0.0342716   0.0000450   0.0026564  -0.0000066   0.0000047  -0.5403799   0.7916946
18.9193880   -1.0012698  -0.0346713   0.0000451   0.0027059  -0.0000040  -0.0000020  -0.5338648   0.7960754
19.1519686   -1.0012483  -0.0351056   0.0000360   0.0027139   0.0000009  -0.0000067  -0.5272533   0.8003731
19.3874083   -1.0012537  -0.0355260   0.0000436   0.0027629  -0.0000090  -0.0000072  -0.5205907   0.8046701
19.6257423   -1.0011710  -0.0359312   0.0000374   0.0027877  -0.0000034  -0.0000054  -0.5139282   0.8090026
19.8670063   -1.0012395  -0.0364326   0.0000330   0.0028267  -0.0000003  -0.0000053  -0.5070653   0.8132444
20.1112361   -1.0012828  -0.0366869   0.0000354   0.0028703   0.0000014   0.0000039  -0.5000667   0.8175503
20.3584684   -1.0012587  -0.0371773   0.0000404   0.0029058  -0.0000109  -0.0000031  -0.4928451   0.8218131
20.6087399   -1.0012549  -0.0376207   0.0000165   0.0029326   0.0000064  -0.0000074  -0.4856078   0.8260492
20.8620881   -1.0012345  -0.0381220   0.0000318   0.0029732  -0.0000070   0.0000015  -0.4781752   0.8303917
21.1185507   -1.0013424  -0.0386944   0.0000327   0.0030107  -0.0000055   0.0000029  -0.4706816   0.8346281
21.3781661   -1.0012422  -0.0390141   0.0000339   0.0030380  -0.0000035  -0.0000010  -0.4630449   0.8387695
21.6409730   -1.0013374  -0.0395095   0.0000303   0.0030747  -0.0000039  -0.0000078  -0.4552968   0.8429882
21.9070107   -1.0013710  -0.0399263   0.0000333   0.0031304  -0.0000070   0.0000040  -0.4474480   0.8472129
22.1763188   -1.0012718  -0.0403667   0.0000334   0.0031576  -0.0000040   0.0000040  -0.4393970   0.8514093
22.4489376   -1.0013521  -0.0409065   0.0000414   0.0031846  -0.0000043  -0.0000038  -0.4312338   0.8556008
22.7249077   -1.0012694  -0.0413374   0.0000303   0.0032321  -0.0000006  -0.0000028  -0.4229033   0.8597198
23.0042705   -1.0013294  -0.0418873   0.0000385   0.0032850  -0.0000025   0.0000032  -0.4144679   0.8638397
23.2870675   -1.0013096  -0.0423968   0.0000206   0.0033066  -0.0000063   0.0000051  -0.4059703   0.8679089
23.5733409   -1.0012905  -0.0429192   0.0000319   0.0033571  -0.0000101  -0.0000119  -0.3971808   0.8719871
23.8631337   -1.0013212  -0.0434445   0.0000212   0.0033891  -0.0000095   0.0000009  -0.3882574   0.8759217
24.1564889   -1.0012688  -0.0439360   0.0000195   0.0034257  -0.0000145   0.0000020  -0.3793041   0.8799030
24.4534504   -1.0013778  -0.0443830   0.0000349   0.0034696  -0.0000039  -0.0000033  -0.3701540   0.8837846
24.7540625   -1.0012204  -0.0449441   0.0000119   0.0035215  -0.0000011  -0.0000056  -0.3608652   0.8877116
25.0583701   -1.0013143  -0.0455500   0.0000217   0.0035677   0.0000015  -0.0000007  -0.3513553   0.8915770
25.3664186   -1.0012683  -0.0460452   0.0000224   0.0036095  -0.0000058  -0.0000061  -0.3416299   0.8953736
25.6782541   -1.0012600  -0.0466204   0.0000194   0.0036463   0.0000039  -0.0000031  -0.3318719   0.8991532
25.9939230   -1.0012592  -0.0472100   0.0000184   0.0037003  -0.0000041  -0.0000050  -0.3219447   0.9027781
26.3134725   -1.0012085  -0.0478692   0.0000183   0.0037559   0.0000036  -0.0000035  -0.3118192   0.9063520
26.6369503   -1.0012570  -0.0483024   0.0000061   0.0037853  -0.0000030  -0.0000139  -0.3015927   0.9099376
26.9644047   -1.0012810  -0.0488387   0.0000046   0.0038216   0.0000019   0.0000037  -0.2911556   0.9134289
27.2958846   -1.0013079  -0.0494240   0.0000062   0.0038819  -0.0000076   0.0000021  -0.2805167   0.9167797
27.6314394   -1.0013102  -0.0501248   0.0000151   0.0039415  -0.0000017  -0.0000051  -0.2698048   0.9201340
27.9711193   -1.0012801  -0.0506858   0.0000069   0.0039774   0.0000071  -0.0000031  -0.2588429   0.9232956
28.3149750   -1.0011734  -0.0511991  -0.0000112   0.0040196   0.0000039  -0.0000051  -0.2477763   0.9264440
28.6630578   -1.0011911  -0.0518850   0.0000044   0.0040837  -0.0000087  -0.0000003  -0.2365017   0.9294491
29.0154196   -1.0012013  -0.0525066   0.0000051   0.0041256  -0.0000064  -0.0000030  -0.2250419   0.9323611
29.3721131   -1.0012380  -0.0531824   0.0000009   0.0041747   0.0000014  -0.0000039  -0.2134533   0.9351741
29.7331915   -1.0011928  -0.0536256  -0.0000084   0.0042360  -0.0000054  -0.0000036  -0.2016027   0.9379710
30.0987087   -1.0012391  -0.0543544   0.0000050   0.0042765  -0.0000033   0.0000123  -0.1897006   0.9405994
30.4687194   -1.0012754  -0.0549814   0.0000001   0.0043336  -0.0000021  -0.0000058  -0.1775500   0.9431766
30.8432786   -1.0012077  -0.0556067  -0.0000119   0.0043765  -0.0000102   0.0000030  -0.1652043   0.9454509
31.2224424   -1.0011557  -0.0563266  -0.0000206   0.0044334   0.0000061   0.0000027  -0.1527992   0.9476807
31.6062674   -1.0011262  -0.0570585  -0.0000177   0.0044970  -0.0000091  -0.0000072  -0.1400337   0.9498177
31.9948108   -1.0011964  -0.0577419  -0.0000096   0.0045494   0.0000000   0.0000043  -0.1271896   0.9518871
32.3881306   -1.0011660  -0.0583741  -0.0000219   0.0045958  -0.0000007  -0.0000042  -0.1141830   0.9537462
32.7862857   -1.0011458  -0.0589952  -0.0000223   0.0046716  -0.0000070  -0.0000062  -0.1009629   0.9553778
33.1893353   -1.0011521  -0.0598516  -0.0000114   0.0047151  -0.0000018  -0.0000006  -0.0875903   0.9570247
33.5973398   -1.0011710  -0.0605185  -0.0000214   0.0047792   0.0000037  -0.0000116  -0.0740442   0.9583378
34.0103599   -1.0011607  -0.0611724  -0.0000174   0.0048479  -0.0000011   0.0000036  -0.0602129   0.9594876
34.4284574   -1.0009598  -0.0618392  -0.0000156   0.0048957  -0.0000075  -0.0000028  -0.0465159   0.9606917
34.8516946   -1.0010080  -0.0627055  -0.0000352   0.0049556  -0.0000053   0.0000028  -0.0322434   0.9616950
35.2801349   -1.0009618  -0.0633487  -0.0000246   0.0050095  -0.0000032  -0.0000036  -0.0177784   0.9624635
35.7138420   -1.0010179  -0.0642265  -0.0000375   0.0050803  -0.0000069  -0.0000060  -0.0032039   0.9628964
36.1528808   -1.0009228  -0.0649778  -0.0000509   0.0051382  -0.0000086  -0.0000063   0.0115347   0.9632563
36.5973168   -1.0008927  -0.0657806  -0.0000386   0.0052037   0.0000000  -0.0000055   0.0264333   0.9633738
37.0472164   -1.0009191  -0.0666373  -0.0000526   0.0052664  -0.0000010  -0.0000025   0.0415912   0.9631242
37.5026467   -1.0008316  -0.0672951  -0.0000766   0.0053339   0.0000005  -0.0000051   0.0569194   0.9628974
37.9636757   -1.0008197  -0.0681019  -0.0000595   0.0054080  -0.0000025  -0.0000048   0.0726387   0.9619464
38.4303722   -1.0008134  -0.0690256  -0.0000599   0.0054671   0.0000012  -0.0000023   0.0881824   0.9611452
38.9028060   -1.0008377  -0.0698622  -0.0000645   0.0055390   0.0000032   0.0000041   0.1040381   0.9599848
39.3810475   -1.0008120  -0.0706129  -0.0000616   0.0055859  -0.0000019   0.0000034   0.1201362   0.9586652
39.8651681   -1.0007703  -0.0714485  -0.0000555   0.0056846  -0.0000008   0.0000047   0.1362896   0.9569852
40.3552402   -1.0007061  -0.0722346  -0.0000739   0.0057465   0.0000052   0.0000025   0.1527017   0.9550329
40.8513368   -1.0006591  -0.0729450  -0.0000632   0.0058217  -0.0000009  -0.0000083   0.1693457   0.9526915
41.3535320   -1.0006543  -0.0740829  -0.0000857   0.0058761  -0.0000069  -0.0000035   0.1860114   0.9501695
41.8619009   -1.0006322  -0.0749202  -0.0001009   0.0059768  -0.0000012   0.0000013   0.2030277   0.9472720
42.3765193   -1.0005463  -0.0756523  -0.0000981   0.0060391   0.0000010  -0.0000008   0.2201222   0.9440599
42.8974639   -1.0005098  -0.0766177  -0.0000988   0.0061075  -0.0000026   0.0000052   0.2373514   0.9404513
43.4248127   -1.0004541  -0.0776518  -0.0001054   0.0061762   0.0000010  -0.0000060   0.2547651   0.9366341
43.9586443   -1.0004583  -0.0785715  -0.0001225   0.0062621   0.0000045  -0.0000092   0.2723270   0.9323410
44.4990385   -1.0004672  -0.0793940  -0.0001046   0.0063433  -0.0000060   0.0000010   0.2900678   0.9276746
45.0460758   -1.0002834  -0.0804123  -0.0001342   0.0064227   0.0000030   0.0000042   0.3079234   0.9226692
45.5998380   -1.0002608  -0.0812759  -0.0001226   0.0065022  -0.0000014  -0.0000026   0.3258964   0.9172927
46.1604077   -1.0002543  -0.0823346  -0.0001223   0.0065874  -0.0000057  -0.0000096   0.3439905   0.9114112
46.7278686   -1.0002639  -0.0833510  -0.0001302   0.0066607  -0.0000078  -0.0000061   0.3622095   0.9051561
47.3023055   -1.0001647  -0.0843261  -0.0001421   0.0067469  -0.0000035   0.0000063   0.3805383   0.8984954
47.8838040   -1.0001065  -0.0853326  -0.0001529   0.0068307   0.0000035  -0.0000116   0.3990787   0.8913030
48.4724511   -1.0000813  -0.0863757  -0.0001423   0.0069158  -0.0000043   0.0000037   0.4175483   0.8837820
49.0683345   -0.9999797  -0.0873311  -0.0001426   0.0070022  -0.0000065   0.0000016   0.4362200   0.8757527
49.6715433   -0.9999728  -0.0883611  -0.0001458   0.0071088  -0.0000056  -0.0000091   0.4548566   0.8672616
50.2821675   -0.9998888  -0.0894983  -0.0001567   0.0071771  -0.0000049  -0.0000026   0.4737366   0.8581977
50.9002982   -0.9996717  -0.0904886  -0.0001676   0.0072775  -0.0000001  -0.0000023   0.4925113   0.8486204
51.5260277   -0.9997745  -0.0915485  -0.0001681   0.0073742   0.0000016  -0.0000145   0.5114078   0.8386844
52.1594495   -0.9996283  -0.0926565  -0.0001909   0.0074632   0.0000007  -0.0000111   0.5302185   0.8281260
52.8006581   -0.9995212  -0.0937570  -0.0001826   0.0075439   0.0000019  -0.0000070   0.5491565   0.8169084
53.4497492   -0.9994874  -0.0949454  -0.0001974   0.0076456   0.0000038  -0.0000035   0.5682259   0.8053365
54.1068198   -0.9995016  -0.0960155  -0.0002154   0.0077538   0.0000014  -0.0000070   0.5870810   0.7931806
54.7719678   -0.9994006  -0.0972196  -0.0001995   0.0078362  -0.0000080  -0.0000108   0.6059003   0.7804755
55.4452927   -0.9992152  -0.0982627  -0.0002089   0.0079376  -0.0000031   0.0000036   0.6248029   0.7668483
56.1268950   -0.9992225  -0.0995730  -0.0002247   0.0080407  -0.0000012  -0.0000006   0.6436129   0.7528409
56.8168763   -0.9991460  -0.1006301  -0.0002286   0.0081557  -0.0000113  -0.0000002   0.6623330   0.7382715
57.5153398   -0.9990736  -0.1018572  -0.0002268   0.0082499  -0.0000006  -0.0000099   0.6809259   0.7230836
58.2223896   -0.9988269  -0.1030708  -0.0002389   0.0083622   0.0000062  -0.0000063   0.6993919   0.7071741
58.9381314   -0.9989020  -0.1043410  -0.0002619   0.0084567   0.0000077  -0.0000018   0.7177304   0.6906869
59.6626719   -0.9987877  -0.1055382  -0.0002530   0.0085635   0.0000018  -0.0000044   0.7358872   0.6734457
60.3961194   -0.9986363  -0.1068181  -0.0002688   0.0086805  -0.0000076  -0.0000076   0.7539451   0.6555725
61.1385834   -0.9985396  -0.1080417  -0.0002851   0.0087867   0.0000077  -0.0000151   0.7717916   0.6369847
61.8901746   -0.9983846  -0.1092882  -0.0002835   0.0089208  -0.0000007  -0.0000055   0.7892939   0.6177425
62.6510053   -0.9983468  -0.1107018  -0.0002988   0.0090124  -0.0000042  -0.0000129   0.8065969   0.5978861
63.4211891   -0.9981857  -0.1119536  -0.0002874   0.0091399  -0.0000005   0.0000010   0.8236544   0.5771804
64.2008409   -0.9981704  -0.1132729  -0.0003111   0.0092617  -0.0000013  -0.0000071   0.8403290   0.5559154
64.9900772   -0.9980111  -0.1146748  -0.0003116   0.0093631   0.0000060  -0.0000039   0.8567017   0.5338548
65.7890158   -0.9977886  -0.1158893  -0.0003181   0.0094872   0.0000066  -0.0000067   0.8726612   0.5111127
66.5977759   -0.9977463  -0.1173305  -0.0003198   0.0096220  -0.0000110   0.0000004   0.8881822   0.4875516
67.4164783   -0.9974988  -0.1187594  -0.0003389   0.0097334   0.0000024  -0.0000098   0.9034119   0.4632958
68.2452452   -0.9974256  -0.1200812  -0.0003666   0.0098554  -0.0000016  -0.0000030   0.9180764   0.4384124
69.0842003   -0.9972621  -0.1215177  -0.0003451   0.0099793  -0.0000021  -0.0000152   0.9322427   0.4127304
69.9334689   -0.9970409  -0.1229647  -0.0004007   0.0101207  -0.0000106  -0.0000085   0.9455765   0.3863505
70.7931778   -0.9968915  -0.1246429  -0.0003698   0.0102683   0.0000082  -0.0000021   0.9591080   0.3591561
71.6634552   -0.9967709  -0.1261317  -0.0003768   0.0103717  -0.0000035  -0.0000070   0.9716677   0.3310241
72.5444312   -0.9966072  -0.1275218  -0.0003643   0.0105337   0.0000123   0.0000005   0.9836817   0.3023485
73.4362373   -0.9964643  -0.1291615  -0.0003499   0.0106533  -0.0000012  -0.0000107   0.9948434   0.2729349
74.3390065   -0.9963558  -0.1305134  -0.0004304   0.0107894   0.0000080  -0.0000129   1.0046945   0.2431284
75.2528737   -0.9960693  -0.1320755  -0.0004360   0.0109159  -0.0000040  -0.0000102   1.0143737   0.2123149
76.1779753   -0.9958824  -0.1336870  -0.0004466   0.0110597  -0.0000051  -0.0000124   1.0232854   0.1808396
77.1144493   -0.9957841  -0.1352818  -0.0004487   0.0112085  -0.0000026  -0.0000045   1.0313023   0.1486103
78.0624357   -0.9955397  -0.1367392  -0.0004441   0.0113628  -0.0000029  -0.0000080   1.0384154   0.1157628
79.0220759   -0.9953437  -0.1384382  -0.0004818   0.0115176   0.0000002  -0.0000036   1.0445212   0.0821697
79.9935132   -0.9949918  -0.1402335  -0.0004702   0.0116529   0.0000041  -0.0000131   1.0496229   0.0480313
80.9768926   -0.9948769  -0.1418277  -0.0004898   0.0118158  -0.0000064  -0.0000116   1.0537186   0.0132410
81.9723609   -0.9947160  -0.1434883  -0.0005020   0.0119694   0.0000053  -0.0000071   1.0567157  -0.0222640
82.9800667   -0.9944069  -0.1450806  -0.0004892   0.0121355  -0.0000016  -0.0000180   1.0586042  -0.0582525
84.0001605   -0.9942562  -0.1468908  -0.0005069   0.0122966   0.0000053  -0.0000160   1.0593000  -0.0947391
85.0327946   -0.9940439  -0.1486168  -0.0005394   0.0124572   0.0000022  -0.0000081   1.0586965  -0.1319093
86.0781231   -0.9937909  -0.1503947  -0.0005409   0.0126298   0.0000029  -0.0000101   1.0568105  -0.1694968
87.1363020   -0.9934809  -0.1523041  -0.0005568   0.0127748   0.0000048  -0.0000041   1.0536046  -0.2074041
88.2074894   -0.9932810  -0.1539828  -0.0005558   0.0129637  -0.0000051  -0.0000155   1.0489040  -0.2458368
89.2918452   -0.9930440  -0.1558279  -0.0005808   0.0131127  -0.0000005  -0.0000021   1.0430306  -0.2849234
90.3895312   -0.9926960  -0.1576610  -0.0005853   0.0133066  -0.0000024  -0.0000180   1.0355088  -0.3237174
91.5007114   -0.9924255  -0.1596122  -0.0005942   0.0134832  -0.0000084  -0.0000163   1.0264270  -0.3630294
92.6255515   -0.9921541  -0.1613729  -0.0005995   0.0136532  -0.0000034  -0.0000041   1.0155656  -0.4024850
93.7642195   -0.9918884  -0.1633610  -0.0006221   0.0138276  -0.0000052  -0.0000188   1.0031624  -0.4420937
94.9168855   -0.9916174  -0.1652914  -0.0006244   0.0140162  -0.0000125  -0.0000104   0.9892346  -0.4818269
96.0837215   -0.9913289  -0.1671501  -0.0006232   0.0141905  -0.0000039  -0.0000178   0.9734644  -0.5215695
97.2649017   -0.9909506  -0.1692178  -0.0006251   0.0143913  -0.0000004  -0.0000104   0.9559370  -0.5609835
98.4606024   -0.9905335  -0.1712313  -0.0006451   0.0146031  -0.0000038  -0.0000064   0.9365502  -0.6005025
99.6710021   -0.9903108  -0.1732240  -0.0006528   0.0147771  -0.0000145  -0.0000062   0.9153443  -0.6396754
100.8962816  -0.9898042  -0.1753045  -0.0006503   0.0149990  -0.0000102  -0.0000124   0.8922365  -0.6784421
102.1366237  -0.9895166  -0.1773035  -0.0006744   0.0152011   0.0000052  -0.0000179   0.8671283  -0.7166929
103.3922136  -0.9891150  -0.1795923  -0.0006842   0.0154054  -0.0000096  -0.0000112   0.8401955  -0.7544722
104.6632389  -0.9886297  -0.1816921  -0.0006573   0.0156030  -0.0000105  -0.0000055   0.8113415  -0.7912682
105.9498891  -0.9879244  -0.1837323  -0.0006508   0.0159045  -0.0000069  -0.0000089   0.7803574  -0.8250929
107.2523564  -0.9884184  -0.1856186  -0.0007672   0.0160166  -0.0000016  -0.0000085   0.7458400  -0.8653272
108.5708353  -0.9880199  -0.1879281  -0.0007439   0.0161677  -0.0000106  -0.0000041   0.7121824  -0.8993932
109.9055225  -0.9861319  -0.1905930  -0.0006475   0.0165355   0.0000076  -0.0000064   0.6774515  -0.9319120
111.2566174  -0.9866360  -0.1925682  -0.0007154   0.0167080  -0.0000017  -0.0000120   0.6366632  -0.9623526
112.6243216  -0.9863234  -0.1947359  -0.0007161   0.0169163   0.0000017  -0.0000150   0.5956314  -0.9930429
114.0088393  -0.9858222  -0.1971655  -0.0007228   0.0171431  -0.0000127  -0.0000032   0.5528684  -1.0220177
115.4103773  -0.9855389  -0.1994757  -0.0007276   0.0173686  -0.0000076  -0.0000214   0.5080600  -1.0493846
116.8291446  -0.9850206  -0.2017629  -0.0007357   0.0176037   0.0000125  -0.0000049   0.4616156  -1.0748125
118.2653533  -0.9845613  -0.2040665  -0.0007360   0.0178582  -0.0000004  -0.0000118   0.4131618  -1.0983546
119.7192175  -0.9840251  -0.2065186  -0.0007372   0.0180776  -0.0000147  -0.0000006   0.3630310  -1.1198741
121.1909545  -0.9834923  -0.2088828  -0.0007330   0.0183288  -0.0000096  -0.0000137   0.3112472  -1.1389094
122.6807839  -0.9830129  -0.2114122  -0.0007481   0.0185749  -0.0000186  -0.0000183   0.2578829  -1.1556283
124.1889281  -0.9825187  -0.2138880  -0.0007365   0.0188312   0.0000025  -0.0000021   0.2030196  -1.1697805
125.7156123  -0.9818929  -0.2162801  -0.0007406   0.0190836  -0.0000108  -0.0000053   0.1468018  -1.1813263
127.2610644  -0.9814484  -0.2188155  -0.0007444   0.0193412  -0.0000061  -0.0000096   0.0899457  -1.1898236
128.8255151  -0.9807231  -0.2214711  -0.0007230   0.0195984  -0.0000125  -0.0000101   0.0310541  -1.1954536
130.4091980  -0.9802269  -0.2239913  -0.0007442   0.0198566  -0.0000132  -0.0000125  -0.0282397  -1.1979713
132.0123495  -0.9794920  -0.2264471  -0.0007041   0.0201465  -0.0000062  -0.0000027  -0.0885005  -1.1971293
133.6352088  -0.9789666  -0.2292261  -0.0007121   0.0203924  -0.0000239  -0.0000059  -0.1491135  -1.1931309
135.2780184  -0.9782943  -0.2319713  -0.0006980   0.0206777  -0.0000031  -0.0000057  -0.2103454  -1.1854267
136.9410235  -0.9775055  -0.2346328  -0.0006829   0.0209748  -0.0000093  -0.0000137  -0.2717939  -1.1740384
138.6244722  -0.9769427  -0.2375285  -0.0006732   0.0212365  -0.0000096  -0.0000023  -0.3330388  -1.1591738
140.3286160  -0.9762999  -0.2401509  -0.0006853   0.0215558  -0.0000127  -0.0000127  -0.3943408  -1.1406394
142.0537093  -0.9754018  -0.2427819  -0.0007084   0.0217571  -0.0000183  -0.0000196  -0.4577303  -1.1193078
143.8000095  -0.9748557  -0.2456860  -0.0006273   0.0221126  -0.0000058   0.0000000  -0.5114804  -1.0920313
145.5677774  -0.9738604  -0.2487989  -0.0005399   0.0225294   0.0000058  -0.0000122  -0.5686752  -1.0596310
147.3572769  -0.9732543  -0.2515314  -0.0006163   0.0227157  -0.0000021  -0.0000169  -0.6296031  -1.0274029
149.1687752  -0.9725670  -0.2544057  -0.0005706   0.0230453   0.0000015  -0.0000091  -0.6842854  -0.9897038
151.0025426  -0.9714356  -0.2573631  -0.0005309   0.0233158  -0.0000053  -0.0000193  -0.7376444  -0.9478988
152.8588530  -0.9710534  -0.2604499  -0.0005136   0.0236655  -0.0000013  -0.0000092  -0.7884430  -0.9023780
154.7379834  -0.9701564  -0.2634636  -0.0005013   0.0239365  -0.0000086  -0.0000110  -0.8368112  -0.8532143
156.6402144  -0.9691769  -0.2664642  -0.0004527   0.0243042  -0.0000084  -0.0000061  -0.8822036  -0.8005717
158.5658301  -0.9684409  -0.2696189  -0.0004346   0.0245938  -0.0000037   0.0000147  -0.9241073  -0.7445390
160.5151177  -0.9674048  -0.2725396  -0.0003936   0.0249493   0.0000014  -0.0000065  -0.9630209  -0.6849737
162.4883685  -0.9667989  -0.2759180  -0.0003377   0.0252797   0.0000013  -0.0000028  -0.9967976  -0.6237559
164.4858769  -0.9654605  -0.2789526  -0.0003263   0.0256057   0.0000046  -0.0000033  -1.0278789  -0.5582318
166.5079411  -0.9644477  -0.2820519  -0.0002700   0.0258979  -0.0000070  -0.0000102  -1.0539276  -0.4910024
168.5548630  -0.9635380  -0.2852583  -0.0002058   0.0262602  -0.0000107   0.0000016  -1.0755896  -0.4214285
170.6269483  -0.9624553  -0.2885534  -0.0001678   0.0266264  -0.0000006  -0.0000172  -1.0920161  -0.3500769
172.7245062  -0.9614035  -0.2917820  -0.0001403   0.0269392   0.0000046  -0.0000030  -1.1035268  -0.2774294
174.8478498  -0.9605394  -0.2951474  -0.0000521   0.0272912   0.0000061  -0.0000036  -1.1094082  -0.2032648
176.9972963  -0.9592943  -0.2984254  -0.0000108   0.0276995   0.0000235  -0.0000062  -1.1102204  -0.1277967
179.1731664  -0.9586122  -0.3045850   0.0001601   0.0281436  -0.0000187  -0.0000088  -1.1019377  -0.0580540
181.3757850  -0.9578479  -0.3054246   0.0003366   0.0281249  -0.0000020  -0.0000058  -1.0923748   0.0172629
183.6054809  -0.9558968  -0.3088941   0.0001609   0.0287185  -0.0000115  -0.0000014  -1.0773858   0.0954521
185.8625870  -0.9543411  -0.3124600   0.0002426   0.0290928  -0.0000271  -0.0000083  -1.0548059   0.1676861
188.1474402  -0.9533611  -0.3159926   0.0003052   0.0294510  -0.0000045  -0.0000041  -1.0266452   0.2388777
190.4603817  -0.9519525  -0.3197126   0.0003691   0.0298325  -0.0000241  -0.0000166  -0.9928692   0.3077410
192.8017567  -0.9507836  -0.3233470   0.0004716   0.0301428   0.0000113  -0.0000080  -0.9528826   0.3737659
195.1719148  -0.9493389  -0.3269147   0.0005719   0.0305290  -0.0000411   0.0000164  -0.9079903   0.4365081
197.5712099  -0.9481869  -0.3303261   0.0006540   0.0308595   0.0000064  -0.0000064  -0.8584258   0.4960860
200.0000000  -0.9472999  -0.3340645   0.0007123   0.0313116  -0.0000129  -0.0000066  -0.8026131   0.5505821
