! ListType=Log
# MHZ S RI R 50
0.0010000    -1.0003149   0.0002723   0.0000037  -0.0000062  -0.0000115  -0.0000299  -0.9088780   0.2599563
0.0010123    -1.0003259  -0.0010656   0.0000429  -0.0001028   0.0000121  -0.0000287  -0.9094622   0.2603417
0.0010247    -0.9990514   0.0011242   0.0000622   0.0000537  -0.0000157   0.0000266  -0.9095897   0.2591301
0.0010373    -1.0000732  -0.0000305   0.0000530  -0.0000521  -0.0000085  -0.0000056  -0.9097936   0.2598523
0.0010501    -1.0011239   0.0005116  -0.0000881   0.0000463  -0.0000136  -0.0000118  -0.9091506   0.2596915
0.0010630    -1.0002110  -0.0009933   0.0000240  -0.0000408   0.0000229   0.0000125  -0.9105505   0.2595735
0.0010761    -0.9994616   0.0003711   0.0000484   0.0000181  -0.0000149   0.0000095  -0.9107037   0.2587981
0.0010893    -1.0009772  -0.0011646   0.0000248  -0.0000365   0.0000198  -0.0000037  -0.9110865   0.2599258
0.0011027    -0.9999420   0.0001009   0.0000259   0.0000106   0.0000030  -0.0000187  -0.9110775   0.2587990
0.0011162    -0.9985781   0.0000042   0.0001160  -0.0000129  -0.0000056   0.0000030  -0.9120701   0.2584382
0.0011300    -1.0002797   0.0005337   0.0000229   0.0000382  -0.0000259  -0.0000173  -0.9112969   0.2587179
0.0011439    -1.0000173  -0.0005986   0.0000165  -0.0000611   0.0000190  -0.0000020  -0.9120502   0.2590832
0.0011579    -0.9993551   0.0009430   0.0000495   0.0000766  -0.0000080   0.0000011  -0.9120575   0.2578675
0.0011721    -0.9998695  -0.0001428   0.0000211   0.0000038   0.0000114  -0.0000118  -0.9124015   0.2585311
0.0011866    -1.0004892   0.0008943   0.0000131   0.0000371  -0.0000454  -0.0000152  -0.9122040   0.2582435
0.0012011    -1.0001213  -0.0000653   0.0000012   0.0000203  -0.0000151   0.0000003  -0.9128818   0.2582597
0.0012159    -0.9995476  -0.0007142   0.0000637  -0.0000237   0.0000208   0.0000031  -0.9136437   0.2584854
0.0012309    -0.9992870   0.0006016   0.0000459   0.0000189   0.0000094   0.0000109  -0.9137401   0.2577885
0.0012460    -1.0004084   0.0003548   0.0000032   0.0000223  -0.0000062  -0.0000060  -0.9134154   0.2581256
0.0012613    -0.9997230  -0.0007754   0.0000932  -0.0000685   0.0000269  -0.0000021  -0.9147353   0.2579363
0.0012768    -0.9998176   0.0005847   0.0000293   0.0000270  -0.0000207   0.0000053  -0.9141770   0.2576231
0.0012925    -1.0002944  -0.0010960   0.0000203  -0.0000391   0.0000140   0.0000076  -0.9151106   0.2580592
0.0013084    -0.9999429   0.0004731   0.0000227   0.0000469  -0.0000049   0.0000097  -0.9149123   0.2575421
0.0013245    -0.9999557  -0.0008597   0.0000374  -0.0000390   0.0000181  -0.0000016  -0.9155488   0.2580240
0.0013408    -1.0001178   0.0001709   0.0000184   0.0000309   0.0000024  -0.0000096  -0.9153819   0.2572752
0.0013572    -0.9996828  -0.0007486   0.0000327  -0.0000594   0.0000187   0.0000077  -0.9163567   0.2576933
0.0013739    -1.0001694   0.0002226   0.0000415   0.0000137   0.0000133   0.0000164  -0.9162218   0.2575399
0.0013908    -0.9991183  -0.0010384   0.0000506  -0.0000072   0.0000136   0.0000045  -0.9169530   0.2576089
0.0014079    -1.0003764   0.0004320   0.0000322   0.0000393  -0.0000214  -0.0000005  -0.9167295   0.2573538
0.0014252    -0.9989268  -0.0007617   0.0000730  -0.0000234   0.0000186   0.0000247  -0.9176592   0.2572531
0.0014427    -1.0004489   0.0003064   0.0000278   0.0000235  -0.0000097  -0.0000156  -0.9173659   0.2571991
0.0014605    -0.9995220  -0.0007348   0.0000409  -0.0000251   0.0000009  -0.0000180  -0.9180822   0.2573986
0.0014784    -0.9998014   0.0006140   0.0000207  -0.0000154  -0.0000049   0.0000082  -0.9178605   0.2569127
0.0014966    -1.0003898  -0.0000899   0.0000311  -0.0000337   0.0000002  -0.0000287  -0.9186111   0.2574162
0.0015150    -0.9996616  -0.0001000   0.0000574  -0.0000313   0.0000270   0.0000241  -0.9189818   0.2573396
0.0015336    -0.9999518   0.0002148   0.0000202   0.0000099  -0.0000074  -0.0000028  -0.9190102   0.2570696
0.0015525    -1.0007874   0.0003083   0.0000171  -0.0000022  -0.0000076  -0.0000167  -0.9190290   0.2573496
0.0015716    -0.9997390  -0.0000281   0.0000026  -0.0000076   0.0000126  -0.0000211  -0.9196280   0.2571869
0.0015909    -1.0002640  -0.0003124   0.0000251  -0.0000223   0.0000100  -0.0000345  -0.9199847   0.2575694
0.0016104    -0.9997205   0.0002155   0.0000093   0.0000008  -0.0000243   0.0000094  -0.9203199   0.2569523
0.0016302    -1.0005766   0.0000036   0.0000016   0.0000038   0.0000135  -0.0000063  -0.9203642   0.2573044
0.0016503    -0.9997275  -0.0004118   0.0000308  -0.0000449   0.0000088  -0.0000100  -0.9213751   0.2574882
0.0016706    -0.9996295   0.0000248   0.0000250  -0.0000102   0.0000033  -0.0000045  -0.9211996   0.2574022
0.0016911    -0.9994383   0.0003838   0.0000175   0.0000330  -0.0000210  -0.0000159  -0.9218180   0.2570958
0.0017119    -1.0003140  -0.0001707   0.0000301  -0.0000174  -0.0000161  -0.0000298  -0.9218589   0.2574357
0.0017329    -0.9995098  -0.0005973   0.0000828  -0.0000328  -0.0000031   0.0000134  -0.9220861   0.2573962
0.0017542    -0.9995948  -0.0000780   0.0000301  -0.0000255   0.0000071   0.0000175  -0.9225671   0.2571541
0.0017758    -1.0001949  -0.0001787   0.0000254  -0.0000531  -0.0000018  -0.0000029  -0.9227763   0.2574617
0.0017976    -0.9993584  -0.0000422   0.0000590  -0.0000105   0.0000059  -0.0000063  -0.9233452   0.2574793
0.0018197    -0.9999243   0.0004343   0.0000104   0.0000011  -0.0000150  -0.0000040  -0.9231438   0.2573279
0.0018421    -0.9997773  -0.0003137   0.0000455   0.0000032   0.0000151  -0.0000070  -0.9238326   0.2577191
0.0018648    -1.0001657   0.0002562   0.0000350   0.0000057  -0.0000028   0.0000040  -0.9239003   0.2574820
0.0018877    -1.0005352   0.0004326  -0.0000005   0.0000093  -0.0000105  -0.0000158  -0.9239804   0.2577066
0.0019109    -0.9997872  -0.0000608   0.0000467   0.0000380  -0.0000036   0.0000066  -0.9248491   0.2579357
0.0019344    -0.9999890   0.0002014   0.0000068  -0.0000063  -0.0000050  -0.0000064  -0.9247153   0.2577397
0.0019582    -1.0001384   0.0003765   0.0000008   0.0000025   0.0000018  -0.0000051  -0.9248236   0.2579512
0.0019822    -0.9998204  -0.0005213   0.0000297  -0.0000393   0.0000061   0.0000007  -0.9256894   0.2580907
0.0020066    -0.9999512   0.0001588   0.0000284  -0.0000115   0.0000030   0.0000010  -0.9257598   0.2582423
0.0020313    -0.9995301  -0.0003072   0.0000624  -0.0000237   0.0000072   0.0000076  -0.9261621   0.2581689
0.0020562    -0.9994400   0.0001660   0.0000315   0.0000331  -0.0000161  -0.0000018  -0.9265384   0.2580705
0.0020815    -1.0002168   0.0000480   0.0000043  -0.0000038   0.0000003  -0.0000015  -0.9265952   0.2584793
0.0021071    -0.9998009  -0.0000947   0.0000427   0.0000102  -0.0000104  -0.0000033  -0.9270215   0.2585237
0.0021330    -1.0001813  -0.0000610   0.0000087   0.0000029  -0.0000010  -0.0000229  -0.9272019   0.2587586
0.0021592    -1.0000665  -0.0003360   0.0000338  -0.0000187  -0.0000025  -0.0000190  -0.9277383   0.2588852
0.0021858    -0.9996794   0.0000948   0.0000235   0.0000135  -0.0000026  -0.0000044  -0.9279115   0.2586740
0.0022126    -1.0000040  -0.0001644   0.0000153   0.0000000  -0.0000054  -0.0000144  -0.9280733   0.2590422
0.0022398    -0.9998610   0.0000044   0.0000158  -0.0000085  -0.0000122   0.0000062  -0.9283379   0.2590142
0.0022674    -1.0001981  -0.0001896   0.0000218  -0.0000158   0.0000047  -0.0000181  -0.9287816   0.2593020
0.0022953    -0.9999658  -0.0002705   0.0000311  -0.0000216   0.0000060  -0.0000025  -0.9290308   0.2594769
0.0023235    -0.9993715  -0.0004013   0.0000489  -0.0000086  -0.0000061  -0.0000002  -0.9294341   0.2594680
0.0023520    -1.0000695   0.0002715   0.0000133   0.0000029  -0.0000078  -0.0000054  -0.9292532   0.2594361
0.0023809    -0.9996140   0.0000762   0.0000341  -0.0000002  -0.0000079   0.0000077  -0.9299422   0.2596373
0.0024102    -0.9999156  -0.0001932   0.0000285   0.0000099   0.0000131   0.0000064  -0.9298942   0.2598229
0.0024398    -0.9997653  -0.0000855   0.0000649  -0.0000106   0.0000033   0.0000032  -0.9303333   0.2599209
0.0024698    -0.9996888  -0.0001006   0.0000079  -0.0000131   0.0000079  -0.0000170  -0.9305707   0.2602177
0.0025002    -0.9999764  -0.0000510   0.0000331  -0.0000056  -0.0000013  -0.0000042  -0.9307198   0.2603729
0.0025309    -1.0000501  -0.0001352   0.0000225  -0.0000259  -0.0000087  -0.0000112  -0.9309336   0.2606611
0.0025621    -0.9999817  -0.0005791   0.0000229  -0.0000114   0.0000070  -0.0000087  -0.9313972   0.2606534
0.0025935    -0.9996681  -0.0004138   0.0000503  -0.0000097  -0.0000057  -0.0000035  -0.9316742   0.2605261
0.0026254    -0.9998157   0.0002723   0.0000324  -0.0000016  -0.0000042  -0.0000026  -0.9317934   0.2605545
0.0026577    -1.0000534   0.0001428   0.0000188   0.0000081  -0.0000107  -0.0000105  -0.9319015   0.2609742
0.0026904    -0.9999491  -0.0003198   0.0000196  -0.0000203  -0.0000128  -0.0000062  -0.9320964   0.2613407
0.0027235    -0.9996111  -0.0001721   0.0000512   0.0000102  -0.0000013  -0.0000137  -0.9327563   0.2611832
0.0027569    -0.9997232   0.0005153   0.0000342   0.0000131  -0.0000088  -0.0000033  -0.9327095   0.2612955
0.0027908    -1.0002699  -0.0001131   0.0000031  -0.0000078   0.0000059  -0.0000083  -0.9327881   0.2617246
0.0028251    -0.9998434  -0.0003180   0.0000308  -0.0000016   0.0000069   0.0000018  -0.9332618   0.2618815
0.0028599    -0.9996725   0.0000919   0.0000403  -0.0000028  -0.0000022   0.0000010  -0.9334185   0.2618729
0.0028950    -0.9996322   0.0002986   0.0000351   0.0000085   0.0000031   0.0000025  -0.9336124   0.2618484
0.0029306    -0.9998698   0.0000508   0.0000260  -0.0000073  -0.0000042  -0.0000190  -0.9337557   0.2620064
0.0029666    -1.0000302  -0.0001013   0.0000275   0.0000049   0.0000131  -0.0000065  -0.9339990   0.2622600
0.0030031    -0.9998580  -0.0000474   0.0000166  -0.0000043  -0.0000049   0.0000133  -0.9341076   0.2625548
0.0030400    -1.0000689  -0.0000353   0.0000253   0.0000111  -0.0000027  -0.0000165  -0.9343379   0.2628196
0.0030774    -0.9997820   0.0001447   0.0000285   0.0000084  -0.0000097  -0.0000045  -0.9345217   0.2629743
0.0031152    -0.9997067  -0.0000750   0.0000333  -0.0000201   0.0000102   0.0000018  -0.9348862   0.2629809
0.0031535    -0.9999181  -0.0001329   0.0000136  -0.0000163  -0.0000035  -0.0000120  -0.9349260   0.2633534
0.0031923    -0.9998838  -0.0004544   0.0000361   0.0000081   0.0000126  -0.0000124  -0.9353236   0.2634966
0.0032315    -0.9999073  -0.0002392   0.0000241   0.0000012  -0.0000004  -0.0000064  -0.9355121   0.2636469
0.0032713    -0.9999404  -0.0002714   0.0000412  -0.0000217   0.0000023  -0.0000089  -0.9356770   0.2636865
0.0033115    -0.9999033  -0.0000806   0.0000132   0.0000067   0.0000084  -0.0000006  -0.9357024   0.2639999
0.0033522    -0.9999500  -0.0001432   0.0000063  -0.0000289  -0.0000109  -0.0000057  -0.9360229   0.2644064
0.0033934    -0.9997913  -0.0001465   0.0000632   0.0000225   0.0000014   0.0000021  -0.9362628   0.2642656
0.0034351    -0.9997558   0.0001901  -0.0000032   0.0000147  -0.0000013   0.0000084  -0.9364516   0.2645556
0.0034773    -0.9997574   0.0002133   0.0000195   0.0000214   0.0000084  -0.0000086  -0.9364323   0.2647053
0.0035201    -0.9999093  -0.0001165   0.0000293   0.0000077   0.0000056  -0.0000029  -0.9367876   0.2648143
0.0035634    -0.9998242   0.0001848   0.0000318   0.0000241   0.0000070  -0.0000048  -0.9368663   0.2649771
0.0036072    -0.9998245  -0.0000919   0.0000321   0.0000028  -0.0000008  -0.0000046  -0.9369396   0.2652301
0.0036515    -0.9998092   0.0003332   0.0000295   0.0000139  -0.0000051   0.0000044  -0.9372120   0.2655556
0.0036964    -0.9999824   0.0000313   0.0000335  -0.0000016  -0.0000114   0.0000007  -0.9371598   0.2658447
0.0037418    -0.9999660  -0.0000758   0.0000315   0.0000105   0.0000014  -0.0000077  -0.9373776   0.2659021
0.0037878    -1.0000003  -0.0002375   0.0000050  -0.0000143   0.0000009  -0.0000191  -0.9374859   0.2660117
0.0038344    -0.9999336  -0.0001313   0.0000180   0.0000022   0.0000059  -0.0000063  -0.9376847   0.2663411
0.0038815    -0.9998145  -0.0000327   0.0000312  -0.0000106  -0.0000009   0.0000041  -0.9378065   0.2664228
0.0039293    -0.9999970  -0.0000254   0.0000125   0.0000205   0.0000049  -0.0000071  -0.9379777   0.2663981
0.0039776    -0.9999023  -0.0000339   0.0000130   0.0000176  -0.0000018  -0.0000120  -0.9381920   0.2668196
0.0040265    -0.9998738   0.0000470   0.0000486   0.0000130   0.0000000   0.0000014  -0.9383100   0.2667670
0.0040759    -0.9998624   0.0001016   0.0000036  -0.0000024  -0.0000007   0.0000008  -0.9384242   0.2671272
0.0041261    -0.9998313  -0.0001508   0.0000325  -0.0000138   0.0000015  -0.0000048  -0.9385339   0.2672093
0.0041768    -0.9999436  -0.0000650   0.0000160  -0.0000150  -0.0000009   0.0000009  -0.9387328   0.2675105
0.0042281    -0.9998195  -0.0000083   0.0000260  -0.0000074   0.0000064  -0.0000054  -0.9388509   0.2677209
0.0042801    -0.9999331  -0.0000502   0.0000234  -0.0000149   0.0000041  -0.0000002  -0.9389324   0.2679158
0.0043327    -1.0001116  -0.0002665   0.0000341  -0.0000129  -0.0000035  -0.0000042  -0.9390299   0.2683019
0.0043860    -1.0000701  -0.0000376   0.0000174  -0.0000134  -0.0000025   0.0000091  -0.9392749   0.2683077
0.0044399    -0.9997681  -0.0001504   0.0000222  -0.0000049   0.0000007  -0.0000043  -0.9393379   0.2684832
0.0044945    -0.9997161  -0.0000376   0.0000212   0.0000036  -0.0000065  -0.0000034  -0.9394909   0.2686169
0.0045497    -1.0000860  -0.0000504   0.0000294  -0.0000074  -0.0000109  -0.0000034  -0.9394766   0.2688047
0.0046057    -1.0001699  -0.0000735   0.0000204  -0.0000011  -0.0000053   0.0000049  -0.9395575   0.2689400
0.0046623    -1.0001946  -0.0000318   0.0000159  -0.0000116   0.0000035  -0.0000071  -0.9395089   0.2692334
0.0047196    -0.9998672  -0.0001387   0.0000137  -0.0000014  -0.0000083  -0.0000009  -0.9398293   0.2694102
0.0047776    -0.9999150  -0.0001600   0.0000114  -0.0000140   0.0000065  -0.0000104  -0.9398891   0.2695281
0.0048363    -1.0001715  -0.0001228   0.0000239   0.0000194   0.0000003  -0.0000094  -0.9399332   0.2697804
0.0048958    -0.9999759  -0.0001083   0.0000144  -0.0000019  -0.0000047  -0.0000137  -0.9400721   0.2700554
0.0049560    -0.9998387  -0.0001315   0.0000358  -0.0000189  -0.0000099  -0.0000067  -0.9402632   0.2701632
0.0050169    -0.9999214  -0.0000129   0.0000238  -0.0000021  -0.0000178   0.0000051  -0.9403351   0.2701639
0.0050786    -0.9999482   0.0000778   0.0000226  -0.0000021   0.0000062   0.0000011  -0.9403187   0.2703988
0.0051410    -0.9997746   0.0000778   0.0000151   0.0000084  -0.0000039  -0.0000105  -0.9404152   0.2706001
0.0052042    -0.9996921  -0.0001560   0.0000557   0.0000062   0.0000035  -0.0000032  -0.9405021   0.2708001
0.0052682    -0.9998285  -0.0002099   0.0000537   0.0000168   0.0000060  -0.0000054  -0.9406327   0.2710467
0.0053330    -0.9997997  -0.0003055   0.0000244  -0.0000013  -0.0000089  -0.0000088  -0.9406896   0.2711812
0.0053985    -0.9999122  -0.0002235   0.0000172  -0.0000049  -0.0000131  -0.0000073  -0.9407775   0.2713440
0.0054649    -0.9999317  -0.0002069   0.0000228  -0.0000044   0.0000164  -0.0000018  -0.9409076   0.2714998
0.0055321    -0.9998815  -0.0001491   0.0000420  -0.0000226  -0.0000015  -0.0000112  -0.9409565   0.2716945
0.0056001    -0.9998703  -0.0002214   0.0000250  -0.0000032   0.0000146   0.0000031  -0.9411138   0.2719386
0.0056689    -0.9998646  -0.0001930   0.0000257   0.0000064  -0.0000082  -0.0000200  -0.9411273   0.2720064
0.0057386    -1.0001204  -0.0001605   0.0000252  -0.0000074   0.0000036  -0.0000155  -0.9411893   0.2721200
0.0058091    -0.9999619  -0.0000513   0.0000044  -0.0000045   0.0000022   0.0000047  -0.9411386   0.2723728
0.0058806    -1.0000294  -0.0000552   0.0000448   0.0000175  -0.0000013  -0.0000061  -0.9411190   0.2724188
0.0059529    -0.9997683  -0.0000984   0.0000245  -0.0000073  -0.0000054  -0.0000104  -0.9412062   0.2727041
0.0060260    -0.9999972  -0.0000737   0.0000376   0.0000095  -0.0000053  -0.0000183  -0.9412507   0.2727098
0.0061001    -0.9999995  -0.0001097   0.0000230  -0.0000081  -0.0000142  -0.0000055  -0.9413455   0.2729546
0.0061751    -1.0000471  -0.0001672   0.0000219   0.0000064   0.0000003   0.0000049  -0.9413314   0.2731470
0.0062510    -1.0001042  -0.0001451   0.0000263  -0.0000066  -0.0000030  -0.0000002  -0.9415101   0.2732916
0.0063279    -0.9997523  -0.0002723   0.0000462  -0.0000010  -0.0000043  -0.0000012  -0.9416430   0.2734560
0.0064056    -0.9998321  -0.0001527   0.0000583  -0.0000112   0.0000044  -0.0000061  -0.9416371   0.2736081
0.0064844    -1.0000239  -0.0000612   0.0000266   0.0000105   0.0000000  -0.0000076  -0.9416977   0.2736701
0.0065641    -1.0000104  -0.0000919   0.0000295  -0.0000036  -0.0000063  -0.0000193  -0.9415242   0.2737903
0.0066448    -0.9998020   0.0000199   0.0000145  -0.0000065   0.0000005  -0.0000093  -0.9416728   0.2739591
0.0067265    -0.9998134  -0.0001555   0.0000331  -0.0000129  -0.0000082   0.0000041  -0.9417777   0.2741424
0.0068092    -0.9999788  -0.0001048   0.0000202  -0.0000301   0.0000036   0.0000010  -0.9418365   0.2743665
0.0068929    -0.9998022  -0.0002865   0.0000492  -0.0000183   0.0000128  -0.0000086  -0.9418909   0.2744498
0.0069776    -0.9999113  -0.0001022   0.0000244  -0.0000213   0.0000024  -0.0000116  -0.9420478   0.2746782
0.0070634    -0.9998736  -0.0001935   0.0000165   0.0000022   0.0000023  -0.0000052  -0.9419420   0.2748400
0.0071502    -0.9998936  -0.0001611   0.0000268  -0.0000191   0.0000031  -0.0000154  -0.9419125   0.2748555
0.0072381    -1.0000363  -0.0001251   0.0000314   0.0000102  -0.0000033  -0.0000122  -0.9418756   0.2750367
0.0073271    -0.9998588  -0.0001124   0.0000179  -0.0000048  -0.0000089  -0.0000030  -0.9420109   0.2752536
0.0074172    -0.9998141  -0.0000791   0.0000321   0.0000120   0.0000121  -0.0000083  -0.9421284   0.2753567
0.0075084    -0.9999143  -0.0001651   0.0000207   0.0000055   0.0000064  -0.0000108  -0.9421577   0.2755385
0.0076007    -0.9999044  -0.0002290   0.0000157  -0.0000126   0.0000004  -0.0000116  -0.9421461   0.2756577
0.0076941    -1.0000098   0.0000399   0.0000178   0.0000024  -0.0000021   0.0000084  -0.9421786   0.2759126
0.0077887    -0.9999245  -0.0000589   0.0000303  -0.0000011   0.0000107  -0.0000020  -0.9421820   0.2759312
0.0078844    -0.9998937  -0.0001473   0.0000331  -0.0000068  -0.0000035  -0.0000018  -0.9422685   0.2760016
0.0079814    -0.9999714  -0.0000819   0.0000322   0.0000036   0.0000006  -0.0000059  -0.9422404   0.2762762
0.0080795    -0.9999612   0.0000709   0.0000144   0.0000005   0.0000058  -0.0000034  -0.9423989   0.2763341
0.0081788    -0.9999422  -0.0001822   0.0000243   0.0000037  -0.0000045   0.0000043  -0.9422137   0.2765218
0.0082793    -0.9998897  -0.0000201   0.0000192  -0.0000122  -0.0000005  -0.0000093  -0.9423942   0.2765888
0.0083811    -1.0000678  -0.0000580   0.0000199   0.0000179  -0.0000037   0.0000070  -0.9423573   0.2767983
0.0084842    -0.9999009   0.0000407   0.0000176   0.0000056  -0.0000016   0.0000005  -0.9423313   0.2768930
0.0085885    -1.0000704   0.0000381   0.0000087   0.0000085   0.0000015  -0.0000070  -0.9424398   0.2769427
0.0086940    -0.9998404  -0.0001669   0.0000081   0.0000110   0.0000127  -0.0000141  -0.9423699   0.2771411
0.0088009    -1.0000317  -0.0001824   0.0000179  -0.0000106   0.0000002   0.0000062  -0.9423860   0.2772914
0.0089091    -0.9999881  -0.0001296   0.0000096   0.0000098   0.0000024  -0.0000112  -0.9423989   0.2774866
0.0090186    -0.9999695   0.0000386   0.0000260  -0.0000054  -0.0000090  -0.0000046  -0.9424998   0.2774735
0.0091295    -0.9998996  -0.0000347   0.0000108   0.0000019   0.0000055  -0.0000005  -0.9425199   0.2777457
0.0092417    -0.9999913  -0.0000194   0.0000438   0.0000016   0.0000093  -0.0000054  -0.9424069   0.2777833
0.0093553    -0.9998802  -0.0001162   0.0000255   0.0000112   0.0000041  -0.0000095  -0.9424297   0.2779104
0.0094703    -0.9999967  -0.0001642   0.0000322  -0.0000103   0.0000006   0.0000108  -0.9425230   0.2779699
0.0095868    -0.9998501  -0.0000167   0.0000259  -0.0000011  -0.0000033  -0.0000074  -0.9424579   0.2781670
0.0097046    -0.9998303  -0.0000550   0.0000294   0.0000001  -0.0000017   0.0000127  -0.9425030   0.2781965
0.0098239    -0.9999812  -0.0001064   0.0000218  -0.0000010  -0.0000008   0.0000001  -0.9425577   0.2783250
0.0099447    -1.0000023  -0.0000491   0.0000312  -0.0000013  -0.0000004  -0.0000051  -0.9425478   0.2783615
0.0100669    -1.0000648  -0.0000486   0.0000157   0.0000097  -0.0000093  -0.0000186  -0.9425242   0.2785836
0.0101907    -0.9999081  -0.0000267   0.0000194   0.0000069  -0.0000033  -0.0000092  -0.9425358   0.2786114
0.0103160    -0.9998318  -0.0000904   0.0000075   0.0000058   0.0000116  -0.0000083  -0.9425019   0.2787091
0.0104428    -1.0000216  -0.0000921   0.0000188  -0.0000068  -0.0000035   0.0000003  -0.9425838   0.2789201
0.0105712    -1.0000767  -0.0000081   0.0000281   0.0000093   0.0000088   0.0000015  -0.9425830   0.2789347
0.0107011    -0.9999230  -0.0000522   0.0000065   0.0000098   0.0000044  -0.0000051  -0.9426090   0.2791118
0.0108327    -0.9999266  -0.0000337  -0.0000006   0.0000113   0.0000012  -0.0000062  -0.9425325   0.2791449
0.0109658    -0.9998869  -0.0001471   0.0000186   0.0000006  -0.0000070  -0.0000045  -0.9426464   0.2792784
0.0111006    -0.9998860   0.0000304   0.0000209  -0.0000058  -0.0000041  -0.0000068  -0.9426136   0.2795289
0.0112371    -0.9998378  -0.0001154   0.0000262   0.0000037  -0.0000054   0.0000003  -0.9426557   0.2794251
0.0113752    -0.9999322  -0.0000486   0.0000196   0.0000018  -0.0000107   0.0000007  -0.9425597   0.2795968
0.0115151    -1.0000808  -0.0000540   0.0000136   0.0000110   0.0000003  -0.0000004  -0.9427017   0.2798539
0.0116566    -0.9998626  -0.0000508   0.0000236   0.0000115  -0.0000025  -0.0000093  -0.9425976   0.2797545
0.0117999    -0.9999713  -0.0000792   0.0000181  -0.0000041  -0.0000078  -0.0000039  -0.9426702   0.2800117
0.0119450    -0.9982947   0.0008181   0.0000265   0.0000063  -0.0000012   0.0000006  -0.9434624   0.2782170
0.0120918    -1.0000059  -0.0000006   0.0000220  -0.0000158   0.0000006  -0.0000104  -0.9426943   0.2801527
0.0122405    -0.9998610  -0.0000054   0.0000342  -0.0000185  -0.0000107   0.0000039  -0.9427471   0.2801706
0.0123910    -0.9999998  -0.0001792   0.0000140   0.0000018  -0.0000042  -0.0000100  -0.9426088   0.2804391
0.0125433    -0.9999490  -0.0001007   0.0000264   0.0000123  -0.0000016   0.0000043  -0.9427097   0.2803775
0.0126975    -0.9999993  -0.0000846   0.0000209   0.0000058  -0.0000036  -0.0000023  -0.9425424   0.2804387
0.0128536    -0.9999033  -0.0000588   0.0000144   0.0000150   0.0000036  -0.0000033  -0.9426407   0.2806492
0.0130116    -0.9999290  -0.0001818   0.0000191   0.0000077   0.0000031   0.0000037  -0.9426215   0.2806846
0.0131716    -0.9999359  -0.0001508   0.0000158   0.0000029  -0.0000045   0.0000010  -0.9426642   0.2806807
0.0133335    -0.9999290  -0.0000083   0.0000267   0.0000062  -0.0000017  -0.0000095  -0.9425145   0.2809397
0.0134974    -1.0000632  -0.0001537   0.0000200   0.0000146   0.0000014  -0.0000020  -0.9425677   0.2809175
0.0136633    -0.9998767  -0.0001674   0.0000258  -0.0000141   0.0000013  -0.0000062  -0.9426221   0.2811150
0.0138313    -1.0001335  -0.0001690   0.0000163   0.0000060  -0.0000014  -0.0000050  -0.9425397   0.2811490
0.0140013    -0.9998522  -0.0001062   0.0000121  -0.0000091  -0.0000043  -0.0000027  -0.9426175   0.2812854
0.0141734    -0.9999585   0.0000481   0.0000242   0.0000098  -0.0000133  -0.0000052  -0.9426482   0.2814176
0.0143477    -0.9999155  -0.0000563   0.0000366   0.0000055   0.0000019  -0.0000050  -0.9426134   0.2813920
0.0145240    -1.0000223  -0.0001618   0.0000068  -0.0000003   0.0000018   0.0000028  -0.9426510   0.2814696
0.0147026    -0.9999427  -0.0000259   0.0000289   0.0000138   0.0000098  -0.0000082  -0.9425887   0.2815431
0.0148833    -0.9999108   0.0000599   0.0000351  -0.0000010  -0.0000038  -0.0000085  -0.9425701   0.2817147
0.0150663    -1.0000104  -0.0001315   0.0000321   0.0000125   0.0000025  -0.0000094  -0.9425500   0.2817628
0.0152515    -0.9999092  -0.0000754   0.0000141   0.0000229  -0.0000064  -0.0000097  -0.9425577   0.2819218
0.0154390    -0.9999423  -0.0001024   0.0000290   0.0000072  -0.0000151   0.0000062  -0.9425825   0.2819117
0.0156288    -0.9999509  -0.0000555   0.0000038   0.0000030  -0.0000092  -0.0000074  -0.9426634   0.2819290
0.0158209    -0.9999639  -0.0001281   0.0000401   0.0000028  -0.0000031  -0.0000088  -0.9425187   0.2819562
0.0160154    -0.9999796  -0.0001567   0.0000103   0.0000135   0.0000012  -0.0000067  -0.9425096   0.2821765
0.0162123    -1.0000364  -0.0000102   0.0000200   0.0000014  -0.0000041  -0.0000005  -0.9424733   0.2823458
0.0164116    -0.9999919  -0.0000659   0.0000137   0.0000120   0.0000020  -0.0000133  -0.9425390   0.2823374
0.0166134    -0.9998793  -0.0000389   0.0000231   0.0000175   0.0000025   0.0000024  -0.9424725   0.2825105
0.0168176    -1.0000133  -0.0001293   0.0000277   0.0000170   0.0000023  -0.0000011  -0.9425681   0.2824212
0.0170243    -0.9999904  -0.0000396   0.0000260  -0.0000011  -0.0000044  -0.0000021  -0.9425075   0.2825839
0.0172336    -0.9999683  -0.0000096   0.0000198   0.0000032   0.0000039  -0.0000065  -0.9424701   0.2825693
0.0174455    -0.9999789  -0.0000260   0.0000243   0.0000027  -0.0000069   0.0000054  -0.9424511   0.2826684
0.0176599    -1.0000568  -0.0000970   0.0000307   0.0000140  -0.0000030  -0.0000096  -0.9424459   0.2827776
0.0178770    -1.0001151  -0.0000999   0.0000202   0.0000050  -0.0000056   0.0000042  -0.9424224   0.2829245
0.0180968    -1.0000119  -0.0001099   0.0000269   0.0000147  -0.0000086  -0.0000035  -0.9424302   0.2828374
0.0183193    -0.9999431  -0.0000897   0.0000376   0.0000123   0.0000087  -0.0000044  -0.9424509   0.2830002
0.0185445    -0.9999111  -0.0000153   0.0000254   0.0000078   0.0000103  -0.0000060  -0.9424455   0.2830423
0.0187724    -0.9999633  -0.0000783   0.0000334   0.0000103   0.0000036   0.0000011  -0.9423371   0.2830841
0.0190032    -0.9999318   0.0000048   0.0000180  -0.0000114  -0.0000030  -0.0000051  -0.9424280   0.2831313
0.0192368    -0.9999127  -0.0000906   0.0000262   0.0000044   0.0000020   0.0000008  -0.9425254   0.2832695
0.0194733    -1.0000496  -0.0001341   0.0000193  -0.0000053   0.0000098  -0.0000044  -0.9424154   0.2833488
0.0197127    -0.9999830   0.0000809   0.0000176   0.0000092  -0.0000072  -0.0000149  -0.9423865   0.2834325
0.0199550    -0.9999527  -0.0000567   0.0000288   0.0000084  -0.0000085  -0.0000115  -0.9424142   0.2834576
0.0202003    -0.9999744  -0.0001009   0.0000417  -0.0000074  -0.0000027  -0.0000121  -0.9424186   0.2834956
0.0204487    -0.9999160  -0.0001275   0.0000282  -0.0000045  -0.0000126  -0.0000027  -0.9423482   0.2836018
0.0207001    -0.9999057  -0.0000225   0.0000312   0.0000014  -0.0000050  -0.0000153  -0.9422820   0.2836091
0.0209545    -1.0000835  -0.0000400   0.0000294   0.0000056  -0.0000042  -0.0000062  -0.9422991   0.2836966
0.0212121    -1.0000598  -0.0000902   0.0000222   0.0000131   0.0000013   0.0000014  -0.9422630   0.2838958
0.0214729    -0.9999777   0.0000481   0.0000318  -0.0000042  -0.0000082  -0.0000137  -0.9423046   0.2839225
0.0217369    -0.9999036  -0.0001495   0.0000310  -0.0000043   0.0000177  -0.0000012  -0.9422967   0.2839207
0.0220041    -0.9999728  -0.0001788   0.0000204   0.0000002  -0.0000034  -0.0000052  -0.9423316   0.2839710
0.0222746    -0.9999778  -0.0001770   0.0000212   0.0000054   0.0000044  -0.0000094  -0.9421834   0.2840686
0.0225484    -0.9998649  -0.0001087   0.0000344   0.0000046  -0.0000069   0.0000029  -0.9421589   0.2840821
0.0228256    -1.0000156  -0.0001614   0.0000114   0.0000091  -0.0000015   0.0000000  -0.9422130   0.2841121
0.0231062    -0.9999881   0.0000468   0.0000272   0.0000182  -0.0000071  -0.0000067  -0.9422103   0.2841453
0.0233902    -1.0000024  -0.0000764   0.0000184  -0.0000015  -0.0000062   0.0000041  -0.9421501   0.2842650
0.0236778    -0.9998990  -0.0000105   0.0000218  -0.0000007   0.0000026  -0.0000065  -0.9421274   0.2843437
0.0239689    -0.9999896   0.0000335   0.0000073  -0.0000005  -0.0000034  -0.0000028  -0.9431943   0.2849166
0.0242635    -0.9999998  -0.0000385   0.0000306   0.0000142   0.0000020  -0.0000015  -0.9421554   0.2844378
0.0245618    -1.0000492  -0.0000708   0.0000142   0.0000087  -0.0000175  -0.0000006  -0.9420997   0.2845678
0.0248637    -0.9999883  -0.0000645   0.0000414   0.0000078  -0.0000010  -0.0000011  -0.9421057   0.2846436
0.0251694    -1.0000226   0.0000149   0.0000276   0.0000109  -0.0000045  -0.0000092  -0.9421237   0.2846718
0.0254788    -1.0000171  -0.0001365   0.0000226   0.0000135  -0.0000051  -0.0000060  -0.9420106   0.2847303
0.0257920    -0.9999838  -0.0000583   0.0000132  -0.0000039   0.0000011  -0.0000116  -0.9420984   0.2848583
0.0261091    -0.9999465  -0.0001848   0.0000138  -0.0000062   0.0000032  -0.0000093  -0.9419308   0.2848252
0.0264301    -0.9998837  -0.0000658   0.0000296   0.0000124   0.0000051  -0.0000114  -0.9420806   0.2849199
0.0267550    -0.9999991  -0.0002740   0.0000099  -0.0000064  -0.0000017   0.0000036  -0.9419236   0.2849455
0.0270839    -0.9999779  -0.0000896   0.0000204   0.0000068  -0.0000150  -0.0000070  -0.9420152   0.2849370
0.0274168    -0.9998793  -0.0002292   0.0000280  -0.0000034  -0.0000071  -0.0000091  -0.9419723   0.2849874
0.0277539    -1.0000087  -0.0001842   0.0000209   0.0000247  -0.0000055  -0.0000124  -0.9418585   0.2850718
0.0280951    -0.9999382  -0.0000715   0.0000215   0.0000019  -0.0000084  -0.0000131  -0.9418695   0.2851680
0.0284404    -0.9999672  -0.0001501   0.0000216  -0.0000029  -0.0000050  -0.0000027  -0.9418926   0.2852433
0.0287901    -1.0000173  -0.0000898   0.0000138   0.0000073  -0.0000104  -0.0000071  -0.9419360   0.2851845
0.0291440    -1.0000330  -0.0000093   0.0000122  -0.0000030   0.0000046  -0.0000088  -0.9418947   0.2853351
0.0295023    -1.0000017  -0.0001527   0.0000061   0.0000099   0.0000158   0.0000033  -0.9418181   0.2853636
0.0298649    -1.0000166  -0.0000684   0.0000249   0.0000035   0.0000090  -0.0000008  -0.9418149   0.2853996
0.0302321    -0.9999949  -0.0002035   0.0000083  -0.0000136   0.0000043  -0.0000058  -0.9417208   0.2854923
0.0306037    -0.9998920  -0.0001998   0.0000248   0.0000195  -0.0000045  -0.0000008  -0.9417143   0.2855678
0.0309799    -1.0000009  -0.0001266   0.0000274   0.0000007  -0.0000045   0.0000013  -0.9418265   0.2855831
0.0313608    -1.0000054  -0.0001236   0.0000186   0.0000218   0.0000041  -0.0000197  -0.9417779   0.2856653
0.0317463    -0.9998288  -0.0001800   0.0000104   0.0000084  -0.0000047   0.0000050  -0.9416988   0.2857371
0.0321366    -1.0000722  -0.0000851   0.0000152   0.0000098   0.0000041  -0.0000031  -0.9417880   0.2857474
0.0325316    -0.9999415  -0.0001644   0.0000165   0.0000133   0.0000030  -0.0000159  -0.9416747   0.2858300
0.0329316    -0.9999025  -0.0001120   0.0000228   0.0000170   0.0000071  -0.0000175  -0.9416642   0.2859160
0.0333364    -1.0000320  -0.0001610   0.0000329   0.0000074   0.0000033  -0.0000037  -0.9416956   0.2859965
0.0337462    -1.0000379  -0.0000730   0.0000197  -0.0000034   0.0000003   0.0000066  -0.9415459   0.2858363
0.0341610    -0.9999589  -0.0001347   0.0000146  -0.0000004   0.0000031  -0.0000018  -0.9415890   0.2860550
0.0345810    -1.0001125  -0.0000331   0.0000170   0.0000140   0.0000025  -0.0000054  -0.9415994   0.2860402
0.0350061    -0.9999688  -0.0000793   0.0000303   0.0000036   0.0000041   0.0000028  -0.9416480   0.2861025
0.0354365    -1.0000437  -0.0000089   0.0000265   0.0000025   0.0000008  -0.0000113  -0.9415532   0.2862356
0.0358721    -1.0000226  -0.0002295   0.0000248   0.0000244   0.0000027   0.0000040  -0.9415274   0.2861881
0.0363131    -0.9999492  -0.0000519   0.0000102   0.0000187  -0.0000035  -0.0000022  -0.9415787   0.2862180
0.0367595    -0.9999770  -0.0000705   0.0000261  -0.0000049  -0.0000029  -0.0000134  -0.9414277   0.2863980
0.0372114    -0.9998501  -0.0001167   0.0000242   0.0000134   0.0000021  -0.0000147  -0.9414660   0.2864445
0.0376688    -0.9999913  -0.0002550   0.0000271   0.0000089  -0.0000015  -0.0000004  -0.9414265   0.2864517
0.0381319    -0.9999963  -0.0002582   0.0000177   0.0000197  -0.0000009  -0.0000148  -0.9414994   0.2864761
0.0386006    -1.0000561  -0.0001358   0.0000255   0.0000294  -0.0000001  -0.0000062  -0.9414738   0.2866139
0.0390752    -0.9999553  -0.0001054   0.0000210   0.0000210   0.0000058  -0.0000044  -0.9413666   0.2865701
0.0395555    -0.9998923  -0.0000807   0.0000239  -0.0000066  -0.0000018  -0.0000008  -0.9413887   0.2866159
0.0400418    -0.9999501  -0.0001054   0.0000333   0.0000112  -0.0000059  -0.0000090  -0.9414225   0.2867169
0.0405340    -0.9999271  -0.0001270   0.0000204   0.0000068   0.0000032  -0.0000083  -0.9413678   0.2866962
0.0410323    -0.9999490  -0.0001301   0.0000108   0.0000137   0.0000113  -0.0000063  -0.9412536   0.2867964
0.0415368    -0.9998457  -0.0000513   0.0000188   0.0000035  -0.0000101   0.0000046  -0.9413906   0.2868516
0.0420474    -0.9999214  -0.0001436   0.0000263   0.0000156  -0.0000032  -0.0000059  -0.9413047   0.2867908
0.0425643    -0.9998847  -0.0001517   0.0000172   0.0000056   0.0000041  -0.0000041  -0.9412317   0.2868349
0.0430875    -0.9999408  -0.0002333   0.0000278   0.0000166   0.0000041  -0.0000004  -0.9413051   0.2869693
0.0436172    -0.9999796  -0.0000620   0.0000279   0.0000032  -0.0000077  -0.0000074  -0.9412355   0.2870156
0.0441534    -0.9999470  -0.0002909   0.0000061  -0.0000009   0.0000004  -0.0000073  -0.9411886   0.2871031
0.0446962    -0.9999803  -0.0001076   0.0000223  -0.0000093  -0.0000045  -0.0000057  -0.9411981   0.2871376
0.0452457    -0.9999722  -0.0002399   0.0000128   0.0000161   0.0000028  -0.0000074  -0.9411458   0.2871384
0.0458019    -0.9999421  -0.0001699   0.0000221   0.0000148   0.0000017  -0.0000085  -0.9411226   0.2871739
0.0463649    -0.9999656  -0.0002308   0.0000287   0.0000150   0.0000098   0.0000013  -0.9410879   0.2872438
0.0469349    -1.0000433  -0.0002106   0.0000170   0.0000144  -0.0000076  -0.0000056  -0.9410962   0.2873527
0.0475119    -0.9999475  -0.0002151   0.0000272   0.0000205   0.0000017  -0.0000071  -0.9410704   0.2873649
0.0480960    -0.9999521  -0.0001771   0.0000362   0.0000155  -0.0000044  -0.0000019  -0.9409973   0.2874680
0.0486872    -1.0000135  -0.0000865   0.0000287   0.0000153  -0.0000129  -0.0000110  -0.9409651   0.2874875
0.0492857    -0.9999569  -0.0000843   0.0000226   0.0000135  -0.0000002  -0.0000042  -0.9409461   0.2875644
0.0498916    -0.9999298  -0.0001407   0.0000328   0.0000128  -0.0000045  -0.0000018  -0.9408737   0.2876173
0.0505050    -0.9999153  -0.0001732   0.0000229   0.0000067  -0.0000103  -0.0000166  -0.9409469   0.2876108
0.0511258    -1.0000244  -0.0002332   0.0000270   0.0000205  -0.0000017  -0.0000074  -0.9409396   0.2877756
0.0517543    -1.0000436  -0.0002367   0.0000175   0.0000132  -0.0000078  -0.0000062  -0.9409543   0.2877150
0.0523906    -1.0001072  -0.0002144   0.0000069   0.0000161   0.0000057  -0.0000072  -0.9408638   0.2877875
0.0530346    -0.9999359  -0.0000963   0.0000212   0.0000197   0.0000032  -0.0000115  -0.9408033   0.2878187
0.0536866    -0.9999539  -0.0000812   0.0000253  -0.0000046  -0.0000095  -0.0000167  -0.9408350   0.2878571
0.0543466    -1.0000112  -0.0002059   0.0000202   0.0000186  -0.0000052  -0.0000006  -0.9407425   0.2878680
0.0550146    -0.9999299  -0.0001414   0.0000369   0.0000124  -0.0000055  -0.0000045  -0.9407686   0.2879192
0.0556910    -0.9999176  -0.0001641   0.0000132   0.0000208  -0.0000121  -0.0000102  -0.9406990   0.2879734
0.0563756    -0.9998633  -0.0002663   0.0000117   0.0000011   0.0000018  -0.0000108  -0.9407175   0.2881117
0.0570686    -1.0000283  -0.0002233   0.0000150   0.0000111   0.0000006  -0.0000166  -0.9406780   0.2881488
0.0577702    -1.0000169  -0.0001488   0.0000236   0.0000088  -0.0000013  -0.0000054  -0.9406106   0.2882546
0.0584804    -0.9999273  -0.0002782   0.0000173  -0.0000034   0.0000011  -0.0000075  -0.9405687   0.2881916
0.0591993    -0.9998971  -0.0001304   0.0000320   0.0000170   0.0000087   0.0000003  -0.9405477   0.2882490
0.0599270    -0.9999725  -0.0001672   0.0000189   0.0000058   0.0000084  -0.0000020  -0.9406534   0.2883762
0.0606637    -1.0000528  -0.0001999   0.0000071   0.0000193  -0.0000008  -0.0000084  -0.9404613   0.2883609
0.0614095    -0.9999471  -0.0001846   0.0000222   0.0000210  -0.0000130   0.0000009  -0.9405219   0.2883972
0.0621644    -0.9999035  -0.0001617   0.0000146   0.0000187  -0.0000010  -0.0000074  -0.9405535   0.2885076
0.0629286    -1.0000116  -0.0002079   0.0000301   0.0000060  -0.0000052  -0.0000012  -0.9404398   0.2884878
0.0637022    -0.9999408  -0.0001709   0.0000350   0.0000092   0.0000020  -0.0000046  -0.9403573   0.2886245
0.0644853    -1.0000162  -0.0002434   0.0000191   0.0000180  -0.0000014  -0.0000039  -0.9404157   0.2886764
0.0652780    -1.0000113  -0.0002082   0.0000123   0.0000189   0.0000039  -0.0000084  -0.9403190   0.2886986
0.0660805    -0.9999719  -0.0002086   0.0000272   0.0000008  -0.0000050  -0.0000067  -0.9402917   0.2888275
0.0668928    -0.9999883  -0.0001781   0.0000117   0.0000080  -0.0000128  -0.0000122  -0.9402203   0.2888212
0.0677152    -1.0000343  -0.0002503   0.0000067   0.0000023   0.0000000  -0.0000112  -0.9402024   0.2888230
0.0685476    -0.9999935  -0.0002182   0.0000162   0.0000203  -0.0000072  -0.0000117  -0.9401862   0.2888922
0.0693903    -0.9999286  -0.0002235   0.0000273   0.0000069  -0.0000004  -0.0000041  -0.9401122   0.2890172
0.0702433    -0.9999388  -0.0001647   0.0000298  -0.0000039  -0.0000029   0.0000041  -0.9401311   0.2890242
0.0711068    -0.9999325  -0.0002412   0.0000224   0.0000014   0.0000037  -0.0000059  -0.9400895   0.2890692
0.0719810    -0.9999995  -0.0002566   0.0000225   0.0000035  -0.0000091   0.0000050  -0.9400307   0.2890734
0.0728659    -0.9999812  -0.0002485   0.0000169   0.0000215   0.0000052  -0.0000014  -0.9399982   0.2891921
0.0737616    -0.9999595  -0.0003024   0.0000091   0.0000216  -0.0000012   0.0000004  -0.9399166   0.2892475
0.0746684    -1.0001389  -0.0002437   0.0000117   0.0000098   0.0000073  -0.0000086  -0.9399425   0.2892933
0.0755863    -1.0000143  -0.0002750   0.0000123   0.0000017  -0.0000051  -0.0000018  -0.9398644   0.2893296
0.0765155    -1.0000399  -0.0001902   0.0000214   0.0000159  -0.0000040  -0.0000102  -0.9398543   0.2893451
0.0774561    -0.9999853  -0.0003325   0.0000287   0.0000184   0.0000021  -0.0000132  -0.9397228   0.2894283
0.0784083    -1.0000066  -0.0002103   0.0000277   0.0000095   0.0000033   0.0000006  -0.9396576   0.2894038
0.0793722    -0.9999068  -0.0002998   0.0000085   0.0000138  -0.0000042  -0.0000104  -0.9396161   0.2895158
0.0803479    -1.0000464  -0.0003293   0.0000382   0.0000168   0.0000014  -0.0000099  -0.9396115   0.2895176
0.0813357    -0.9999903  -0.0003095   0.0000239   0.0000125  -0.0000006  -0.0000007  -0.9394970   0.2895606
0.0823356    -1.0000157  -0.0002763   0.0000232   0.0000160  -0.0000053  -0.0000076  -0.9394075   0.2896695
0.0833477    -0.9999187  -0.0002200   0.0000185   0.0000035   0.0000061  -0.0000029  -0.9393761   0.2896456
0.0843723    -1.0001066  -0.0002697   0.0000193   0.0000112   0.0000086  -0.0000037  -0.9393115   0.2897923
0.0854095    -1.0000395  -0.0003158   0.0000186  -0.0000015  -0.0000026  -0.0000074  -0.9392051   0.2896720
0.0864595    -1.0000261  -0.0003356   0.0000081   0.0000022  -0.0000029   0.0000073  -0.9391912   0.2898053
0.0875224    -1.0000601  -0.0002849   0.0000216   0.0000226   0.0000034  -0.0000104  -0.9391330   0.2897833
0.0885983    -1.0000502  -0.0002859   0.0000274  -0.0000038  -0.0000022  -0.0000038  -0.9390844   0.2898074
0.0896875    -0.9999154  -0.0002516   0.0000252   0.0000083   0.0000089  -0.0000091  -0.9389901   0.2898603
0.0907900    -0.9999841  -0.0003616   0.0000215   0.0000061  -0.0000058  -0.0000009  -0.9389029   0.2897670
0.0919061    -1.0000591  -0.0003231   0.0000316   0.0000092   0.0000026   0.0000009  -0.9387465   0.2898359
0.0930359    -0.9999572  -0.0003726   0.0000201   0.0000047   0.0000012   0.0000016  -0.9387368   0.2897206
0.0941797    -0.9999481  -0.0005134   0.0000431   0.0000226   0.0000025   0.0000095  -0.9386642   0.2897788
0.0953374    -0.9999238  -0.0003507   0.0000305   0.0000118  -0.0000047   0.0000036  -0.9386589   0.2896874
0.0965094    -1.0000430  -0.0004052   0.0000286   0.0000121   0.0000008  -0.0000022  -0.9385277   0.2897067
0.0976959    -0.9999893  -0.0003439   0.0000212   0.0000150   0.0000064  -0.0000051  -0.9385353   0.2896980
0.0988969    -0.9999527  -0.0004506   0.0000125   0.0000118  -0.0000068  -0.0000015  -0.9384663   0.2896201
0.1001126    -1.0000280  -0.0002652   0.0000304   0.0000205  -0.0000042  -0.0000113  -0.9384273   0.2896009
0.1013433    -0.9999274  -0.0002952   0.0000265  -0.0000019  -0.0000066  -0.0000005  -0.9384162   0.2895283
0.1025892    -1.0000006  -0.0004211   0.0000280   0.0000060  -0.0000089  -0.0000156  -0.9383242   0.2894642
0.1038503    -1.0000450  -0.0003679   0.0000281   0.0000162  -0.0000061   0.0000026  -0.9383898   0.2893628
0.1051270    -1.0000325  -0.0004100   0.0000143   0.0000177  -0.0000042   0.0000032  -0.9384645   0.2893710
0.1064193    -1.0000298  -0.0004372   0.0000078   0.0000157  -0.0000009  -0.0000043  -0.9385210   0.2892712
0.1077276    -1.0000726  -0.0003293   0.0000160   0.0000171  -0.0000010   0.0000042  -0.9385561   0.2893075
0.1090519    -1.0001140  -0.0003960   0.0000094   0.0000090   0.0000081   0.0000023  -0.9386699   0.2891948
0.1103925    -1.0001077  -0.0004187   0.0000252   0.0000147  -0.0000053  -0.0000082  -0.9386504   0.2892372
0.1117496    -1.0000275  -0.0004769   0.0000190   0.0000135   0.0000070  -0.0000009  -0.9387449   0.2892651
0.1131233    -1.0000314  -0.0004256   0.0000289   0.0000237  -0.0000109  -0.0000063  -0.9388706   0.2892237
0.1145140    -1.0001242  -0.0004537   0.0000231   0.0000211  -0.0000020  -0.0000139  -0.9389367   0.2893050
0.1159217    -1.0001048  -0.0004400   0.0000265   0.0000151  -0.0000058  -0.0000006  -0.9389502   0.2893045
0.1173468    -1.0000463  -0.0004249   0.0000324   0.0000130   0.0000043  -0.0000100  -0.9390159   0.2893834
0.1187893    -1.0000123  -0.0004748   0.0000174   0.0000173  -0.0000015  -0.0000112  -0.9391408   0.2894386
0.1202497    -1.0000228  -0.0004522   0.0000167   0.0000011  -0.0000076  -0.0000202  -0.9391425   0.2894774
0.1217279    -1.0001012  -0.0003629   0.0000295   0.0000189   0.0000047   0.0000067  -0.9391774   0.2895602
0.1232243    -1.0001086  -0.0004284   0.0000021   0.0000232  -0.0000059  -0.0000097  -0.9393238   0.2897100
0.1247392    -1.0000350  -0.0003720   0.0000234   0.0000166  -0.0000005  -0.0000021  -0.9393441   0.2897610
0.1262726    -1.0000505  -0.0004129   0.0000227   0.0000187  -0.0000082  -0.0000107  -0.9393835   0.2898578
0.1278249    -1.0001201  -0.0004759   0.0000187   0.0000106  -0.0000011  -0.0000062  -0.9393711   0.2899272
0.1293963    -0.9998793  -0.0004313   0.0000224   0.0000063  -0.0000038  -0.0000042  -0.9394349   0.2900448
0.1309870    -1.0000768  -0.0004296   0.0000260   0.0000148   0.0000004  -0.0000140  -0.9394403   0.2901690
0.1325973    -1.0001353  -0.0004762   0.0000247   0.0000186  -0.0000006   0.0000020  -0.9394429   0.2901727
0.1342273    -1.0000663  -0.0004871   0.0000308   0.0000109  -0.0000030  -0.0000066  -0.9395119   0.2902830
0.1358774    -1.0000917  -0.0005105   0.0000319   0.0000234  -0.0000045   0.0000028  -0.9394840   0.2904587
0.1375478    -0.9999991  -0.0004171   0.0000217   0.0000186   0.0000041  -0.0000011  -0.9395102   0.2904983
0.1392387    -0.9999376  -0.0003036   0.0000113   0.0000213  -0.0000016  -0.0000030  -0.9394896   0.2906542
0.1409504    -1.0000107  -0.0004508   0.0000148   0.0000195  -0.0000098  -0.0000030  -0.9395416   0.2907525
0.1426831    -1.0000587  -0.0004513   0.0000199   0.0000211  -0.0000051  -0.0000032  -0.9395182   0.2907696
0.1444371    -1.0001057  -0.0005291   0.0000352   0.0000250   0.0000040  -0.0000025  -0.9394529   0.2909111
0.1462127    -1.0001541  -0.0004879   0.0000073   0.0000231   0.0000011  -0.0000080  -0.9395321   0.2910522
0.1480102    -1.0000081  -0.0004357   0.0000225   0.0000226  -0.0000016  -0.0000117  -0.9394888   0.2911476
0.1498297    -1.0000263  -0.0004388   0.0000239   0.0000196  -0.0000046   0.0000006  -0.9394295   0.2911965
0.1516716    -1.0001760  -0.0005714   0.0000163   0.0000215  -0.0000031   0.0000037  -0.9394114   0.2913293
0.1535361    -1.0000177  -0.0004879   0.0000136   0.0000155  -0.0000056  -0.0000089  -0.9394468   0.2914228
0.1554236    -0.9999920  -0.0004607   0.0000174   0.0000151   0.0000006   0.0000022  -0.9394299   0.2915906
0.1573342    -1.0000579  -0.0004729   0.0000312   0.0000309  -0.0000109  -0.0000090  -0.9393141   0.2916879
0.1592684    -1.0001065  -0.0005627   0.0000211   0.0000137   0.0000048   0.0000032  -0.9394186   0.2917255
0.1612263    -1.0000680  -0.0005571   0.0000147   0.0000306   0.0000049  -0.0000010  -0.9393069   0.2918717
0.1632083    -1.0001714  -0.0006123   0.0000302   0.0000207   0.0000052  -0.0000046  -0.9393931   0.2919294
0.1652147    -1.0000439  -0.0005489   0.0000165   0.0000258  -0.0000054   0.0000015  -0.9392935   0.2920767
0.1672457    -1.0000262  -0.0005723   0.0000180   0.0000214   0.0000058  -0.0000092  -0.9392819   0.2921465
0.1693017    -1.0001687  -0.0006313   0.0000221   0.0000280  -0.0000093  -0.0000026  -0.9392562   0.2921591
0.1713829    -1.0001684  -0.0005551   0.0000272   0.0000244  -0.0000062  -0.0000029  -0.9392212   0.2923577
0.1734898    -1.0000145  -0.0005281   0.0000138   0.0000304  -0.0000008   0.0000005  -0.9391912   0.2923584
0.1756225    -1.0001018  -0.0004470   0.0000116   0.0000126   0.0000067  -0.0000024  -0.9391699   0.2925539
0.1777815    -1.0001318  -0.0006027   0.0000313   0.0000222  -0.0000031  -0.0000086  -0.9390592   0.2925714
0.1799670    -1.0001651  -0.0005459   0.0000169   0.0000050  -0.0000053  -0.0000102  -0.9390654   0.2927581
0.1821794    -1.0001340  -0.0005451   0.0000294   0.0000159   0.0000027  -0.0000042  -0.9390483   0.2928551
0.1844190    -1.0001153  -0.0004524   0.0000188   0.0000222  -0.0000014  -0.0000113  -0.9391059   0.2929285
0.1866861    -1.0001019  -0.0005871   0.0000220   0.0000209  -0.0000025  -0.0000085  -0.9389236   0.2930493
0.1889811    -1.0002069  -0.0006475   0.0000243   0.0000453  -0.0000052  -0.0000045  -0.9389341   0.2931909
0.1913043    -1.0001091  -0.0006561   0.0000284   0.0000232  -0.0000022  -0.0000077  -0.9389398   0.2931881
0.1936560    -1.0000804  -0.0006836   0.0000185   0.0000242  -0.0000029   0.0000011  -0.9388743   0.2934055
0.1960367    -1.0002784  -0.0005828   0.0000167   0.0000257  -0.0000034  -0.0000113  -0.9388666   0.2935421
0.1984466    -1.0001277  -0.0006089   0.0000174   0.0000157  -0.0000069  -0.0000007  -0.9388003   0.2935264
0.2008861    -1.0001135  -0.0005901   0.0000246   0.0000023  -0.0000035  -0.0000135  -0.9388468   0.2937072
0.2033557    -1.0000718  -0.0006537   0.0000216   0.0000219  -0.0000017  -0.0000072  -0.9388149   0.2937507
0.2058556    -1.0001648  -0.0005891   0.0000156   0.0000329   0.0000063  -0.0000012  -0.9386165   0.2938308
0.2083862    -1.0000522  -0.0006471   0.0000251   0.0000106  -0.0000007  -0.0000098  -0.9386430   0.2939738
0.2109480    -1.0001129  -0.0006062   0.0000229   0.0000163  -0.0000041   0.0000037  -0.9386125   0.2940661
0.2135412    -0.9999613  -0.0005944   0.0000278   0.0000239   0.0000026  -0.0000099  -0.9385548   0.2941996
0.2161663    -1.0000851  -0.0007067   0.0000302   0.0000186   0.0000069  -0.0000061  -0.9385860   0.2942747
0.2188237    -0.9999864  -0.0006507   0.0000107   0.0000218  -0.0000015  -0.0000051  -0.9385893   0.2944157
0.2215137    -1.0000584  -0.0006786   0.0000286   0.0000217  -0.0000176  -0.0000081  -0.9384733   0.2944849
0.2242369    -1.0001415  -0.0007629   0.0000160   0.0000263  -0.0000093  -0.0000156  -0.9383799   0.2946712
0.2269935    -1.0002399  -0.0006530   0.0000072   0.0000151  -0.0000070  -0.0000102  -0.9383557   0.2947396
0.2297839    -1.0001646  -0.0006600   0.0000079   0.0000432   0.0000008  -0.0000095  -0.9383288   0.2948782
0.2326087    -1.0000703  -0.0006924   0.0000136   0.0000268  -0.0000072  -0.0000042  -0.9383012   0.2949777
0.2354682    -1.0000511  -0.0008293   0.0000197   0.0000329   0.0000062  -0.0000025  -0.9382314   0.2950852
0.2383629    -1.0001580  -0.0008032   0.0000214   0.0000248   0.0000095  -0.0000077  -0.9382402   0.2951383
0.2412932    -1.0001949  -0.0006680   0.0000220   0.0000331  -0.0000204  -0.0000146  -0.9381400   0.2952565
0.2442594    -1.0002093  -0.0007743   0.0000237   0.0000274  -0.0000093   0.0000065  -0.9381314   0.2954319
0.2472622    -1.0000798  -0.0008184   0.0000277   0.0000367  -0.0000034  -0.0000044  -0.9381191   0.2955686
0.2503018    -1.0001557  -0.0008395   0.0000404   0.0000083  -0.0000125  -0.0000093  -0.9379876   0.2957517
0.2533788    -1.0000606  -0.0008039   0.0000166   0.0000275  -0.0000040   0.0000031  -0.9379655   0.2957465
0.2564937    -1.0001749  -0.0006974   0.0000152   0.0000348  -0.0000017  -0.0000116  -0.9379517   0.2958429
0.2596468    -1.0001053  -0.0007514   0.0000194   0.0000165  -0.0000103  -0.0000019  -0.9378675   0.2960615
0.2628387    -1.0001438  -0.0007670   0.0000289   0.0000179   0.0000019   0.0000031  -0.9378421   0.2962113
0.2660699    -1.0000967  -0.0008105   0.0000125   0.0000272   0.0000030  -0.0000001  -0.9377637   0.2962477
0.2693407    -1.0001446  -0.0009135   0.0000249   0.0000156   0.0000029   0.0000017  -0.9376920   0.2964796
0.2726518    -1.0001341  -0.0006851   0.0000198   0.0000201   0.0000098  -0.0000065  -0.9376563   0.2965318
0.2760036    -1.0001590  -0.0008988   0.0000125   0.0000144  -0.0000009  -0.0000004  -0.9376370   0.2967253
0.2793966    -1.0000616  -0.0008042   0.0000281   0.0000315   0.0000015  -0.0000069  -0.9375655   0.2967840
0.2828312    -1.0001288  -0.0008486   0.0000251   0.0000402  -0.0000054  -0.0000065  -0.9375553   0.2969881
0.2863082    -1.0001650  -0.0008839   0.0000272   0.0000253  -0.0000069  -0.0000156  -0.9374514   0.2970842
0.2898278    -1.0001406  -0.0008878   0.0000213   0.0000186   0.0000011  -0.0000148  -0.9373987   0.2972562
0.2933907    -1.0001078  -0.0008604   0.0000243   0.0000427  -0.0000071  -0.0000110  -0.9374491   0.2973166
0.2969975    -1.0002638  -0.0008366   0.0000252   0.0000278   0.0000025  -0.0000002  -0.9373918   0.2974570
0.3006485    -1.0001666  -0.0009031   0.0000165   0.0000394  -0.0000037  -0.0000003  -0.9372446   0.2976492
0.3043445    -1.0001801  -0.0009248   0.0000227   0.0000284   0.0000030  -0.0000090  -0.9372233   0.2977212
0.3080858    -1.0002657  -0.0009206   0.0000197   0.0000289   0.0000008  -0.0000047  -0.9371217   0.2978439
0.3118732    -1.0002837  -0.0007521   0.0000245   0.0000348  -0.0000029  -0.0000037  -0.9370846   0.2981255
0.3157071    -1.0002024  -0.0009520   0.0000235   0.0000297   0.0000001  -0.0000051  -0.9369519   0.2981806
0.3195882    -1.0001468  -0.0010193   0.0000239   0.0000313  -0.0000056  -0.0000075  -0.9369621   0.2983713
0.3235170    -1.0002463  -0.0009605   0.0000278   0.0000327   0.0000005  -0.0000101  -0.9368877   0.2985743
0.3274941    -1.0002202  -0.0009626   0.0000238   0.0000337  -0.0000171  -0.0000030  -0.9368245   0.2986018
0.3315200    -1.0003882  -0.0010118   0.0000020   0.0000374  -0.0000011  -0.0000002  -0.9366881   0.2987612
0.3355955    -1.0002827  -0.0009804   0.0000377   0.0000366   0.0000024  -0.0000098  -0.9367534   0.2988743
0.3397210    -1.0001828  -0.0009828   0.0000193   0.0000438  -0.0000033  -0.0000140  -0.9366286   0.2991156
0.3438973    -1.0001795  -0.0009371   0.0000268   0.0000473   0.0000025  -0.0000018  -0.9365542   0.2991742
0.3481249    -1.0001696  -0.0010937   0.0000172   0.0000302  -0.0000090  -0.0000003  -0.9365513   0.2993079
0.3524045    -1.0002161  -0.0010081   0.0000282   0.0000289   0.0000071  -0.0000049  -0.9364981   0.2994654
0.3567367    -1.0002443  -0.0010194   0.0000184   0.0000270   0.0000048  -0.0000006  -0.9364733   0.2996630
0.3611221    -1.0003073  -0.0010279   0.0000252   0.0000444  -0.0000009  -0.0000053  -0.9363157   0.2998125
0.3655615    -1.0002078  -0.0009923   0.0000144   0.0000335   0.0000008   0.0000035  -0.9362350   0.2999891
0.3700554    -1.0001918  -0.0010447   0.0000238   0.0000313  -0.0000078   0.0000013  -0.9361766   0.3001423
0.3746046    -1.0002024  -0.0010302   0.0000183   0.0000478  -0.0000074   0.0000052  -0.9360952   0.3002810
0.3792097    -1.0003464  -0.0010653   0.0000093   0.0000396   0.0000027  -0.0000014  -0.9360310   0.3005167
0.3838714    -1.0002741  -0.0009143   0.0000236   0.0000218  -0.0000147   0.0000006  -0.9360487   0.3006684
0.3885905    -1.0001146  -0.0010611   0.0000228   0.0000364   0.0000014  -0.0000025  -0.9359445   0.3008066
0.3933675    -1.0002887  -0.0012513   0.0000300   0.0000375  -0.0000064  -0.0000079  -0.9358374   0.3010662
0.3982033    -1.0002678  -0.0011678   0.0000175   0.0000405   0.0000045  -0.0000028  -0.9357388   0.3011775
0.4030985    -1.0002051  -0.0010722   0.0000205   0.0000366  -0.0000013  -0.0000019  -0.9356822   0.3013380
0.4080538    -1.0002551  -0.0011549   0.0000288   0.0000429   0.0000088  -0.0000011  -0.9356213   0.3015114
0.4130701    -1.0003241  -0.0011783   0.0000287   0.0000457  -0.0000030  -0.0000011  -0.9354990   0.3017008
0.4181481    -1.0002737  -0.0011108   0.0000191   0.0000357  -0.0000217  -0.0000123  -0.9354835   0.3019167
0.4232885    -1.0002730  -0.0011244   0.0000246   0.0000471   0.0000013  -0.0000042  -0.9353929   0.3020374
0.4284921    -1.0002366  -0.0012101   0.0000234   0.0000433   0.0000050  -0.0000019  -0.9353126   0.3021829
0.4337597    -1.0002524  -0.0012315   0.0000345   0.0000377  -0.0000025  -0.0000129  -0.9351899   0.3024178
0.4390920    -1.0002139  -0.0011527   0.0000283   0.0000412   0.0000014  -0.0000040  -0.9351455   0.3026475
0.4444898    -1.0003237  -0.0011046   0.0000142   0.0000436   0.0000003  -0.0000071  -0.9350953   0.3028394
0.4499541    -1.0003208  -0.0012197   0.0000267   0.0000572   0.0000018   0.0000071  -0.9349420   0.3029515
0.4554854    -1.0002678  -0.0012349   0.0000178   0.0000439  -0.0000024   0.0000004  -0.9349191   0.3031716
0.4610848    -1.0002895  -0.0013604   0.0000125   0.0000372   0.0000036  -0.0000010  -0.9347462   0.3034583
0.4667531    -1.0003317  -0.0012794   0.0000203   0.0000362  -0.0000048  -0.0000122  -0.9347264   0.3035858
0.4724910    -1.0004240  -0.0013698   0.0000308   0.0000468   0.0000114  -0.0000039  -0.9345766   0.3037551
0.4782994    -1.0003642  -0.0012800   0.0000172   0.0000515  -0.0000062  -0.0000052  -0.9345650   0.3040264
0.4841793    -1.0002434  -0.0014225   0.0000184   0.0000563   0.0000106   0.0000023  -0.9344129   0.3041643
0.4901314    -1.0002965  -0.0013320   0.0000279   0.0000269   0.0000062  -0.0000086  -0.9344641   0.3044346
0.4961567    -1.0003247  -0.0013890   0.0000167   0.0000426  -0.0000058  -0.0000014  -0.9343045   0.3046205
0.5022561    -1.0002975  -0.0013376   0.0000176   0.0000491  -0.0000017  -0.0000053  -0.9341865   0.3048411
0.5084304    -1.0002826  -0.0012570   0.0000334   0.0000588  -0.0000013  -0.0000019  -0.9340425   0.3051119
0.5146807    -1.0003504  -0.0013562   0.0000243   0.0000366  -0.0000092  -0.0000063  -0.9339961   0.3052493
0.5210078    -1.0003075  -0.0014462   0.0000302   0.0000502   0.0000043  -0.0000041  -0.9338725   0.3054744
0.5274126    -1.0003331  -0.0013580   0.0000300   0.0000410  -0.0000064  -0.0000075  -0.9338402   0.3057256
0.5338963    -1.0003822  -0.0013166   0.0000145   0.0000737   0.0000003   0.0000057  -0.9337405   0.3059158
0.5404596    -1.0002805  -0.0014456   0.0000257   0.0000439  -0.0000084   0.0000050  -0.9336710   0.3062319
0.5471036    -1.0003053  -0.0014776   0.0000113   0.0000514  -0.0000094  -0.0000065  -0.9335276   0.3063257
0.5538292    -1.0003757  -0.0015056   0.0000189   0.0000549   0.0000020  -0.0000054  -0.9334165   0.3066357
0.5606376    -1.0003861  -0.0014157   0.0000171   0.0000450  -0.0000026  -0.0000073  -0.9332411   0.3068205
0.5675297    -1.0002803  -0.0015480   0.0000252   0.0000589  -0.0000022  -0.0000028  -0.9331879   0.3071370
0.5745064    -1.0004223  -0.0015721   0.0000196   0.0000498   0.0000018   0.0000011  -0.9330557   0.3073340
0.5815690    -1.0003614  -0.0015707   0.0000278   0.0000448   0.0000020   0.0000047  -0.9330523   0.3075216
0.5887183    -1.0003865  -0.0014833   0.0000237   0.0000528  -0.0000109  -0.0000114  -0.9328489   0.3077647
0.5959556    -1.0004105  -0.0015507   0.0000294   0.0000428  -0.0000057  -0.0000093  -0.9327533   0.3080503
0.6032818    -1.0003766  -0.0014548   0.0000306   0.0000442  -0.0000051  -0.0000031  -0.9326622   0.3083318
0.6106981    -1.0003401  -0.0015279   0.0000229   0.0000676   0.0000033  -0.0000101  -0.9325332   0.3086434
0.6182056    -1.0003799  -0.0015785   0.0000153   0.0000600   0.0000045  -0.0000047  -0.9324797   0.3087512
0.6258053    -1.0003666  -0.0016234   0.0000167   0.0000604  -0.0000036   0.0000009  -0.9323100   0.3090988
0.6334985    -1.0003152  -0.0015603   0.0000093   0.0000557   0.0000043  -0.0000057  -0.9322906   0.3093580
0.6412862    -1.0003296  -0.0015802   0.0000149   0.0000683  -0.0000087  -0.0000039  -0.9320162   0.3096498
0.6491697    -1.0004206  -0.0016286   0.0000261   0.0000502  -0.0000025   0.0000017  -0.9320639   0.3099768
0.6571501    -1.0003697  -0.0016398   0.0000255   0.0000551  -0.0000156  -0.0000076  -0.9318527   0.3101546
0.6652286    -1.0003680  -0.0016913   0.0000140   0.0000588   0.0000013  -0.0000025  -0.9317385   0.3105023
0.6734064    -1.0003881  -0.0015991   0.0000186   0.0000584  -0.0000007  -0.0000128  -0.9316249   0.3107810
0.6816848    -1.0004055  -0.0017115   0.0000372   0.0000600  -0.0000108  -0.0000052  -0.9314518   0.3109770
0.6900649    -1.0004872  -0.0018253   0.0000283   0.0000510  -0.0000001  -0.0000024  -0.9313558   0.3112493
0.6985480    -1.0003620  -0.0018295   0.0000179   0.0000515  -0.0000011  -0.0000022  -0.9312130   0.3116300
0.7071355    -1.0003412  -0.0017910   0.0000410   0.0000884   0.0000024  -0.0000047  -0.9311384   0.3119213
0.7158284    -1.0004161  -0.0018051   0.0000124   0.0000661   0.0000018  -0.0000044  -0.9310515   0.3121998
0.7246283    -1.0004123  -0.0018248   0.0000101   0.0000669  -0.0000065  -0.0000022  -0.9308397   0.3124587
0.7335363    -1.0004522  -0.0018993   0.0000220   0.0000656   0.0000072  -0.0000030  -0.9308036   0.3127722
0.7425539    -1.0004568  -0.0018212   0.0000254   0.0000676  -0.0000014  -0.0000051  -0.9306783   0.3131388
0.7516822    -1.0004396  -0.0018314   0.0000285   0.0000806  -0.0000061   0.0000039  -0.9304417   0.3133883
0.7609229    -1.0003875  -0.0019055   0.0000158   0.0000716  -0.0000108  -0.0000073  -0.9302693   0.3136903
0.7702771    -1.0004235  -0.0019416   0.0000315   0.0000610   0.0000060  -0.0000118  -0.9301103   0.3139566
0.7797463    -1.0004021  -0.0018064   0.0000133   0.0000646  -0.0000053  -0.0000039  -0.9299867   0.3143409
0.7893319    -1.0004700  -0.0020030   0.0000249   0.0000691  -0.0000011  -0.0000039  -0.9298566   0.3146606
0.7990353    -1.0004437  -0.0019399   0.0000218   0.0000680   0.0000108   0.0000006  -0.9297423   0.3149845
0.8088580    -1.0002888  -0.0020639   0.0000213   0.0000902  -0.0000011  -0.0000043  -0.9295781   0.3153214
0.8188015    -1.0005459  -0.0020212   0.0000398   0.0000549  -0.0000041  -0.0000032  -0.9294537   0.3156519
0.8288673    -1.0004860  -0.0021213   0.0000327   0.0000767  -0.0000032  -0.0000065  -0.9292674   0.3159989
0.8390567    -1.0003706  -0.0021605   0.0000218   0.0000795   0.0000029  -0.0000167  -0.9291964   0.3163791
0.8493714    -1.0004828  -0.0020577   0.0000213   0.0000742   0.0000081  -0.0000012  -0.9290133   0.3166715
0.8598130    -1.0004557  -0.0020875   0.0000116   0.0000835   0.0000073  -0.0000083  -0.9288463   0.3170546
0.8703829    -1.0004984  -0.0021105   0.0000204   0.0000797   0.0000037  -0.0000044  -0.9286617   0.3173866
0.8810827    -1.0004367  -0.0020999   0.0000146   0.0000894  -0.0000029  -0.0000054  -0.9285109   0.3178376
0.8919140    -1.0005521  -0.0020682   0.0000238   0.0000709   0.0000023  -0.0000108  -0.9283561   0.3181357
0.9028786    -1.0005423  -0.0021550   0.0000185   0.0000928  -0.0000092   0.0000004  -0.9281942   0.3185210
0.9139779    -1.0004903  -0.0022617   0.0000048   0.0000842  -0.0000026  -0.0000067  -0.9280326   0.3189216
0.9252136    -1.0004327  -0.0022712   0.0000221   0.0000849  -0.0000001  -0.0000139  -0.9278553   0.3192816
0.9365875    -1.0005913  -0.0022208   0.0000172   0.0000933  -0.0000034   0.0000006  -0.9276938   0.3196557
0.9481012    -1.0004647  -0.0022474   0.0000127   0.0000793  -0.0000017  -0.0000055  -0.9275186   0.3200543
0.9597564    -1.0003720  -0.0022514   0.0000190   0.0000692  -0.0000017  -0.0000023  -0.9273121   0.3204456
0.9715549    -1.0004883  -0.0022462   0.0000192   0.0000926  -0.0000036  -0.0000012  -0.9271461   0.3208858
0.9834985    -1.0004909  -0.0023189   0.0000184   0.0000783  -0.0000065  -0.0000013  -0.9270109   0.3212321
0.9955889    -1.0003904  -0.0023704   0.0000423   0.0000834  -0.0000032  -0.0000050  -0.9268638   0.3216050
1.0078279    -1.0005434  -0.0024748   0.0000278   0.0000943   0.0000107  -0.0000079  -0.9265545   0.3220619
1.0202173    -1.0004437  -0.0023441   0.0000255   0.0000951   0.0000011  -0.0000053  -0.9264578   0.3224213
1.0327591    -1.0005954  -0.0024480   0.0000172   0.0000945  -0.0000039  -0.0000004  -0.9262505   0.3229331
1.0454551    -1.0004793  -0.0024385   0.0000244   0.0000920   0.0000008  -0.0000101  -0.9260666   0.3233381
1.0583071    -1.0005683  -0.0024661   0.0000255   0.0000954  -0.0000013   0.0000049  -0.9258682   0.3237213
1.0713171    -1.0003349  -0.0024236   0.0000328   0.0000943  -0.0000064   0.0000018  -0.9255917   0.3241481
1.0844871    -1.0004313  -0.0024437   0.0000420   0.0000925  -0.0000048   0.0000027  -0.9254617   0.3245377
1.0978189    -1.0005885  -0.0025936   0.0000097   0.0001038   0.0000007   0.0000068  -0.9252756   0.3250599
1.1113147    -1.0004286  -0.0026074   0.0000241   0.0000962  -0.0000006  -0.0000055  -0.9250334   0.3254274
1.1249763    -1.0005973  -0.0027039   0.0000274   0.0001198  -0.0000013  -0.0000018  -0.9248774   0.3259905
1.1388059    -1.0005709  -0.0026049   0.0000196   0.0000955  -0.0000019  -0.0000060  -0.9247198   0.3264517
1.1528056    -1.0004979  -0.0026143   0.0000206   0.0001045  -0.0000044  -0.0000036  -0.9244583   0.3268988
1.1669773    -1.0006267  -0.0027678   0.0000198   0.0001083  -0.0000009  -0.0000082  -0.9242727   0.3273953
1.1813232    -1.0004690  -0.0027178   0.0000306   0.0001014  -0.0000031  -0.0000048  -0.9240773   0.3278585
1.1958455    -1.0005046  -0.0028001   0.0000193   0.0001074   0.0000009   0.0000004  -0.9238039   0.3283554
1.2105463    -1.0005400  -0.0027402   0.0000217   0.0001328  -0.0000031  -0.0000085  -0.9236208   0.3288517
1.2254278    -1.0004742  -0.0027601   0.0000185   0.0001155  -0.0000064   0.0000002  -0.9233540   0.3293477
1.2404923    -1.0006240  -0.0029138   0.0000149   0.0001126   0.0000005  -0.0000006  -0.9232183   0.3298264
1.2557420    -1.0006675  -0.0028591   0.0000300   0.0001170   0.0000060  -0.0000034  -0.9229541   0.3303611
1.2711791    -1.0006460  -0.0029764   0.0000148   0.0001038   0.0000058   0.0000032  -0.9226769   0.3308420
1.2868060    -1.0005717  -0.0028610   0.0000138   0.0001251  -0.0000086   0.0000018  -0.9224299   0.3313969
1.3026251    -1.0005617  -0.0029997   0.0000150   0.0001093   0.0000010  -0.0000178  -0.9221532   0.3319239
1.3186385    -1.0005899  -0.0030705   0.0000276   0.0001160  -0.0000032  -0.0000001  -0.9219294   0.3324706
1.3348489    -1.0006259  -0.0031009   0.0000261   0.0001302  -0.0000022  -0.0000067  -0.9217568   0.3330027
1.3512585    -1.0005180  -0.0031013   0.0000125   0.0001270  -0.0000067  -0.0000152  -0.9214508   0.3335168
1.3678698    -1.0005676  -0.0031317   0.0000235   0.0001209  -0.0000091  -0.0000157  -0.9212825   0.3340755
1.3846854    -1.0006547  -0.0031137   0.0000265   0.0001230   0.0000027  -0.0000135  -0.9210106   0.3347380
1.4017077    -1.0006386  -0.0031102   0.0000135   0.0001377   0.0000041   0.0000045  -0.9207423   0.3352204
1.4189392    -1.0005137  -0.0032030   0.0000251   0.0001192   0.0000006   0.0000001  -0.9205003   0.3357456
1.4363825    -1.0005789  -0.0032041   0.0000258   0.0001357  -0.0000072  -0.0000012  -0.9202484   0.3363581
1.4540403    -1.0006970  -0.0032109   0.0000217   0.0001435  -0.0000064  -0.0000011  -0.9199559   0.3369570
1.4719152    -1.0005873  -0.0032800   0.0000145   0.0001470   0.0000078   0.0000075  -0.9197156   0.3376479
1.4900098    -1.0006593  -0.0033654   0.0000261   0.0001279   0.0000059  -0.0000025  -0.9193985   0.3381595
1.5083269    -1.0006827  -0.0033426   0.0000066   0.0001425  -0.0000053   0.0000013  -0.9191216   0.3387463
1.5268691    -1.0006553  -0.0033956   0.0000028   0.0001300   0.0000075  -0.0000016  -0.9188447   0.3393919
1.5456392    -1.0006043  -0.0034750   0.0000169   0.0001366  -0.0000034  -0.0000016  -0.9186352   0.3399954
1.5646402    -1.0007343  -0.0034304   0.0000187   0.0001479   0.0000027  -0.0000022  -0.9183255   0.3407034
1.5838747    -1.0006262  -0.0035087   0.0000199   0.0001549  -0.0000058   0.0000018  -0.9180071   0.3413056
1.6033456    -1.0005920  -0.0035504   0.0000328   0.0001527  -0.0000038   0.0000005  -0.9178175   0.3419714
1.6230559    -1.0007116  -0.0035159   0.0000329   0.0001464   0.0000040  -0.0000088  -0.9174998   0.3426997
1.6430085    -1.0007348  -0.0036620   0.0000181   0.0001471  -0.0000092  -0.0000087  -0.9171685   0.3433497
1.6632064    -1.0006462  -0.0037401   0.0000127   0.0001505  -0.0000108  -0.0000073  -0.9168588   0.3440620
1.6836526    -1.0006327  -0.0037167   0.0000166   0.0001477   0.0000037  -0.0000099  -0.9166106   0.3447857
1.7043502    -1.0006532  -0.0038583   0.0000217   0.0001434   0.0000002  -0.0000113  -0.9161800   0.3455200
1.7253021    -1.0007105  -0.0037651   0.0000242   0.0001678  -0.0000079  -0.0000040  -0.9159925   0.3461715
1.7465117    -1.0006424  -0.0038293   0.0000297   0.0001688   0.0000025  -0.0000055  -0.9157903   0.3469968
1.7679820    -1.0007636  -0.0038420   0.0000276   0.0001637  -0.0000045   0.0000031  -0.9154066   0.3477171
1.7897162    -1.0006278  -0.0039554   0.0000158   0.0001775  -0.0000016  -0.0000074  -0.9151174   0.3484560
1.8117176    -1.0006256  -0.0039367   0.0000271   0.0001714  -0.0000088  -0.0000035  -0.9147761   0.3493066
1.8339895    -1.0007461  -0.0039821   0.0000032   0.0001811  -0.0000118  -0.0000034  -0.9144893   0.3500739
1.8565352    -1.0006605  -0.0040948   0.0000094   0.0001872  -0.0000061  -0.0000007  -0.9141587   0.3508992
1.8793580    -1.0006289  -0.0040247   0.0000085   0.0001621   0.0000050  -0.0000067  -0.9138773   0.3516445
1.9024614    -1.0006601  -0.0041049   0.0000272   0.0001657   0.0000034   0.0000019  -0.9136433   0.3524820
1.9258488    -1.0007011  -0.0042698   0.0000282   0.0001749  -0.0000040  -0.0000066  -0.9132013   0.3533232
1.9495237    -1.0006997  -0.0042834   0.0000160   0.0001876  -0.0000036  -0.0000086  -0.9128573   0.3542622
1.9734897    -1.0007437  -0.0043465   0.0000255   0.0001807  -0.0000027  -0.0000027  -0.9124967   0.3551210
1.9977503    -1.0006987  -0.0041805   0.0000127   0.0001847  -0.0000022  -0.0000100  -0.9121862   0.3560367
2.0223091    -1.0007935  -0.0043843   0.0000107   0.0001871   0.0000036  -0.0000066  -0.9117146   0.3569520
2.0471698    -1.0006720  -0.0044899   0.0000255   0.0001853   0.0000021  -0.0000058  -0.9112576   0.3578717
2.0723362    -1.0006889  -0.0044711   0.0000047   0.0001876  -0.0000052  -0.0000109  -0.9108508   0.3587810
2.0978119    -1.0007236  -0.0044406   0.0000241   0.0001697  -0.0000046  -0.0000081  -0.9103719   0.3597379
2.1236008    -1.0007411  -0.0046552   0.0000330   0.0002007  -0.0000093  -0.0000004  -0.9098752   0.3606545
2.1497067    -1.0007016  -0.0046170   0.0000229   0.0001835  -0.0000046  -0.0000022  -0.9093895   0.3616367
2.1761336    -1.0007361  -0.0047265   0.0000268   0.0001906  -0.0000068  -0.0000094  -0.9089004   0.3624516
2.2028853    -1.0007393  -0.0046602   0.0000230   0.0002035  -0.0000069  -0.0000036  -0.9082573   0.3634525
2.2299659    -1.0008168  -0.0047625   0.0000185   0.0001967  -0.0000041  -0.0000103  -0.9079217   0.3643863
2.2573794    -1.0008111  -0.0048441   0.0000234   0.0002048  -0.0000005   0.0000045  -0.9073349   0.3653268
2.2851299    -1.0008372  -0.0048233   0.0000253   0.0002113  -0.0000203  -0.0000078  -0.9067572   0.3662666
2.3132216    -1.0008475  -0.0049889   0.0000158   0.0002078  -0.0000061  -0.0000051  -0.9062437   0.3671181
2.3416586    -1.0008313  -0.0050891   0.0000249   0.0002101   0.0000013  -0.0000147  -0.9056892   0.3680784
2.3704451    -1.0008887  -0.0051132   0.0000114   0.0002065  -0.0000051  -0.0000091  -0.9051684   0.3691096
2.3995856    -1.0007947  -0.0052364   0.0000216   0.0002222  -0.0000066  -0.0000082  -0.9045189   0.3700807
2.4290843    -1.0007452  -0.0051369   0.0000135   0.0002284  -0.0000003  -0.0000136  -0.9041214   0.3709168
2.4589456    -1.0008102  -0.0052125   0.0000207   0.0002201  -0.0000015  -0.0000055  -0.9035454   0.3719175
2.4891740    -1.0006258  -0.0052867   0.0000117   0.0002145   0.0000065   0.0000046  -0.9030067   0.3729132
2.5197740    -1.0007752  -0.0054173   0.0000235   0.0002292  -0.0000101  -0.0000049  -0.9025121   0.3739415
2.5507502    -1.0007850  -0.0054206   0.0000298   0.0002330  -0.0000041   0.0000006  -0.9019500   0.3748543
2.5821072    -1.0008845  -0.0054463   0.0000258   0.0002377   0.0000005  -0.0000009  -0.9013914   0.3758758
2.6138496    -1.0008631  -0.0055818   0.0000290   0.0002341  -0.0000073  -0.0000027  -0.9007222   0.3768633
2.6459823    -1.0008110  -0.0056527   0.0000149   0.0002512  -0.0000029   0.0000048  -0.9001987   0.3779199
2.6785100    -1.0008660  -0.0056648   0.0000153   0.0002321  -0.0000082  -0.0000121  -0.8996597   0.3790409
2.7114376    -1.0008929  -0.0057957   0.0000303   0.0002429  -0.0000063  -0.0000062  -0.8990225   0.3800620
2.7447699    -1.0008188  -0.0057625   0.0000143   0.0002448   0.0000017  -0.0000063  -0.8984440   0.3810689
2.7785120    -1.0008196  -0.0059110   0.0000267   0.0002492  -0.0000026  -0.0000068  -0.8978285   0.3821643
2.8126689    -1.0008171  -0.0058856   0.0000328   0.0002408  -0.0000122   0.0000035  -0.8973122   0.3833147
2.8472457    -1.0008840  -0.0059739   0.0000233   0.0002578  -0.0000035  -0.0000070  -0.8967607   0.3844286
2.8822476    -1.0009022  -0.0061000   0.0000329   0.0002573   0.0000060   0.0000022  -0.8961782   0.3855124
2.9176798    -1.0008234  -0.0061853   0.0000173   0.0002515  -0.0000007  -0.0000141  -0.8955195   0.3866086
2.9535475    -1.0008948  -0.0062502   0.0000274   0.0002647  -0.0000058  -0.0000054  -0.8949483   0.3878070
2.9898562    -1.0009936  -0.0063268   0.0000349   0.0002806  -0.0000028  -0.0000049  -0.8942470   0.3890268
3.0266112    -1.0008511  -0.0063441   0.0000076   0.0002599  -0.0000014  -0.0000102  -0.8936296   0.3901293
3.0638180    -1.0008737  -0.0063534   0.0000276   0.0002720  -0.0000027  -0.0000106  -0.8929854   0.3913348
3.1014823    -1.0008770  -0.0065923   0.0000260   0.0002825   0.0000122   0.0000001  -0.8923790   0.3926033
3.1396096    -1.0009064  -0.0065150   0.0000183   0.0002875   0.0000007  -0.0000151  -0.8916534   0.3937399
3.1782055    -1.0008604  -0.0066801   0.0000127   0.0002738  -0.0000052  -0.0000060  -0.8910269   0.3950064
3.2172760    -1.0010030  -0.0067308   0.0000075   0.0002716  -0.0000021  -0.0000025  -0.8903442   0.3962763
3.2568267    -1.0009809  -0.0067546   0.0000277   0.0003042   0.0000000   0.0000010  -0.8897056   0.3975141
3.2968637    -1.0009729  -0.0068403   0.0000129   0.0002796   0.0000079  -0.0000071  -0.8889123   0.3988380
3.3373928    -1.0009020  -0.0070171   0.0000236   0.0002954  -0.0000055  -0.0000043  -0.8882090   0.4000991
3.3784202    -1.0009552  -0.0070235   0.0000117   0.0003011   0.0000017  -0.0000115  -0.8874257   0.4014749
3.4199519    -1.0009230  -0.0072056   0.0000271   0.0002900  -0.0000018  -0.0000072  -0.8867184   0.4027799
3.4619942    -1.0009403  -0.0072376   0.0000174   0.0003071   0.0000094  -0.0000015  -0.8859021   0.4040620
3.5045533    -1.0010070  -0.0071992   0.0000220   0.0003141  -0.0000130  -0.0000043  -0.8851955   0.4055343
3.5476356    -1.0009833  -0.0073784   0.0000254   0.0003069  -0.0000032  -0.0000072  -0.8844131   0.4068135
3.5912475    -1.0010219  -0.0074519   0.0000116   0.0003286   0.0000050  -0.0000068  -0.8835820   0.4081858
3.6353956    -1.0008809  -0.0075402   0.0000209   0.0003233  -0.0000033   0.0000033  -0.8828196   0.4096963
3.6800864    -1.0009927  -0.0076174   0.0000236   0.0003305  -0.0000019  -0.0000012  -0.8820544   0.4111741
3.7253266    -1.0010778  -0.0077187   0.0000089   0.0003312  -0.0000012   0.0000029  -0.8812237   0.4125975
3.7711229    -1.0010077  -0.0077398   0.0000150   0.0003345   0.0000036  -0.0000073  -0.8804596   0.4140384
3.8174822    -1.0010577  -0.0078008   0.0000199   0.0003341   0.0000054  -0.0000037  -0.8795996   0.4154965
3.8644115    -1.0010487  -0.0079369   0.0000197   0.0003368  -0.0000027  -0.0000005  -0.8788628   0.4170898
3.9119176    -1.0009740  -0.0080887   0.0000453   0.0003337   0.0000050  -0.0000047  -0.8780034   0.4186069
3.9600077    -1.0010436  -0.0081937   0.0000126   0.0003454  -0.0000003  -0.0000106  -0.8772529   0.4201030
4.0086890    -1.0009765  -0.0082644   0.0000178   0.0003595  -0.0000001  -0.0000011  -0.8762245   0.4216955
4.0579688    -1.0011130  -0.0083259   0.0000256   0.0003658   0.0000105  -0.0000087  -0.8753939   0.4232443
4.1078544    -1.0009224  -0.0084535   0.0000341   0.0003615   0.0000009  -0.0000062  -0.8745147   0.4247613
4.1583532    -1.0010097  -0.0084657   0.0000263   0.0003683  -0.0000076  -0.0000134  -0.8735491   0.4263804
4.2094729    -1.0010749  -0.0086511   0.0000128   0.0003800  -0.0000130  -0.0000085  -0.8727399   0.4279787
4.2612209    -1.0010678  -0.0086886   0.0000189   0.0003755   0.0000049  -0.0000003  -0.8717528   0.4295703
4.3136051    -1.0010782  -0.0088469   0.0000227   0.0003886   0.0000094  -0.0000038  -0.8707551   0.4312195
4.3666333    -1.0010963  -0.0089760   0.0000059   0.0003894  -0.0000042  -0.0000094  -0.8698497   0.4329018
4.4203134    -1.0010754  -0.0091123   0.0000212   0.0003773  -0.0000094  -0.0000055  -0.8687537   0.4345216
4.4746534    -1.0011097  -0.0092748   0.0000150   0.0003868  -0.0000100  -0.0000040  -0.8676684   0.4362446
4.5296613    -1.0011913  -0.0092325   0.0000312   0.0003974  -0.0000140  -0.0000062  -0.8666960   0.4379928
4.5853455    -1.0010522  -0.0094361   0.0000153   0.0003989   0.0000126  -0.0000056  -0.8655878   0.4397037
4.6417143    -1.0010741  -0.0095214   0.0000174   0.0004210   0.0000038  -0.0000010  -0.8644354   0.4412928
4.6987760    -1.0010493  -0.0095946   0.0000172   0.0004145  -0.0000146  -0.0000077  -0.8633619   0.4429503
4.7565392    -1.0010001  -0.0097237   0.0000335   0.0004137  -0.0000048  -0.0000118  -0.8622112   0.4446939
4.8150125    -1.0010861  -0.0097849   0.0000163   0.0004239   0.0000012  -0.0000054  -0.8610678   0.4463435
4.8742045    -1.0011554  -0.0099090   0.0000249   0.0004223   0.0000013  -0.0000100  -0.8598778   0.4479819
4.9341243    -1.0012471  -0.0100523   0.0000148   0.0004361  -0.0000079  -0.0000109  -0.8588102   0.4494953
4.9947807    -1.0010269  -0.0101460   0.0000163   0.0004455  -0.0000006  -0.0000013  -0.8578174   0.4510817
5.0561827    -1.0010761  -0.0102887   0.0000228   0.0004372  -0.0000007  -0.0000055  -0.8568059   0.4527803
5.1183396    -1.0011791  -0.0104620   0.0000312   0.0004597   0.0000014  -0.0000067  -0.8558557   0.4544847
5.1812606    -1.0011704  -0.0105740   0.0000181   0.0004532   0.0000041   0.0000007  -0.8549632   0.4562606
5.2449550    -1.0011371  -0.0105742   0.0000322   0.0004557  -0.0000038  -0.0000165  -0.8540537   0.4582926
5.3094325    -1.0011203  -0.0107471   0.0000296   0.0004768  -0.0000002  -0.0000129  -0.8530595   0.4601084
5.3747026    -1.0011866  -0.0109659   0.0000067   0.0004727  -0.0000032  -0.0000010  -0.8520304   0.4623129
5.4407751    -1.0011913  -0.0110795   0.0000078   0.0004726   0.0000050  -0.0000045  -0.8508710   0.4642557
5.5076599    -1.0011879  -0.0111999   0.0000188   0.0004810  -0.0000117  -0.0000096  -0.8497691   0.4663224
5.5753669    -1.0012608  -0.0112282   0.0000332   0.0004932   0.0000046  -0.0000046  -0.8485973   0.4684798
5.6439062    -1.0012074  -0.0115296   0.0000153   0.0004976   0.0000020  -0.0000020  -0.8474325   0.4705647
5.7132881    -1.0011404  -0.0115890   0.0000261   0.0004922  -0.0000053  -0.0000021  -0.8461542   0.4727491
5.7835229    -1.0012551  -0.0117342   0.0000269   0.0005026   0.0000120  -0.0000015  -0.8448744   0.4749231
5.8546211    -1.0012819  -0.0119026   0.0000189   0.0005209   0.0000019  -0.0000059  -0.8436650   0.4771559
5.9265934    -1.0011684  -0.0120047   0.0000326   0.0005147   0.0000031  -0.0000032  -0.8422969   0.4793258
5.9994504    -1.0012290  -0.0121319   0.0000145   0.0005338  -0.0000047  -0.0000054  -0.8409209   0.4814409
6.0732031    -1.0012488  -0.0124126   0.0000154   0.0005332  -0.0000113  -0.0000100  -0.8395623   0.4836481
6.1478624    -1.0012711  -0.0124422   0.0000280   0.0005487   0.0000063  -0.0000045  -0.8381859   0.4858738
6.2234396    -1.0011878  -0.0125030   0.0000167   0.0005416  -0.0000013  -0.0000036  -0.8366054   0.4881844
6.2999458    -1.0011842  -0.0125556   0.0000189   0.0005450  -0.0000015  -0.0000074  -0.8352632   0.4904485
6.3773925    -1.0011761  -0.0128996   0.0000361   0.0005408  -0.0000065  -0.0000109  -0.8337530   0.4927246
6.4557914    -1.0012813  -0.0130106   0.0000287   0.0005620   0.0000019  -0.0000044  -0.8322471   0.4949631
6.5351539    -1.0013524  -0.0131044   0.0000321   0.0005706  -0.0000016   0.0000001  -0.8307492   0.4973691
6.6154922    -1.0013748  -0.0133369   0.0000283   0.0005839   0.0000017  -0.0000067  -0.8291662   0.4997310
6.6968180    -1.0012632  -0.0134839   0.0000281   0.0005820  -0.0000013  -0.0000054  -0.8275994   0.5021189
6.7791436    -1.0012366  -0.0136597   0.0000283   0.0005938  -0.0000036  -0.0000061  -0.8260330   0.5044637
6.8624812    -1.0012947  -0.0137961   0.0000288   0.0005993  -0.0000017  -0.0000108  -0.8244187   0.5069328
6.9468433    -1.0012763  -0.0139384   0.0000171   0.0006080  -0.0000075   0.0000006  -0.8228260   0.5093485
7.0322425    -1.0011916  -0.0140754   0.0000158   0.0006200  -0.0000001  -0.0000017  -0.8211146   0.5118158
7.1186916    -1.0012636  -0.0142722   0.0000146   0.0006240   0.0000055  -0.0000068  -0.8194095   0.5143454
7.2062034    -1.0012345  -0.0143774   0.0000273   0.0006307  -0.0000054  -0.0000028  -0.8176992   0.5169044
7.2947909    -1.0012075  -0.0146726   0.0000219   0.0006381  -0.0000060  -0.0000003  -0.8159561   0.5194736
7.3844675    -1.0013133  -0.0148120   0.0000191   0.0006450  -0.0000109  -0.0000018  -0.8142863   0.5220747
7.4752466    -1.0012981  -0.0149972   0.0000280   0.0006550   0.0000062  -0.0000064  -0.8124937   0.5246904
7.5671416    -1.0012570  -0.0151095   0.0000166   0.0006662  -0.0000101   0.0000033  -0.8107805   0.5273408
7.6601662    -1.0013720  -0.0152859   0.0000178   0.0006734  -0.0000032  -0.0000058  -0.8089321   0.5300260
7.7543345    -1.0014010  -0.0155635   0.0000126   0.0006604  -0.0000011  -0.0000027  -0.8070409   0.5328550
7.8496604    -1.0013997  -0.0156438   0.0000234   0.0006758  -0.0000081  -0.0000079  -0.8052010   0.5356596
7.9461581    -1.0013458  -0.0158230   0.0000300   0.0006969  -0.0000041  -0.0000001  -0.8031845   0.5385086
8.0438422    -1.0014126  -0.0159847   0.0000061   0.0006985  -0.0000019   0.0000034  -0.8012046   0.5413537
8.1427270    -1.0013529  -0.0162140   0.0000305   0.0007244   0.0000042   0.0000010  -0.7990345   0.5443276
8.2428275    -1.0013958  -0.0163843   0.0000157   0.0007179   0.0000016   0.0000028  -0.7968067   0.5471867
8.3441586    -1.0013790  -0.0166577   0.0000193   0.0007298  -0.0000017   0.0000017  -0.7946318   0.5499687
8.4467353    -1.0014583  -0.0168114   0.0000051   0.0007335   0.0000085  -0.0000037  -0.7923743   0.5529673
8.5505731    -1.0014336  -0.0169157   0.0000121   0.0007555   0.0000036  -0.0000037  -0.7900742   0.5557386
8.6556873    -1.0014241  -0.0172559   0.0000207   0.0007491   0.0000022  -0.0000069  -0.7877981   0.5586649
8.7620937    -1.0014620  -0.0174433   0.0000203   0.0007660  -0.0000146  -0.0000022  -0.7855033   0.5615264
8.8698082    -1.0013688  -0.0176778   0.0000183   0.0007692   0.0000006  -0.0000076  -0.7831491   0.5644380
8.9788469    -1.0014817  -0.0178334   0.0000199   0.0007822   0.0000057  -0.0000060  -0.7808526   0.5673655
9.0892260    -1.0013821  -0.0180417   0.0000156   0.0007819  -0.0000017  -0.0000065  -0.7784899   0.5703176
9.2009621    -1.0014388  -0.0182629   0.0000319   0.0007933  -0.0000012  -0.0000011  -0.7759998   0.5733714
9.3140717    -1.0014950  -0.0185639   0.0000347   0.0008071   0.0000038   0.0000058  -0.7735743   0.5763568
9.4285718    -1.0015109  -0.0187039   0.0000071   0.0008066  -0.0000053  -0.0000121  -0.7711036   0.5794398
9.5444795    -1.0014891  -0.0189244   0.0000404   0.0008204  -0.0000082   0.0000062  -0.7685506   0.5825374
9.6618121    -1.0015301  -0.0191204   0.0000199   0.0008407   0.0000018  -0.0000043  -0.7660223   0.5856292
9.7805870    -1.0015682  -0.0192948   0.0000100   0.0008419   0.0000009   0.0000032  -0.7634060   0.5888029
9.9008221    -1.0014499  -0.0195042   0.0000202   0.0008489   0.0000039  -0.0000012  -0.7607542   0.5920226
10.0225353   -1.0015115  -0.0198450   0.0000273   0.0008593  -0.0000049  -0.0000083  -0.7581033   0.5951324
10.1457447   -1.0015324  -0.0201288   0.0000246   0.0008942  -0.0000039  -0.0000058  -0.7553612   0.5984296
10.2704688   -1.0015610  -0.0202818   0.0000160   0.0008883  -0.0000041  -0.0000085  -0.7526769   0.6017045
10.3967261   -1.0015130  -0.0205602   0.0000083   0.0008949  -0.0000061  -0.0000066  -0.7498397   0.6050384
10.5245356   -1.0015137  -0.0208565   0.0000276   0.0009181  -0.0000079  -0.0000076  -0.7469667   0.6082174
10.6539162   -1.0015655  -0.0209478   0.0000292   0.0009463   0.0000029   0.0000029  -0.7440703   0.6115378
10.7848873   -1.0016128  -0.0212403   0.0000215   0.0009363   0.0000005  -0.0000063  -0.7411368   0.6149778
10.9174685   -1.0015269  -0.0214690   0.0000269   0.0009424  -0.0000070  -0.0000035  -0.7381281   0.6183689
11.0516796   -1.0017026  -0.0217202   0.0000091   0.0009693  -0.0000045   0.0000037  -0.7349763   0.6217995
11.1875405   -1.0016364  -0.0220328   0.0000164   0.0009670   0.0000009  -0.0000076  -0.7319551   0.6253218
11.3250716   -1.0014274  -0.0223400   0.0000258   0.0009720  -0.0000013  -0.0000002  -0.7288001   0.6287838
11.4642934   -1.0015941  -0.0226271   0.0000210   0.0009877  -0.0000070  -0.0000020  -0.7255736   0.6322627
11.6052267   -1.0016353  -0.0228040   0.0000092   0.0010019  -0.0000104  -0.0000051  -0.7223402   0.6358978
11.7478926   -1.0015057  -0.0230788   0.0000279   0.0010251  -0.0000036   0.0000009  -0.7190147   0.6394037
11.8923122   -1.0015690  -0.0234319   0.0000170   0.0010458   0.0000007   0.0000002  -0.7156511   0.6429700
12.0385073   -1.0016274  -0.0237769   0.0000194   0.0010293  -0.0000075  -0.0000003  -0.7121713   0.6466395
12.1864995   -1.0016519  -0.0239448   0.0000209   0.0010601  -0.0000044  -0.0000095  -0.7086981   0.6502674
12.3363111   -1.0016663  -0.0241654   0.0000252   0.0010588  -0.0000098  -0.0000015  -0.7052440   0.6539590
12.4879643   -1.0016348  -0.0244672   0.0000254   0.0010792  -0.0000047  -0.0000026  -0.7015574   0.6576797
12.6414818   -1.0015829  -0.0247770   0.0000170   0.0010960   0.0000050  -0.0000068  -0.6978449   0.6613944
12.7968866   -1.0017028  -0.0250307   0.0000185   0.0011129   0.0000019  -0.0000131  -0.6941116   0.6651428
12.9542018   -1.0016030  -0.0253667   0.0000165   0.0011184   0.0000027   0.0000004  -0.6903715   0.6689079
13.1134509   -1.0017192  -0.0256290   0.0000086   0.0011297  -0.0000100  -0.0000035  -0.6864955   0.6727020
13.2746577   -1.0016950  -0.0260084   0.0000235   0.0011388  -0.0000033  -0.0000037  -0.6825288   0.6765492
13.4378462   -1.0015953  -0.0262520   0.0000250   0.0011622   0.0000116  -0.0000093  -0.6785797   0.6805044
13.6030409   -1.0016512  -0.0265944   0.0000052   0.0011671   0.0000024  -0.0000091  -0.6744924   0.6843455
13.7702663   -1.0016309  -0.0268974   0.0000217   0.0011792  -0.0000078   0.0000053  -0.6703140   0.6882447
13.9395475   -1.0016920  -0.0271925   0.0000260   0.0012046  -0.0000009  -0.0000010  -0.6661352   0.6921232
14.1109097   -1.0015921  -0.0275235   0.0000155   0.0012107  -0.0000038  -0.0000051  -0.6618006   0.6961022
14.2843785   -1.0017591  -0.0278442   0.0000217   0.0012276   0.0000052   0.0000030  -0.6574447   0.7000021
14.4599797   -1.0017051  -0.0282857   0.0000069   0.0012525   0.0000036  -0.0000067  -0.6530176   0.7040575
14.6377397   -1.0017722  -0.0284968   0.0000217   0.0012600  -0.0000093  -0.0000076  -0.6485291   0.7080584
14.8176850   -1.0017529  -0.0288929   0.0000233   0.0012704  -0.0000131   0.0000027  -0.6439510   0.7120446
14.9998423   -1.0016785  -0.0292329   0.0000233   0.0012824  -0.0000022  -0.0000131  -0.6392536   0.7161155
15.1842390   -1.0017383  -0.0296025   0.0000170   0.0013097  -0.0000130   0.0000049  -0.6344815   0.7202062
15.3709024   -1.0016842  -0.0299139   0.0000223   0.0013274  -0.0000048   0.0000017  -0.6297241   0.7242485
15.5598606   -1.0017587  -0.0302686   0.0000170   0.0013424  -0.0000054  -0.0000108  -0.6248621   0.7283607
15.7511417   -1.0017685  -0.0306573  -0.0000006   0.0013500   0.0000019  -0.0000063  -0.6198680   0.7325479
15.9447743   -1.0017479  -0.0310207   0.0000135   0.0013700   0.0000020  -0.0000005  -0.6148227   0.7366409
16.1407872   -1.0017654  -0.0313480   0.0000357   0.0013852  -0.0000153  -0.0000110  -0.6095775   0.7408179
16.3392097   -1.0017164  -0.0317814   0.0000094   0.0013975  -0.0000056   0.0000011  -0.6043237   0.7450111
16.5400716   -1.0017395  -0.0321239   0.0000217   0.0014246  -0.0000077   0.0000002  -0.5990279   0.7492048
16.7434026   -1.0018790  -0.0324045   0.0000197   0.0014428  -0.0000112  -0.0000024  -0.5935454   0.7533613
16.9492333   -1.0018339  -0.0328706   0.0000138   0.0014562   0.0000049   0.0000022  -0.5880423   0.7577115
17.1575942   -1.0018427  -0.0332894   0.0000267   0.0014821  -0.0000039   0.0000064  -0.5824226   0.7618352
17.3685166   -1.0017689  -0.0336711   0.0000155   0.0014892  -0.0000002   0.0000013  -0.5767305   0.7661086
17.5820320   -1.0017960  -0.0339790   0.0000234   0.0015123  -0.0000036  -0.0000010  -0.5708657   0.7702965
17.7981721   -1.0017427  -0.0344361   0.0000141   0.0015344  -0.0000008  -0.0000063  -0.5649477   0.7746078
18.0169693   -1.0018108  -0.0349465   0.0000177   0.0015529  -0.0000148   0.0000015  -0.5589829   0.7788677
18.2384562   -1.0016616  -0.0352388   0.0000258   0.0015824  -0.0000088  -0.0000066  -0.5528978   0.7832294
18.4626659   -1.0017823  -0.0357217   0.0000166   0.0015710   0.0000017  -0.0000043  -0.5466180   0.7874117
18.6896319   -1.0018407  -0.0361791   0.0000149   0.0016094  -0.0000066   0.0000047  -0.5403799   0.7916946
18.9193880   -1.0018102  -0.0365694   0.0000189   0.0016198  -0.0000040  -0.0000020  -0.5338648   0.7960754
19.1519686   -1.0017707  -0.0370243   0.0000184   0.0016329   0.0000009  -0.0000067  -0.5272533   0.8003731
19.3874083   -1.0017783  -0.0374537   0.0000078   0.0016705  -0.0000090  -0.0000072  -0.5205907   0.8046701
19.6257423   -1.0017163  -0.0380241   0.0000083   0.0016848  -0.0000034  -0.0000054  -0.5139282   0.8090026
19.8670063   -1.0017890  -0.0383777   0.0000192   0.0016961  -0.0000003  -0.0000053  -0.5070653   0.8132444
20.1112361   -1.0017687  -0.0387763   0.0000172   0.0017341   0.0000014   0.0000039  -0.5000667   0.8175503
20.3584684   -1.0019032  -0.0393497   0.0000082   0.0017534  -0.0000109  -0.0000031  -0.4928451   0.8218131
20.6087399   -1.0017956  -0.0397273   0.0000001   0.0017629   0.0000064  -0.0000074  -0.4856078   0.8260492
20.8620881   -1.0017456  -0.0402112   0.0000033   0.0017991  -0.0000070   0.0000015  -0.4781752   0.8303917
21.1185507   -1.0018361  -0.0407912   0.0000025   0.0018118  -0.0000055   0.0000029  -0.4706816   0.8346281
21.3781661   -1.0017939  -0.0411840  -0.0000009   0.0018297  -0.0000035  -0.0000010  -0.4630449   0.8387695
21.6409730   -1.0018998  -0.0416752   0.0000131   0.0018453  -0.0000039  -0.0000078  -0.4552968   0.8429882
21.9070107   -1.0019450  -0.0420843   0.0000263   0.0018725  -0.0000070   0.0000040  -0.4474480   0.8472129
22.1763188   -1.0018889  -0.0426586  -0.0000018   0.0018923  -0.0000040   0.0000040  -0.4393970   0.8514093
22.4489376   -1.0018566  -0.0431522   0.0000206   0.0019202  -0.0000043  -0.0000038  -0.4312338   0.8556008
22.7249077   -1.0018448  -0.0436277  -0.0000066   0.0019440  -0.0000006  -0.0000028  -0.4229033   0.8597198
23.0042705   -1.0017851  -0.0442175   0.0000048   0.0019757  -0.0000025   0.0000032  -0.4144679   0.8638397
23.2870675   -1.0018569  -0.0447454  -0.0000072   0.0019958  -0.0000063   0.0000051  -0.4059703   0.8679089
23.5733409   -1.0017473  -0.0453294   0.0000034   0.0020277  -0.0000101  -0.0000119  -0.3971808   0.8719871
23.8631337   -1.0018567  -0.0458417  -0.0000023   0.0020495  -0.0000095   0.0000009  -0.3882574   0.8759217
24.1564889   -1.0017748  -0.0462907   0.0000047   0.0020720  -0.0000145   0.0000020  -0.3793041   0.8799030
24.4534504   -1.0018751  -0.0468932   0.0000154   0.0020843  -0.0000039  -0.0000033  -0.3701540   0.8837846
24.7540625   -1.0018413  -0.0474791  -0.0000052   0.0021073  -0.0000011  -0.0000056  -0.3608652   0.8877116
25.0583701   -1.0018403  -0.0480357  -0.0000070   0.0021374   0.0000015  -0.0000007  -0.3513553   0.8915770
25.3664186   -1.0018013  -0.0486417   0.0000018   0.0021623  -0.0000058  -0.0000061  -0.3416299   0.8953736
25.6782541   -1.0018234  -0.0492147   0.0000015   0.0021953   0.0000039  -0.0000031  -0.3318719   0.8991532
25.9939230   -1.0017319  -0.0497819  -0.0000074   0.0022163  -0.0000041  -0.0000050  -0.3219447   0.9027781
26.3134725   -1.0017745  -0.0503643  -0.0000090   0.0022558   0.0000036  -0.0000035  -0.3118192   0.9063520
26.6369503   -1.0017512  -0.0511181  -0.0000170   0.0022797  -0.0000030  -0.0000139  -0.3015927   0.9099376
26.9644047   -1.0018412  -0.0515211  -0.0000126   0.0022970   0.0000019   0.0000037  -0.2911556   0.9134289
27.2958846   -1.0017750  -0.0521657  -0.0000145   0.0023303  -0.0000076   0.0000021  -0.2805167   0.9167797
27.6314394   -1.0018648  -0.0529025  -0.0000129   0.0023586  -0.0000017  -0.0000051  -0.2698048   0.9201340
27.9711193   -1.0017834  -0.0535051  -0.0000136   0.0024002   0.0000071  -0.0000031  -0.2588429   0.9232956
28.3149750   -1.0016560  -0.0540356  -0.0000146   0.0024125   0.0000039  -0.0000051  -0.2477763   0.9264440
28.6630578   -1.0017079  -0.0547049  -0.0000103   0.0024582  -0.0000087  -0.0000003  -0.2365017   0.9294491
29.0154196   -1.0016481  -0.0553734  -0.0000074   0.0024757  -0.0000064  -0.0000030  -0.2250419   0.9323611
29.3721131   -1.0017082  -0.0560812  -0.0000065   0.0025085   0.0000014  -0.0000039  -0.2134533   0.9351741
29.7331915   -1.0017667  -0.0566433  -0.0000171   0.0025441  -0.0000054  -0.0000036  -0.2016027   0.9379710
30.0987087   -1.0017320  -0.0573703  -0.0000182   0.0025632  -0.0000033   0.0000123  -0.1897006   0.9405994
30.4687194   -1.0016523  -0.0580587  -0.0000181   0.0025975  -0.0000021  -0.0000058  -0.1775500   0.9431766
30.8432786   -1.0016869  -0.0587096  -0.0000255   0.0026134  -0.0000102   0.0000030  -0.1652043   0.9454509
31.2224424   -1.0016225  -0.0594097  -0.0000413   0.0026542   0.0000061   0.0000027  -0.1527992   0.9476807
31.6062674   -1.0016695  -0.0601545  -0.0000337   0.0027025  -0.0000091  -0.0000072  -0.1400337   0.9498177
31.9948108   -1.0016805  -0.0608787  -0.0000245   0.0027315   0.0000000   0.0000043  -0.1271896   0.9518871
32.3881306   -1.0016043  -0.0615790  -0.0000309   0.0027588  -0.0000007  -0.0000042  -0.1141830   0.9537462
32.7862857   -1.0015851  -0.0623130  -0.0000335   0.0028000  -0.0000070  -0.0000062  -0.1009629   0.9553778
33.1893353   -1.0015968  -0.0630459  -0.0000252   0.0028429  -0.0000018  -0.0000006  -0.0875903   0.9570247
33.5973398   -1.0015731  -0.0638106  -0.0000246   0.0028696   0.0000037  -0.0000116  -0.0740442   0.9583378
34.0103599   -1.0015886  -0.0645260  -0.0000369   0.0029121  -0.0000011   0.0000036  -0.0602129   0.9594876
34.4284574   -1.0015079  -0.0652339  -0.0000218   0.0029316  -0.0000075  -0.0000028  -0.0465159   0.9606917
34.8516946   -1.0014715  -0.0660582  -0.0000324   0.0029659  -0.0000053   0.0000028  -0.0322434   0.9616950
35.2801349   -1.0014651  -0.0668295  -0.0000478   0.0030134  -0.0000032  -0.0000036  -0.0177784   0.9624635
35.7138420   -1.0014442  -0.0677276  -0.0000551   0.0030389  -0.0000069  -0.0000060  -0.0032039   0.9628964
36.1528808   -1.0014185  -0.0684824  -0.0000443   0.0030946  -0.0000086  -0.0000063   0.0115347   0.9632563
36.5973168   -1.0013770  -0.0693501  -0.0000458   0.0031276   0.0000000  -0.0000055   0.0264333   0.9633738
37.0472164   -1.0013504  -0.0701901  -0.0000575   0.0031682  -0.0000010  -0.0000025   0.0415912   0.9631242
37.5026467   -1.0013348  -0.0710612  -0.0000742   0.0032070   0.0000005  -0.0000051   0.0569194   0.9628974
37.9636757   -1.0013311  -0.0718570  -0.0000589   0.0032459  -0.0000025  -0.0000048   0.0726387   0.9619464
38.4303722   -1.0012989  -0.0726884  -0.0000563   0.0032927   0.0000012  -0.0000023   0.0881824   0.9611452
38.9028060   -1.0012208  -0.0736230  -0.0000792   0.0033423   0.0000032   0.0000041   0.1040381   0.9599848
39.3810475   -1.0012374  -0.0743901  -0.0000569   0.0033560  -0.0000019   0.0000034   0.1201362   0.9586652
39.8651681   -1.0012195  -0.0753377  -0.0000530   0.0034112  -0.0000008   0.0000047   0.1362896   0.9569852
40.3552402   -1.0011472  -0.0762029  -0.0000662   0.0034429   0.0000052   0.0000025   0.1527017   0.9550329
40.8513368   -1.0010150  -0.0770415  -0.0000669   0.0034921  -0.0000009  -0.0000083   0.1693457   0.9526915
41.3535320   -1.0010554  -0.0780578  -0.0000796   0.0035247  -0.0000069  -0.0000035   0.1860114   0.9501695
41.8619009   -1.0010090  -0.0789331  -0.0000830   0.0035839  -0.0000012   0.0000013   0.2030277   0.9472720
42.3765193   -1.0009675  -0.0798986  -0.0000861   0.0036212   0.0000010  -0.0000008   0.2201222   0.9440599
42.8974639   -1.0009188  -0.0807981  -0.0000811   0.0036669  -0.0000026   0.0000052   0.2373514   0.9404513
43.4248127   -1.0008501  -0.0819312  -0.0000895   0.0037024   0.0000010  -0.0000060   0.2547651   0.9366341
43.9586443   -1.0008474  -0.0828176  -0.0001084   0.0037667   0.0000045  -0.0000092   0.2723270   0.9323410
44.4990385   -1.0008486  -0.0837530  -0.0000928   0.0038050  -0.0000060   0.0000010   0.2900678   0.9276746
45.0460758   -1.0007468  -0.0848214  -0.0001071   0.0038674   0.0000030   0.0000042   0.3079234   0.9226692
45.5998380   -1.0006125  -0.0857542  -0.0001088   0.0039045  -0.0000014  -0.0000026   0.3258964   0.9172927
46.1604077   -1.0006525  -0.0868205  -0.0001100   0.0039497  -0.0000057  -0.0000096   0.3439905   0.9114112
46.7278686   -1.0006246  -0.0878873  -0.0001171   0.0040089  -0.0000078  -0.0000061   0.3622095   0.9051561
47.3023055   -1.0005835  -0.0888706  -0.0001169   0.0040545  -0.0000035   0.0000063   0.3805383   0.8984954
47.8838040   -1.0004854  -0.0899266  -0.0001304   0.0041076   0.0000035  -0.0000116   0.3990787   0.8913030
48.4724511   -1.0004333  -0.0910381  -0.0001164   0.0041523  -0.0000043   0.0000037   0.4175483   0.8837820
49.0683345   -1.0003968  -0.0919775  -0.0001148   0.0042095  -0.0000065   0.0000016   0.4362200   0.8757527
49.6715433   -1.0003298  -0.0931603  -0.0001249   0.0042634  -0.0000056  -0.0000091   0.4548566   0.8672616
50.2821675   -1.0002301  -0.0942838  -0.0001298   0.0043214  -0.0000049  -0.0000026   0.4737366   0.8581977
50.9002982   -1.0000150  -0.0953754  -0.0001340   0.0043752  -0.0000001  -0.0000023   0.4925113   0.8486204
51.5260277   -1.0001002  -0.0964976  -0.0001358   0.0044277   0.0000016  -0.0000145   0.5114078   0.8386844
52.1594495   -0.9999146  -0.0977262  -0.0001392   0.0044933   0.0000007  -0.0000111   0.5302185   0.8281260
52.8006581   -0.9998943  -0.0988439  -0.0001501   0.0045311   0.0000019  -0.0000070   0.5491565   0.8169084
53.4497492   -0.9998368  -0.1001104  -0.0001479   0.0045953   0.0000038  -0.0000035   0.5682259   0.8053365
54.1068198   -0.9997166  -0.1012844  -0.0001650   0.0046662   0.0000014  -0.0000070   0.5870810   0.7931806
54.7719678   -0.9996261  -0.1024656  -0.0001536   0.0046922  -0.0000080  -0.0000108   0.6059003   0.7804755
55.4452927   -0.9995065  -0.1035816  -0.0001739   0.0047638  -0.0000031   0.0000036   0.6248029   0.7668483
56.1268950   -0.9994989  -0.1050365  -0.0001794   0.0048314  -0.0000012  -0.0000006   0.6436129   0.7528409
56.8168763   -0.9994525  -0.1061600  -0.0001738   0.0049019  -0.0000113  -0.0000002   0.6623330   0.7382715
57.5153398   -0.9992755  -0.1074362  -0.0001936   0.0049566  -0.0000006  -0.0000099   0.6809259   0.7230836
58.2223896   -0.9990979  -0.1086130  -0.0001907   0.0050182   0.0000062  -0.0000063   0.6993919   0.7071741
58.9381314   -0.9990928  -0.1100076  -0.0001922   0.0050878   0.0000077  -0.0000018   0.7177304   0.6906869
59.6626719   -0.9989888  -0.1112427  -0.0001912   0.0051455   0.0000018  -0.0000044   0.7358872   0.6734457
60.3961194   -0.9987583  -0.1125818  -0.0002039   0.0052218  -0.0000076  -0.0000076   0.7539451   0.6555725
61.1385834   -0.9987652  -0.1139867  -0.0002017   0.0052776   0.0000077  -0.0000151   0.7717916   0.6369847
61.8901746   -0.9986604  -0.1153119  -0.0002151   0.0053480  -0.0000007  -0.0000055   0.7892939   0.6177425
62.6510053   -0.9984855  -0.1166159  -0.0002339   0.0054197  -0.0000042  -0.0000129   0.8065969   0.5978861
63.4211891   -0.9983619  -0.1179840  -0.0002293   0.0054993  -0.0000005   0.0000010   0.8236544   0.5771804
64.2008409   -0.9982988  -0.1193625  -0.0002356   0.0055622  -0.0000013  -0.0000071   0.8403290   0.5559154
64.9900772   -0.9981079  -0.1209593  -0.0002360   0.0056322   0.0000060  -0.0000039   0.8567017   0.5338548
65.7890158   -0.9979633  -0.1222194  -0.0002365   0.0057023   0.0000066  -0.0000067   0.8726612   0.5111127
66.5977759   -0.9978459  -0.1238050  -0.0002494   0.0057811  -0.0000110   0.0000004   0.8881822   0.4875516
67.4164783   -0.9976425  -0.1251617  -0.0002505   0.0058461   0.0000024  -0.0000098   0.9034119   0.4632958
68.2452452   -0.9975257  -0.1266500  -0.0002760   0.0059403  -0.0000016  -0.0000030   0.9180764   0.4384124
69.0842003   -0.9973321  -0.1281116  -0.0002488   0.0060052  -0.0000021  -0.0000152   0.9322427   0.4127304
69.9334689   -0.9971953  -0.1296779  -0.0002881   0.0060821  -0.0000106  -0.0000085   0.9455765   0.3863505
70.7931778   -0.9969726  -0.1314477  -0.0002838   0.0061679   0.0000082  -0.0000021   0.9591080   0.3591561
71.6634552   -0.9968365  -0.1330145  -0.0002884   0.0062248  -0.0000035  -0.0000070   0.9716677   0.3310241
72.5444312   -0.9966321  -0.1344863  -0.0002733   0.0063223   0.0000123   0.0000005   0.9836817   0.3023485
73.4362373   -0.9964349  -0.1361433  -0.0002686   0.0064075  -0.0000012  -0.0000107   0.9948434   0.2729349
74.3390065   -0.9963364  -0.1375290  -0.0003173   0.0064871   0.0000080  -0.0000129   1.0046945   0.2431284
75.2528737   -0.9960091  -0.1392410  -0.0003273   0.0065538  -0.0000040  -0.0000102   1.0143737   0.2123149
76.1779753   -0.9959236  -0.1408681  -0.0003351   0.0066527  -0.0000051  -0.0000124   1.0232854   0.1808396
77.1144493   -0.9957562  -0.1425682  -0.0003265   0.0067280  -0.0000026  -0.0000045   1.0313023   0.1486103
78.0624357   -0.9954289  -0.1441691  -0.0003225   0.0068243  -0.0000029  -0.0000080   1.0384154   0.1157628
79.0220759   -0.9952816  -0.1459416  -0.0003538   0.0069060   0.0000002  -0.0000036   1.0445212   0.0821697
79.9935132   -0.9949591  -0.1477469  -0.0003424   0.0069952   0.0000041  -0.0000131   1.0496229   0.0480313
80.9768926   -0.9947721  -0.1494565  -0.0003681   0.0070952  -0.0000064  -0.0000116   1.0537186   0.0132410
81.9723609   -0.9945579  -0.1512360  -0.0003705   0.0071923   0.0000053  -0.0000071   1.0567157  -0.0222640
82.9800667   -0.9942944  -0.1530007  -0.0003760   0.0072920  -0.0000016  -0.0000180   1.0586042  -0.0582525
84.0001605   -0.9941100  -0.1548347  -0.0003803   0.0073892   0.0000053  -0.0000160   1.0593000  -0.0947391
85.0327946   -0.9938352  -0.1566352  -0.0003880   0.0074887   0.0000022  -0.0000081   1.0586965  -0.1319093
86.0781231   -0.9935556  -0.1585011  -0.0004024   0.0075821   0.0000029  -0.0000101   1.0568105  -0.1694968
87.1363020   -0.9932102  -0.1604485  -0.0004143   0.0076772   0.0000048  -0.0000041   1.0536046  -0.2074041
88.2074894   -0.9930282  -0.1622481  -0.0004024   0.0077703  -0.0000051  -0.0000155   1.0489040  -0.2458368
89.2918452   -0.9927602  -0.1641919  -0.0004295   0.0078833  -0.0000005  -0.0000021   1.0430306  -0.2849234
90.3895312   -0.9924166  -0.1662586  -0.0004279   0.0079928  -0.0000024  -0.0000180   1.0355088  -0.3237174
91.5007114   -0.9920811  -0.1681168  -0.0004434   0.0081002  -0.0000084  -0.0000163   1.0264270  -0.3630294
92.6255515   -0.9918010  -0.1700459  -0.0004402   0.0082091  -0.0000034  -0.0000041   1.0155656  -0.4024850
93.7642195   -0.9915752  -0.1720942  -0.0004588   0.0083077  -0.0000052  -0.0000188   1.0031624  -0.4420937
94.9168855   -0.9912118  -0.1740975  -0.0004509   0.0084207  -0.0000125  -0.0000104   0.9892346  -0.4818269
96.0837215   -0.9908023  -0.1762401  -0.0004690   0.0085344  -0.0000039  -0.0000178   0.9734644  -0.5215695
97.2649017   -0.9905037  -0.1783163  -0.0004782   0.0086574  -0.0000004  -0.0000104   0.9559370  -0.5609835
98.4606024   -0.9901434  -0.1804273  -0.0004992   0.0087787  -0.0000038  -0.0000064   0.9365502  -0.6005025
99.6710021   -0.9897751  -0.1824635  -0.0004872   0.0088713  -0.0000145  -0.0000062   0.9153443  -0.6396754
100.8962816  -0.9893811  -0.1846776  -0.0004907   0.0090238  -0.0000102  -0.0000124   0.8922365  -0.6784421
102.1366237  -0.9890039  -0.1868917  -0.0005077   0.0091280   0.0000052  -0.0000179   0.8671283  -0.7166929
103.3922136  -0.9884836  -0.1892087  -0.0005074   0.0092395  -0.0000096  -0.0000112   0.8401955  -0.7544722
104.6632389  -0.9880803  -0.1914010  -0.0004973   0.0093695  -0.0000105  -0.0000055   0.8113415  -0.7912682
105.9498891  -0.9872580  -0.1935461  -0.0005031   0.0095536  -0.0000069  -0.0000089   0.7803574  -0.8250929
107.2523564  -0.9877991  -0.1956152  -0.0005764   0.0096212  -0.0000016  -0.0000085   0.7458400  -0.8653272
108.5708353  -0.9873889  -0.1979484  -0.0005572   0.0096994  -0.0000106  -0.0000041   0.7121824  -0.8993932
109.9055225  -0.9853533  -0.2008014  -0.0004916   0.0099258   0.0000076  -0.0000064   0.6774515  -0.9319120
111.2566174  -0.9858562  -0.2027970  -0.0005356   0.0100346  -0.0000017  -0.0000120   0.6366632  -0.9623526
112.6243216  -0.9854884  -0.2051024  -0.0005568   0.0101720   0.0000017  -0.0000150   0.5956314  -0.9930429
114.0088393  -0.9849731  -0.2075546  -0.0005565   0.0103017  -0.0000127  -0.0000032   0.5528684  -1.0220177
115.4103773  -0.9846104  -0.2101047  -0.0005493   0.0104245  -0.0000076  -0.0000214   0.5080600  -1.0493846
116.8291446  -0.9840162  -0.2124795  -0.0005774   0.0105724   0.0000125  -0.0000049   0.4616156  -1.0748125
118.2653533  -0.9834822  -0.2148960  -0.0005819   0.0107254  -0.0000004  -0.0000118   0.4131618  -1.0983546
119.7192175  -0.9829772  -0.2174314  -0.0005933   0.0108628  -0.0000147  -0.0000006   0.3630310  -1.1198741
121.1909545  -0.9824954  -0.2199678  -0.0006019   0.0109955  -0.0000096  -0.0000137   0.3112472  -1.1389094
122.6807839  -0.9818517  -0.2224805  -0.0006047   0.0111504  -0.0000186  -0.0000183   0.2578829  -1.1556283
124.1889281  -0.9813019  -0.2251604  -0.0006078   0.0113095   0.0000025  -0.0000021   0.2030196  -1.1697805
125.7156123  -0.9806596  -0.2276770  -0.0005986   0.0114652  -0.0000108  -0.0000053   0.1468018  -1.1813263
127.2610644  -0.9801524  -0.2303986  -0.0006075   0.0116109  -0.0000061  -0.0000096   0.0899457  -1.1898236
128.8255151  -0.9794386  -0.2331292  -0.0006034   0.0117795  -0.0000125  -0.0000101   0.0310541  -1.1954536
130.4091980  -0.9788130  -0.2357318  -0.0006013   0.0119181  -0.0000132  -0.0000125  -0.0282397  -1.1979713
132.0123495  -0.9781073  -0.2383984  -0.0005955   0.0121029  -0.0000062  -0.0000027  -0.0885005  -1.1971293
133.6352088  -0.9774828  -0.2413955  -0.0006016   0.0122371  -0.0000239  -0.0000059  -0.1491135  -1.1931309
135.2780184  -0.9768349  -0.2441872  -0.0006079   0.0124209  -0.0000031  -0.0000057  -0.2103454  -1.1854267
136.9410235  -0.9759112  -0.2468394  -0.0006042   0.0125829  -0.0000093  -0.0000137  -0.2717939  -1.1740384
138.6244722  -0.9751449  -0.2499069  -0.0006054   0.0127489  -0.0000096  -0.0000023  -0.3330388  -1.1591738
140.3286160  -0.9745600  -0.2527348  -0.0006203   0.0129476  -0.0000127  -0.0000127  -0.3943408  -1.1406394
142.0537093  -0.9735708  -0.2554346  -0.0006231   0.0130801  -0.0000183  -0.0000196  -0.4577303  -1.1193078
143.8000095  -0.9730330  -0.2584323  -0.0005953   0.0132874  -0.0000058   0.0000000  -0.5114804  -1.0920313
145.5677774  -0.9721010  -0.2618687  -0.0005445   0.0135206   0.0000058  -0.0000122  -0.5686752  -1.0596310
147.3572769  -0.9712905  -0.2646092  -0.0005934   0.0136676  -0.0000021  -0.0000169  -0.6296031  -1.0274029
149.1687752  -0.9703933  -0.2675970  -0.0005663   0.0138296   0.0000015  -0.0000091  -0.6842854  -0.9897038
151.0025426  -0.9693972  -0.2706805  -0.0005368   0.0140065  -0.0000053  -0.0000193  -0.7376444  -0.9478988
152.8588530  -0.9689255  -0.2738620  -0.0005533   0.0142043  -0.0000013  -0.0000092  -0.7884430  -0.9023780
154.7379834  -0.9678145  -0.2769634  -0.0005288   0.0143730  -0.0000086  -0.0000110  -0.8368112  -0.8532143
156.6402144  -0.9669181  -0.2801594  -0.0005352   0.0145935  -0.0000084  -0.0000061  -0.8822036  -0.8005717
158.5658301  -0.9659161  -0.2835577  -0.0005330   0.0147677  -0.0000037   0.0000147  -0.9241073  -0.7445390
160.5151177  -0.9647657  -0.2865466  -0.0004975   0.0149724   0.0000014  -0.0000065  -0.9630209  -0.6849737
162.4883685  -0.9642797  -0.2901141  -0.0004854   0.0151705   0.0000013  -0.0000028  -0.9967976  -0.6237559
164.4858769  -0.9628395  -0.2932155  -0.0004803   0.0153586   0.0000046  -0.0000033  -1.0278789  -0.5582318
166.5079411  -0.9616079  -0.2966395  -0.0004674   0.0155444  -0.0000070  -0.0000102  -1.0539276  -0.4910024
168.5548630  -0.9607668  -0.2999971  -0.0004170   0.0157798  -0.0000107   0.0000016  -1.0755896  -0.4214285
170.6269483  -0.9596230  -0.3032661  -0.0004177   0.0159810  -0.0000006  -0.0000172  -1.0920161  -0.3500769
172.7245062  -0.9583243  -0.3068799  -0.0004006   0.0161786   0.0000046  -0.0000030  -1.1035268  -0.2774294
174.8478498  -0.9572610  -0.3103616  -0.0003614   0.0164172   0.0000061  -0.0000036  -1.1094082  -0.2032648
176.9972963  -0.9560732  -0.3139239  -0.0003587   0.0166240   0.0000235  -0.0000062  -1.1102204  -0.1277967
179.1731664  -0.9553359  -0.3203035  -0.0002293   0.0168961  -0.0000187  -0.0000088  -1.1019377  -0.0580540
181.3757850  -0.9543766  -0.3209917  -0.0001708   0.0169109  -0.0000020  -0.0000058  -1.0923748   0.0172629
183.6054809  -0.9522276  -0.3246652  -0.0002718   0.0172437  -0.0000115  -0.0000014  -1.0773858   0.0954521
185.8625870  -0.9508441  -0.3282350  -0.0002693   0.0174841  -0.0000271  -0.0000083  -1.0548059   0.1676861
188.1474402  -0.9496599  -0.3321049  -0.0001987   0.0177164  -0.0000045  -0.0000041  -1.0266452   0.2388777
190.4603817  -0.9480900  -0.3358365  -0.0001868   0.0179373  -0.0000241  -0.0000166  -0.9928692   0.3077410
192.8017567  -0.9466351  -0.3396600  -0.0001463   0.0181153   0.0000113  -0.0000080  -0.9528826   0.3737659
195.1719148  -0.9451049  -0.3435639  -0.0001181   0.0183606  -0.0000411   0.0000164  -0.9079903   0.4365081
197.5712099  -0.9441344  -0.3467252  -0.0000847   0.0185664   0.0000064  -0.0000064  -0.8584258   0.4960860
200.0000000  -0.9425519  -0.3508367  -0.0000405   0.0188341  -0.0000129  -0.0000066  -0.8026131   0.5505821
