! ListType=Log
# MHZ S RI R 50
0.0010000    -0.9985860   0.0000485  -0.0004675   0.0005754  -0.0000115  -0.0000299  -0.9088780   0.2599563
0.0010123    -0.9997234  -0.0009704  -0.0005653   0.0009986   0.0000121  -0.0000287  -0.9094622   0.2603417
0.0010247    -0.9968087   0.0000975  -0.0003953   0.0013024  -0.0000157   0.0000266  -0.9095897   0.2591301
0.0010373    -0.9987011  -0.0003331  -0.0005698   0.0017638  -0.0000085  -0.0000056  -0.9097936   0.2598523
0.0010501    -0.9985713   0.0011963  -0.0003653   0.0011494  -0.0000136  -0.0000118  -0.9091506   0.2596915
0.0010630    -0.9993908  -0.0008446  -0.0003563   0.0013825   0.0000229   0.0000125  -0.9105505   0.2595735
0.0010761    -0.9972397  -0.0003711  -0.0004554   0.0010786  -0.0000149   0.0000095  -0.9107037   0.2587981
0.0010893    -1.0000551  -0.0008216  -0.0007174   0.0012344   0.0000198  -0.0000037  -0.9110865   0.2599258
0.0011027    -0.9982187  -0.0003064  -0.0002187   0.0011999   0.0000030  -0.0000187  -0.9110775   0.2587990
0.0011162    -0.9971598  -0.0009337  -0.0008329   0.0009969  -0.0000056   0.0000030  -0.9120701   0.2584382
0.0011300    -0.9981334   0.0004217  -0.0006671   0.0011572  -0.0000259  -0.0000173  -0.9112969   0.2587179
0.0011439    -0.9990965  -0.0004921  -0.0004607   0.0011914   0.0000190  -0.0000020  -0.9120502   0.2590832
0.0011579    -0.9969400   0.0003231  -0.0003286   0.0010508  -0.0000080   0.0000011  -0.9120575   0.2578675
0.0011721    -0.9985265  -0.0003414  -0.0005846   0.0010987   0.0000114  -0.0000118  -0.9124015   0.2585311
0.0011866    -0.9980417   0.0009066  -0.0007022   0.0011859  -0.0000454  -0.0000152  -0.9122040   0.2582435
0.0012011    -0.9985384  -0.0001013  -0.0003956   0.0009931  -0.0000151   0.0000003  -0.9128818   0.2582597
0.0012159    -0.9989951  -0.0011541  -0.0006323   0.0010191   0.0000208   0.0000031  -0.9136437   0.2584854
0.0012309    -0.9978510  -0.0000147  -0.0003810   0.0011694   0.0000094   0.0000109  -0.9137401   0.2577885
0.0012460    -0.9985116   0.0008364  -0.0005789   0.0013316  -0.0000062  -0.0000060  -0.9134154   0.2581256
0.0012613    -0.9988006  -0.0012554  -0.0004684   0.0009317   0.0000269  -0.0000021  -0.9147353   0.2579363
0.0012768    -0.9979285   0.0000696  -0.0008647   0.0013003  -0.0000207   0.0000053  -0.9141770   0.2576231
0.0012925    -0.9993066  -0.0010045  -0.0004479   0.0009035   0.0000140   0.0000076  -0.9151106   0.2580592
0.0013084    -0.9980118  -0.0000029  -0.0002547   0.0013694  -0.0000049   0.0000097  -0.9149123   0.2575421
0.0013245    -0.9989588  -0.0010375  -0.0005073   0.0008960   0.0000181  -0.0000016  -0.9155488   0.2580240
0.0013408    -0.9980862  -0.0000365  -0.0005125   0.0010245   0.0000024  -0.0000096  -0.9153819   0.2572752
0.0013572    -0.9987915  -0.0011517  -0.0006078   0.0010363   0.0000187   0.0000077  -0.9163567   0.2576933
0.0013739    -0.9983509   0.0000895  -0.0003468   0.0009654   0.0000133   0.0000164  -0.9162218   0.2575399
0.0013908    -0.9982801  -0.0014419  -0.0003656   0.0010013   0.0000136   0.0000045  -0.9169530   0.2576089
0.0014079    -0.9986430   0.0004181  -0.0004680   0.0010525  -0.0000214  -0.0000005  -0.9167295   0.2573538
0.0014252    -0.9980757  -0.0013708  -0.0002044   0.0010360   0.0000186   0.0000247  -0.9176592   0.2572531
0.0014427    -0.9985106   0.0003287  -0.0003851   0.0012852  -0.0000097  -0.0000156  -0.9173659   0.2571991
0.0014605    -0.9986051  -0.0009510  -0.0005136   0.0007964   0.0000009  -0.0000180  -0.9180822   0.2573986
0.0014784    -0.9981555   0.0002454  -0.0002370   0.0009314  -0.0000049   0.0000082  -0.9178605   0.2569127
0.0014966    -0.9988936  -0.0001357  -0.0005967   0.0010996   0.0000002  -0.0000287  -0.9186111   0.2574162
0.0015150    -0.9981719  -0.0009188  -0.0003006   0.0009216   0.0000270   0.0000241  -0.9189818   0.2573396
0.0015336    -0.9982488  -0.0000515  -0.0003651   0.0010660  -0.0000074  -0.0000028  -0.9190102   0.2570696
0.0015525    -0.9989127   0.0006407  -0.0002891   0.0012154  -0.0000076  -0.0000167  -0.9190290   0.2573496
0.0015716    -0.9984411  -0.0003994  -0.0005257   0.0008811   0.0000126  -0.0000211  -0.9196280   0.2571869
0.0015909    -0.9990716  -0.0000681  -0.0004632   0.0008357   0.0000100  -0.0000345  -0.9199847   0.2575694
0.0016104    -0.9980592  -0.0000831  -0.0003695   0.0006334  -0.0000243   0.0000094  -0.9203199   0.2569523
0.0016302    -0.9989659   0.0001400  -0.0002954   0.0010967   0.0000135  -0.0000063  -0.9203642   0.2573044
0.0016503    -0.9985806  -0.0008507  -0.0003269   0.0009137   0.0000088  -0.0000100  -0.9213751   0.2574882
0.0016706    -0.9985129  -0.0001788  -0.0003619   0.0009360   0.0000033  -0.0000045  -0.9211996   0.2574022
0.0016911    -0.9979151  -0.0003607  -0.0005735   0.0009881  -0.0000210  -0.0000159  -0.9218180   0.2570958
0.0017119    -0.9988146  -0.0000786  -0.0004905   0.0009521  -0.0000161  -0.0000298  -0.9218589   0.2574357
0.0017329    -0.9982696  -0.0006979  -0.0003767   0.0007908  -0.0000031   0.0000134  -0.9220861   0.2573962
0.0017542    -0.9980492  -0.0007070  -0.0006251   0.0007519   0.0000071   0.0000175  -0.9225671   0.2571541
0.0017758    -0.9987419  -0.0001348  -0.0002075   0.0008160  -0.0000018  -0.0000029  -0.9227763   0.2574617
0.0017976    -0.9980038  -0.0005047  -0.0002765   0.0008478   0.0000059  -0.0000063  -0.9233452   0.2574793
0.0018197    -0.9980931   0.0004012  -0.0001293   0.0009229  -0.0000150  -0.0000040  -0.9231438   0.2573279
0.0018421    -0.9984448  -0.0004906  -0.0003749   0.0009706   0.0000151  -0.0000070  -0.9238326   0.2577191
0.0018648    -0.9981387  -0.0000162  -0.0005384   0.0006789  -0.0000028   0.0000040  -0.9239003   0.2574820
0.0018877    -0.9989157   0.0004069  -0.0004505   0.0010319  -0.0000105  -0.0000158  -0.9239804   0.2577066
0.0019109    -0.9982871  -0.0006135  -0.0003188   0.0009841  -0.0000036   0.0000066  -0.9248491   0.2579357
0.0019344    -0.9982085  -0.0001203  -0.0002695   0.0006833  -0.0000050  -0.0000064  -0.9247153   0.2577397
0.0019582    -0.9985740   0.0004961  -0.0003172   0.0009190   0.0000018  -0.0000051  -0.9248236   0.2579512
0.0019822    -0.9985943  -0.0007060  -0.0005209   0.0009880   0.0000061   0.0000007  -0.9256894   0.2580907
0.0020066    -0.9983739  -0.0002452  -0.0001714   0.0006148   0.0000030   0.0000010  -0.9257598   0.2582423
0.0020313    -0.9983999  -0.0004735  -0.0002993   0.0008242   0.0000072   0.0000076  -0.9261621   0.2581689
0.0020562    -0.9977852  -0.0004721  -0.0002832   0.0007073  -0.0000161  -0.0000018  -0.9265384   0.2580705
0.0020815    -0.9986908   0.0002179  -0.0003535   0.0006649   0.0000003  -0.0000015  -0.9265952   0.2584793
0.0021071    -0.9983463  -0.0002102  -0.0003530   0.0006403  -0.0000104  -0.0000033  -0.9270215   0.2585237
0.0021330    -0.9985569  -0.0000488  -0.0003434   0.0008756  -0.0000010  -0.0000229  -0.9272019   0.2587586
0.0021592    -0.9986806  -0.0004140  -0.0002025   0.0008526  -0.0000025  -0.0000190  -0.9277383   0.2588852
0.0021858    -0.9979831  -0.0003907  -0.0002189   0.0008125  -0.0000026  -0.0000044  -0.9279115   0.2586740
0.0022126    -0.9986218  -0.0000578  -0.0002468   0.0008674  -0.0000054  -0.0000144  -0.9280733   0.2590422
0.0022398    -0.9983077  -0.0000601  -0.0003019   0.0006458  -0.0000122   0.0000062  -0.9283379   0.2590142
0.0022674    -0.9986421  -0.0002815  -0.0002925   0.0006699   0.0000047  -0.0000181  -0.9287816   0.2593020
0.0022953    -0.9986799  -0.0004952  -0.0002487   0.0008223   0.0000060  -0.0000025  -0.9290308   0.2594769
0.0023235    -0.9980329  -0.0008473  -0.0002472   0.0007471  -0.0000061  -0.0000002  -0.9294341   0.2594680
0.0023520    -0.9983545   0.0000975  -0.0003168   0.0006846  -0.0000078  -0.0000054  -0.9292532   0.2594361
0.0023809    -0.9985182  -0.0005137  -0.0002735   0.0007355  -0.0000079   0.0000077  -0.9299422   0.2596373
0.0024102    -0.9984281  -0.0002166  -0.0002990   0.0007010   0.0000131   0.0000064  -0.9298942   0.2598229
0.0024398    -0.9984591  -0.0001178  -0.0003417   0.0006425   0.0000033   0.0000032  -0.9303333   0.2599209
0.0024698    -0.9984480  -0.0000284  -0.0001652   0.0007137   0.0000079  -0.0000170  -0.9305707   0.2602177
0.0025002    -0.9987442  -0.0001567  -0.0004305   0.0006297  -0.0000013  -0.0000042  -0.9307198   0.2603729
0.0025309    -0.9988399  -0.0001987  -0.0001727   0.0006182  -0.0000087  -0.0000112  -0.9309336   0.2606611
0.0025621    -0.9987501  -0.0004506  -0.0003914   0.0005582   0.0000070  -0.0000087  -0.9313972   0.2606534
0.0025935    -0.9984628  -0.0006933  -0.0002873   0.0006279  -0.0000057  -0.0000035  -0.9316742   0.2605261
0.0026254    -0.9982403  -0.0002105  -0.0001987   0.0006267  -0.0000042  -0.0000026  -0.9317934   0.2605545
0.0026577    -0.9982195   0.0002990  -0.0003532   0.0005582  -0.0000107  -0.0000105  -0.9319015   0.2609742
0.0026904    -0.9987450  -0.0003486  -0.0002195   0.0006315  -0.0000128  -0.0000062  -0.9320964   0.2613407
0.0027235    -0.9984400  -0.0006254  -0.0002819   0.0005068  -0.0000013  -0.0000137  -0.9327563   0.2611832
0.0027569    -0.9980415   0.0000797  -0.0002686   0.0005532  -0.0000088  -0.0000033  -0.9327095   0.2612955
0.0027908    -0.9986970   0.0000927  -0.0002523   0.0004852   0.0000059  -0.0000083  -0.9327881   0.2617246
0.0028251    -0.9987757  -0.0006851  -0.0001262   0.0006496   0.0000069   0.0000018  -0.9332618   0.2618815
0.0028599    -0.9984939  -0.0004814  -0.0002145   0.0005969  -0.0000022   0.0000010  -0.9334185   0.2618729
0.0028950    -0.9981126  -0.0000107  -0.0002929   0.0005904   0.0000031   0.0000025  -0.9336124   0.2618484
0.0029306    -0.9982461  -0.0000149  -0.0002000   0.0005271  -0.0000042  -0.0000190  -0.9337557   0.2620064
0.0029666    -0.9982136  -0.0000204  -0.0003053   0.0005525   0.0000131  -0.0000065  -0.9339990   0.2622600
0.0030031    -0.9983978  -0.0001442  -0.0002550   0.0004916  -0.0000049   0.0000133  -0.9341076   0.2625548
0.0030400    -0.9985395  -0.0003046  -0.0002675   0.0006641  -0.0000027  -0.0000165  -0.9343379   0.2628196
0.0030774    -0.9984022  -0.0000667  -0.0001971   0.0005338  -0.0000097  -0.0000045  -0.9345217   0.2629743
0.0031152    -0.9983627  -0.0002775  -0.0002488   0.0004692   0.0000102   0.0000018  -0.9348862   0.2629809
0.0031535    -0.9985396   0.0000309  -0.0001750   0.0006117  -0.0000035  -0.0000120  -0.9349260   0.2633534
0.0031923    -0.9986647  -0.0005544  -0.0001908   0.0004647   0.0000126  -0.0000124  -0.9353236   0.2634966
0.0032315    -0.9983884  -0.0005730  -0.0002473   0.0005582  -0.0000004  -0.0000064  -0.9355121   0.2636469
0.0032713    -0.9985577  -0.0004331  -0.0001750   0.0005045   0.0000023  -0.0000089  -0.9356770   0.2636865
0.0033115    -0.9984428  -0.0003354  -0.0002702   0.0006326   0.0000084  -0.0000006  -0.9357024   0.2639999
0.0033522    -0.9985989  -0.0004047  -0.0002769   0.0005082  -0.0000109  -0.0000057  -0.9360229   0.2644064
0.0033934    -0.9985293  -0.0004167  -0.0002064   0.0005662   0.0000014   0.0000021  -0.9362628   0.2642656
0.0034351    -0.9983800  -0.0004326  -0.0001896   0.0005221  -0.0000013   0.0000084  -0.9364516   0.2645556
0.0034773    -0.9983945  -0.0001318  -0.0003197   0.0006234   0.0000084  -0.0000086  -0.9364323   0.2647053
0.0035201    -0.9982832  -0.0003357  -0.0003269   0.0004040   0.0000056  -0.0000029  -0.9367876   0.2648143
0.0035634    -0.9982843   0.0000152  -0.0001271   0.0004774   0.0000070  -0.0000048  -0.9368663   0.2649771
0.0036072    -0.9984913  -0.0003596  -0.0002759   0.0004896  -0.0000008  -0.0000046  -0.9369396   0.2652301
0.0036515    -0.9984731  -0.0001369  -0.0002604   0.0004644  -0.0000051   0.0000044  -0.9372120   0.2655556
0.0036964    -0.9985028  -0.0000622  -0.0001281   0.0005362  -0.0000114   0.0000007  -0.9371598   0.2658447
0.0037418    -0.9984542  -0.0001839  -0.0002356   0.0004746   0.0000014  -0.0000077  -0.9373776   0.2659021
0.0037878    -0.9985957  -0.0001320  -0.0000948   0.0003754   0.0000009  -0.0000191  -0.9374859   0.2660117
0.0038344    -0.9986565  -0.0002776  -0.0001490   0.0005061   0.0000059  -0.0000063  -0.9376847   0.2663411
0.0038815    -0.9985391  -0.0003525  -0.0001025   0.0003914  -0.0000009   0.0000041  -0.9378065   0.2664228
0.0039293    -0.9984792  -0.0000119  -0.0002124   0.0004328   0.0000049  -0.0000071  -0.9379777   0.2663981
0.0039776    -0.9985649  -0.0002841  -0.0000024   0.0008222  -0.0000018  -0.0000120  -0.9381920   0.2668196
0.0040265    -0.9983808  -0.0001911   0.0000992   0.0007038   0.0000000   0.0000014  -0.9383100   0.2667670
0.0040759    -0.9985998  -0.0002266  -0.0002347   0.0003620  -0.0000007   0.0000008  -0.9384242   0.2671272
0.0041261    -0.9984888  -0.0003071  -0.0002834   0.0003787   0.0000015  -0.0000048  -0.9385339   0.2672093
0.0041768    -0.9985449  -0.0003057  -0.0002537   0.0003559  -0.0000009   0.0000009  -0.9387328   0.2675105
0.0042281    -0.9984087  -0.0003457  -0.0001527   0.0003817   0.0000064  -0.0000054  -0.9388509   0.2677209
0.0042801    -0.9986028  -0.0001405  -0.0002332   0.0004661   0.0000041  -0.0000002  -0.9389324   0.2679158
0.0043327    -0.9987768  -0.0002460  -0.0002895   0.0003545  -0.0000035  -0.0000042  -0.9390299   0.2683019
0.0043860    -0.9984864  -0.0003970  -0.0002773   0.0003926  -0.0000025   0.0000091  -0.9392749   0.2683077
0.0044399    -0.9985141  -0.0003662  -0.0002691   0.0004455   0.0000007  -0.0000043  -0.9393379   0.2684832
0.0044945    -0.9984245  -0.0003318  -0.0000956   0.0004236  -0.0000065  -0.0000034  -0.9394909   0.2686169
0.0045497    -0.9986149  -0.0000530  -0.0001585   0.0004123  -0.0000109  -0.0000034  -0.9394766   0.2688047
0.0046057    -0.9987114  -0.0000763  -0.0001847   0.0004044  -0.0000053   0.0000049  -0.9395575   0.2689400
0.0046623    -0.9989120  -0.0000439  -0.0002270   0.0003065   0.0000035  -0.0000071  -0.9395089   0.2692334
0.0047196    -0.9985944  -0.0002666  -0.0002000   0.0003204  -0.0000083  -0.0000009  -0.9398293   0.2694102
0.0047776    -0.9986222  -0.0002632  -0.0002365   0.0003428   0.0000065  -0.0000104  -0.9398891   0.2695281
0.0048363    -0.9987758  -0.0000772  -0.0002746   0.0004023   0.0000003  -0.0000094  -0.9399332   0.2697804
0.0048958    -0.9988068  -0.0002124  -0.0001557   0.0003678  -0.0000047  -0.0000137  -0.9400721   0.2700554
0.0049560    -0.9985662  -0.0003161  -0.0001435   0.0003057  -0.0000099  -0.0000067  -0.9402632   0.2701632
0.0050169    -0.9984813  -0.0001526  -0.0002080   0.0004151  -0.0000178   0.0000051  -0.9403351   0.2701639
0.0050786    -0.9985982  -0.0000760  -0.0002521   0.0003552   0.0000062   0.0000011  -0.9403187   0.2703988
0.0051410    -0.9984136  -0.0001628  -0.0002488   0.0003655  -0.0000039  -0.0000105  -0.9404152   0.2706001
0.0052042    -0.9985568  -0.0002759  -0.0001030   0.0002927   0.0000035  -0.0000032  -0.9405021   0.2708001
0.0052682    -0.9986687  -0.0003287  -0.0002133   0.0003450   0.0000060  -0.0000054  -0.9406327   0.2710467
0.0053330    -0.9985005  -0.0003122  -0.0001545   0.0003715  -0.0000089  -0.0000088  -0.9406896   0.2711812
0.0053985    -0.9987278  -0.0003028  -0.0001833   0.0003200  -0.0000131  -0.0000073  -0.9407775   0.2713440
0.0054649    -0.9987487  -0.0003866  -0.0001840   0.0004263   0.0000164  -0.0000018  -0.9409076   0.2714998
0.0055321    -0.9987099  -0.0003272  -0.0002087   0.0003677  -0.0000015  -0.0000112  -0.9409565   0.2716945
0.0056001    -0.9985474  -0.0004564  -0.0002753   0.0003508   0.0000146   0.0000031  -0.9411138   0.2719386
0.0056689    -0.9986070  -0.0003151  -0.0001994   0.0003655  -0.0000082  -0.0000200  -0.9411273   0.2720064
0.0057386    -0.9987953  -0.0002130  -0.0001626   0.0002384   0.0000036  -0.0000155  -0.9411893   0.2721200
0.0058091    -0.9985591  -0.0000714  -0.0002396   0.0003653   0.0000022   0.0000047  -0.9411386   0.2723728
0.0058806    -0.9985590  -0.0001829  -0.0002192   0.0003637  -0.0000013  -0.0000061  -0.9411190   0.2724188
0.0059529    -0.9985154  -0.0002167  -0.0002089   0.0002838  -0.0000054  -0.0000104  -0.9412062   0.2727041
0.0060260    -0.9986713  -0.0000645  -0.0001521   0.0002267  -0.0000053  -0.0000183  -0.9412507   0.2727098
0.0061001    -0.9987818  -0.0001470  -0.0002075   0.0003063  -0.0000142  -0.0000055  -0.9413455   0.2729546
0.0061751    -0.9986904  -0.0001039  -0.0001674   0.0003595   0.0000003   0.0000049  -0.9413314   0.2731470
0.0062510    -0.9987479  -0.0001680  -0.0001929   0.0003129  -0.0000030  -0.0000002  -0.9415101   0.2732916
0.0063279    -0.9984973  -0.0002669  -0.0001490   0.0003027  -0.0000043  -0.0000012  -0.9416430   0.2734560
0.0064056    -0.9986452  -0.0003120  -0.0001908   0.0002526   0.0000044  -0.0000061  -0.9416371   0.2736081
0.0064844    -0.9985971  -0.0003118  -0.0002192   0.0003535   0.0000000  -0.0000076  -0.9416977   0.2736701
0.0065641    -0.9985537  -0.0001702  -0.0002151   0.0003162  -0.0000063  -0.0000193  -0.9415242   0.2737903
0.0066448    -0.9984822  -0.0001167  -0.0002259   0.0002305   0.0000005  -0.0000093  -0.9416728   0.2739591
0.0067265    -0.9984653  -0.0002191  -0.0002382   0.0002628  -0.0000082   0.0000041  -0.9417777   0.2741424
0.0068092    -0.9985768  -0.0002056  -0.0002497   0.0002622   0.0000036   0.0000010  -0.9418365   0.2743665
0.0068929    -0.9985213  -0.0003377  -0.0002033   0.0003009   0.0000128  -0.0000086  -0.9418909   0.2744498
0.0069776    -0.9984653  -0.0001948  -0.0001717   0.0002033   0.0000024  -0.0000116  -0.9420478   0.2746782
0.0070634    -0.9987385  -0.0002512  -0.0002436   0.0002910   0.0000023  -0.0000052  -0.9419420   0.2748400
0.0071502    -0.9987192  -0.0002470  -0.0002561   0.0001841   0.0000031  -0.0000154  -0.9419125   0.2748555
0.0072381    -0.9985624  -0.0002248  -0.0002383   0.0002474  -0.0000033  -0.0000122  -0.9418756   0.2750367
0.0073271    -0.9985369  -0.0002231  -0.0002189   0.0002224  -0.0000089  -0.0000030  -0.9420109   0.2752536
0.0074172    -0.9985450  -0.0001757  -0.0001901   0.0003241   0.0000121  -0.0000083  -0.9421284   0.2753567
0.0075084    -0.9985600  -0.0002858  -0.0001756   0.0002938   0.0000064  -0.0000108  -0.9421577   0.2755385
0.0076007    -0.9987277  -0.0002031  -0.0002065   0.0002627   0.0000004  -0.0000116  -0.9421461   0.2756577
0.0076941    -0.9987508  -0.0001139  -0.0002087   0.0002431  -0.0000021   0.0000084  -0.9421786   0.2759126
0.0077887    -0.9985674  -0.0001532  -0.0002285   0.0002533   0.0000107  -0.0000020  -0.9421820   0.2759312
0.0078844    -0.9986003  -0.0003143  -0.0002016   0.0002663  -0.0000035  -0.0000018  -0.9422685   0.2760016
0.0079814    -0.9987199  -0.0000966  -0.0002941   0.0002667   0.0000006  -0.0000059  -0.9422404   0.2762762
0.0080795    -0.9985819  -0.0001903  -0.0002242   0.0002350   0.0000058  -0.0000034  -0.9423989   0.2763341
0.0081788    -0.9986053  -0.0003386  -0.0002310   0.0002357  -0.0000045   0.0000043  -0.9422137   0.2765218
0.0082793    -0.9985100  -0.0002250  -0.0002283   0.0001988  -0.0000005  -0.0000093  -0.9423942   0.2765888
0.0083811    -0.9986418  -0.0002289  -0.0002377   0.0002721  -0.0000037   0.0000070  -0.9423573   0.2767983
0.0084842    -0.9986646  -0.0002158  -0.0001806   0.0002597  -0.0000016   0.0000005  -0.9423313   0.2768930
0.0085885    -0.9986359  -0.0001129  -0.0001443   0.0002675   0.0000015  -0.0000070  -0.9424398   0.2769427
0.0086940    -0.9985345  -0.0003076  -0.0002368   0.0002807   0.0000127  -0.0000141  -0.9423699   0.2771411
0.0088009    -0.9986886  -0.0001967  -0.0001610   0.0002115   0.0000002   0.0000062  -0.9423860   0.2772914
0.0089091    -0.9985812  -0.0001525  -0.0002097   0.0002600   0.0000024  -0.0000112  -0.9423989   0.2774866
0.0090186    -0.9986491  -0.0001961  -0.0001574   0.0002583  -0.0000090  -0.0000046  -0.9424998   0.2774735
0.0091295    -0.9986193  -0.0001269  -0.0001235   0.0002307   0.0000055  -0.0000005  -0.9425199   0.2777457
0.0092417    -0.9986945   0.0000260  -0.0001942   0.0002198   0.0000093  -0.0000054  -0.9424069   0.2777833
0.0093553    -0.9985916  -0.0002024  -0.0001928   0.0002398   0.0000041  -0.0000095  -0.9424297   0.2779104
0.0094703    -0.9986746  -0.0001607  -0.0001777   0.0002100   0.0000006   0.0000108  -0.9425230   0.2779699
0.0095868    -0.9985862  -0.0000838  -0.0001657   0.0001985  -0.0000033  -0.0000074  -0.9424579   0.2781670
0.0097046    -0.9986089  -0.0001851  -0.0002280   0.0002717  -0.0000017   0.0000127  -0.9425030   0.2781965
0.0098239    -0.9986454  -0.0000959  -0.0001690   0.0001932  -0.0000008   0.0000001  -0.9425577   0.2783250
0.0099447    -0.9986301  -0.0000984  -0.0002912   0.0002570  -0.0000004  -0.0000051  -0.9425478   0.2783615
0.0100669    -0.9987047  -0.0001454  -0.0001907   0.0002033  -0.0000093  -0.0000186  -0.9425242   0.2785836
0.0101907    -0.9985992  -0.0001364  -0.0001822   0.0001879  -0.0000033  -0.0000092  -0.9425358   0.2786114
0.0103160    -0.9986313  -0.0001511  -0.0002475   0.0002104   0.0000116  -0.0000083  -0.9425019   0.2787091
0.0104428    -0.9987331  -0.0000879  -0.0002546   0.0001970  -0.0000035   0.0000003  -0.9425838   0.2789201
0.0105712    -0.9985900   0.0000066  -0.0002006   0.0002386   0.0000088   0.0000015  -0.9425830   0.2789347
0.0107011    -0.9985791  -0.0000930  -0.0002383   0.0002349   0.0000044  -0.0000051  -0.9426090   0.2791118
0.0108327    -0.9985383  -0.0000437  -0.0001933   0.0001972   0.0000012  -0.0000062  -0.9425325   0.2791449
0.0109658    -0.9986000  -0.0002371  -0.0002046   0.0001884  -0.0000070  -0.0000045  -0.9426464   0.2792784
0.0111006    -0.9985280  -0.0001227  -0.0002347   0.0001645  -0.0000041  -0.0000068  -0.9426136   0.2795289
0.0112371    -0.9985218  -0.0001970  -0.0002302   0.0001403  -0.0000054   0.0000003  -0.9426557   0.2794251
0.0113752    -0.9986073  -0.0002571  -0.0002185   0.0002313  -0.0000107   0.0000007  -0.9425597   0.2795968
0.0115151    -0.9988795  -0.0000093  -0.0002670   0.0001874   0.0000003  -0.0000004  -0.9427017   0.2798539
0.0116566    -0.9984732  -0.0003180  -0.0001712   0.0002168  -0.0000025  -0.0000093  -0.9425976   0.2797545
0.0117999    -0.9987245  -0.0001672  -0.0002698   0.0002906  -0.0000078  -0.0000039  -0.9426702   0.2800117
0.0119450    -0.9963134  -0.0031211  -0.0001554   0.0001355  -0.0000012   0.0000006  -0.9434624   0.2782170
0.0120918    -0.9986272  -0.0000097  -0.0001802   0.0002159   0.0000006  -0.0000104  -0.9426943   0.2801527
0.0122405    -0.9985629  -0.0002689  -0.0001698   0.0001925  -0.0000107   0.0000039  -0.9427471   0.2801706
0.0123910    -0.9987294  -0.0000194  -0.0001966   0.0002298  -0.0000042  -0.0000100  -0.9426088   0.2804391
0.0125433    -0.9986593  -0.0002709  -0.0001752   0.0002359  -0.0000016   0.0000043  -0.9427097   0.2803775
0.0126975    -0.9986952  -0.0001116  -0.0002783   0.0001962  -0.0000036  -0.0000023  -0.9425424   0.2804387
0.0128536    -0.9986830  -0.0000563  -0.0001959   0.0002102   0.0000036  -0.0000033  -0.9426407   0.2806492
0.0130116    -0.9985763  -0.0002821  -0.0002195   0.0001091   0.0000031   0.0000037  -0.9426215   0.2806846
0.0131716    -0.9986075  -0.0001174  -0.0002501   0.0000874  -0.0000045   0.0000010  -0.9426642   0.2806807
0.0133335    -0.9986150   0.0000149  -0.0001140   0.0002193  -0.0000017  -0.0000095  -0.9425145   0.2809397
0.0134974    -0.9987249  -0.0000616  -0.0002621   0.0002114   0.0000014  -0.0000020  -0.9425677   0.2809175
0.0136633    -0.9986744  -0.0001248  -0.0000926   0.0003077   0.0000013  -0.0000062  -0.9426221   0.2811150
0.0138313    -0.9987748  -0.0000322  -0.0001709   0.0001204  -0.0000014  -0.0000050  -0.9425397   0.2811490
0.0140013    -0.9986054  -0.0000597  -0.0001139  -0.0000699  -0.0000043  -0.0000027  -0.9426175   0.2812854
0.0141734    -0.9985836  -0.0001409  -0.0003535  -0.0000284  -0.0000133  -0.0000052  -0.9426482   0.2814176
0.0143477    -0.9986199  -0.0001217  -0.0004641   0.0001493   0.0000019  -0.0000050  -0.9426134   0.2813920
0.0145240    -0.9986268  -0.0001359  -0.0003717   0.0000683   0.0000018   0.0000028  -0.9426510   0.2814696
0.0147026    -0.9986261  -0.0001343  -0.0002580   0.0001772   0.0000098  -0.0000082  -0.9425887   0.2815431
0.0148833    -0.9986878  -0.0000383  -0.0001879   0.0001527  -0.0000038  -0.0000085  -0.9425701   0.2817147
0.0150663    -0.9986834  -0.0001030  -0.0001718   0.0002694   0.0000025  -0.0000094  -0.9425500   0.2817628
0.0152515    -0.9986653  -0.0000998  -0.0001548   0.0001599  -0.0000064  -0.0000097  -0.9425577   0.2819218
0.0154390    -0.9986830  -0.0001194  -0.0001430   0.0002419  -0.0000151   0.0000062  -0.9425825   0.2819117
0.0156288    -0.9986491  -0.0000204  -0.0002433   0.0001143  -0.0000092  -0.0000074  -0.9426634   0.2819290
0.0158209    -0.9986950  -0.0001821  -0.0001516   0.0001396  -0.0000031  -0.0000088  -0.9425187   0.2819562
0.0160154    -0.9985688  -0.0002437  -0.0001770   0.0001710   0.0000012  -0.0000067  -0.9425096   0.2821765
0.0162123    -0.9986873  -0.0001164  -0.0001503   0.0001390  -0.0000041  -0.0000005  -0.9424733   0.2823458
0.0164116    -0.9985989  -0.0000257  -0.0001405   0.0000436   0.0000020  -0.0000133  -0.9425390   0.2823374
0.0166134    -0.9987059  -0.0001469  -0.0000963   0.0002078   0.0000025   0.0000024  -0.9424725   0.2825105
0.0168176    -0.9985992  -0.0000588  -0.0001549   0.0001919   0.0000023  -0.0000011  -0.9425681   0.2824212
0.0170243    -0.9987198  -0.0000591  -0.0002546   0.0001734  -0.0000044  -0.0000021  -0.9425075   0.2825839
0.0172336    -0.9987322   0.0000936  -0.0001476   0.0000439   0.0000039  -0.0000065  -0.9424701   0.2825693
0.0174455    -0.9986275  -0.0000538  -0.0002637   0.0002843  -0.0000069   0.0000054  -0.9424511   0.2826684
0.0176599    -0.9986667  -0.0001806  -0.0002159   0.0002020  -0.0000030  -0.0000096  -0.9424459   0.2827776
0.0178770    -0.9986833  -0.0000748  -0.0002534   0.0001363  -0.0000056   0.0000042  -0.9424224   0.2829245
0.0180968    -0.9986729  -0.0002205  -0.0000929   0.0001306  -0.0000086  -0.0000035  -0.9424302   0.2828374
0.0183193    -0.9986708  -0.0001520  -0.0000702   0.0001645   0.0000087  -0.0000044  -0.9424509   0.2830002
0.0185445    -0.9985624  -0.0000903  -0.0001053   0.0002614   0.0000103  -0.0000060  -0.9424455   0.2830423
0.0187724    -0.9985687  -0.0001019  -0.0001039   0.0004555   0.0000036   0.0000011  -0.9423371   0.2830841
0.0190032    -0.9986857  -0.0000416  -0.0003155  -0.0000548  -0.0000030  -0.0000051  -0.9424280   0.2831313
0.0192368    -0.9985484  -0.0001347   0.0001009   0.0005281   0.0000020   0.0000008  -0.9425254   0.2832695
0.0194733    -0.9987788  -0.0001413  -0.0002312  -0.0000776   0.0000098  -0.0000044  -0.9424154   0.2833488
0.0197127    -0.9987475  -0.0000314  -0.0002001   0.0002245  -0.0000072  -0.0000149  -0.9423865   0.2834325
0.0199550    -0.9986979  -0.0000672  -0.0003267   0.0002169  -0.0000085  -0.0000115  -0.9424142   0.2834576
0.0202003    -0.9986548  -0.0000539  -0.0001650   0.0002418  -0.0000027  -0.0000121  -0.9424186   0.2834956
0.0204487    -0.9986533  -0.0002049  -0.0001353   0.0002869  -0.0000126  -0.0000027  -0.9423482   0.2836018
0.0207001    -0.9987874  -0.0000775  -0.0001119   0.0002831  -0.0000050  -0.0000153  -0.9422820   0.2836091
0.0209545    -0.9986423  -0.0000202  -0.0001766   0.0001797  -0.0000042  -0.0000062  -0.9422991   0.2836966
0.0212121    -0.9987573  -0.0000843  -0.0002262   0.0002630   0.0000013   0.0000014  -0.9422630   0.2838958
0.0214729    -0.9986045   0.0000205  -0.0001750   0.0002022  -0.0000082  -0.0000137  -0.9423046   0.2839225
0.0217369    -0.9986510  -0.0001877  -0.0001816   0.0002069   0.0000177  -0.0000012  -0.9422967   0.2839207
0.0220041    -0.9987081  -0.0002165  -0.0001533   0.0002488  -0.0000034  -0.0000052  -0.9423316   0.2839710
0.0222746    -0.9986128  -0.0001207  -0.0001627   0.0001451   0.0000044  -0.0000094  -0.9421834   0.2840686
0.0225484    -0.9986766  -0.0002296  -0.0001122   0.0001298  -0.0000069   0.0000029  -0.9421589   0.2840821
0.0228256    -0.9986317  -0.0000200  -0.0002015   0.0001673  -0.0000015   0.0000000  -0.9422130   0.2841121
0.0231062    -0.9985980  -0.0000682  -0.0001504   0.0001635  -0.0000071  -0.0000067  -0.9422103   0.2841453
0.0233902    -0.9986879  -0.0000117  -0.0001368   0.0001587  -0.0000062   0.0000041  -0.9421501   0.2842650
0.0236778    -0.9986880  -0.0000293  -0.0001477   0.0001471   0.0000026  -0.0000065  -0.9421274   0.2843437
0.0239689    -1.0005400   0.0003505  -0.0000149   0.0000933  -0.0000034  -0.0000028  -0.9431943   0.2849166
0.0242635    -0.9986749  -0.0001160  -0.0001568   0.0001643   0.0000020  -0.0000015  -0.9421554   0.2844378
0.0245618    -0.9985403  -0.0001566  -0.0001681   0.0002023  -0.0000175  -0.0000006  -0.9420997   0.2845678
0.0248637    -0.9986754  -0.0001416  -0.0001448   0.0001809  -0.0000010  -0.0000011  -0.9421057   0.2846436
0.0251694    -0.9987162  -0.0000666  -0.0001383   0.0001607  -0.0000045  -0.0000092  -0.9421237   0.2846718
0.0254788    -0.9985605  -0.0001094  -0.0001730   0.0001481  -0.0000051  -0.0000060  -0.9420106   0.2847303
0.0257920    -0.9986768  -0.0001300  -0.0001858   0.0001371   0.0000011  -0.0000116  -0.9420984   0.2848583
0.0261091    -0.9986137  -0.0000882  -0.0001902   0.0001591   0.0000032  -0.0000093  -0.9419308   0.2848252
0.0264301    -0.9986381  -0.0001383  -0.0002116   0.0001532   0.0000051  -0.0000114  -0.9420806   0.2849199
0.0267550    -0.9987180  -0.0001613  -0.0001834   0.0001559  -0.0000017   0.0000036  -0.9419236   0.2849455
0.0270839    -0.9987174  -0.0001501  -0.0001828   0.0001593  -0.0000150  -0.0000070  -0.9420152   0.2849370
0.0274168    -0.9985861  -0.0002078  -0.0001975   0.0001361  -0.0000071  -0.0000091  -0.9419723   0.2849874
0.0277539    -0.9986941  -0.0001982  -0.0002046   0.0001517  -0.0000055  -0.0000124  -0.9418585   0.2850718
0.0280951    -0.9985494  -0.0000674  -0.0001259   0.0001399  -0.0000084  -0.0000131  -0.9418695   0.2851680
0.0284404    -0.9986464  -0.0000303  -0.0001579   0.0001778  -0.0000050  -0.0000027  -0.9418926   0.2852433
0.0287901    -0.9988129  -0.0000547  -0.0001977   0.0001912  -0.0000104  -0.0000071  -0.9419360   0.2851845
0.0291440    -0.9987114  -0.0000679  -0.0001870   0.0001402   0.0000046  -0.0000088  -0.9418947   0.2853351
0.0295023    -0.9986419  -0.0001513  -0.0002030   0.0001383   0.0000158   0.0000033  -0.9418181   0.2853636
0.0298649    -0.9986106  -0.0001454  -0.0002071   0.0001119   0.0000090  -0.0000008  -0.9418149   0.2853996
0.0302321    -0.9986397  -0.0001781  -0.0002121   0.0000837   0.0000043  -0.0000058  -0.9417208   0.2854923
0.0306037    -0.9986222  -0.0001645  -0.0001834   0.0001786  -0.0000045  -0.0000008  -0.9417143   0.2855678
0.0309799    -0.9986266  -0.0001244  -0.0001414   0.0001689  -0.0000045   0.0000013  -0.9418265   0.2855831
0.0313608    -0.9986996  -0.0002055  -0.0001841   0.0001225   0.0000041  -0.0000197  -0.9417779   0.2856653
0.0317463    -0.9985677  -0.0001676  -0.0002060   0.0001509  -0.0000047   0.0000050  -0.9416988   0.2857371
0.0321366    -0.9987654  -0.0001578  -0.0001440   0.0001124   0.0000041  -0.0000031  -0.9417880   0.2857474
0.0325316    -0.9986851  -0.0001265  -0.0001697   0.0002046   0.0000030  -0.0000159  -0.9416747   0.2858300
0.0329316    -0.9986793  -0.0000172  -0.0001578   0.0000828   0.0000071  -0.0000175  -0.9416642   0.2859160
0.0333364    -0.9986897  -0.0001100  -0.0002307   0.0001501   0.0000033  -0.0000037  -0.9416956   0.2859965
0.0337462    -0.9986815  -0.0000383  -0.0001924   0.0001001   0.0000003   0.0000066  -0.9415459   0.2858363
0.0341610    -0.9987398  -0.0000331  -0.0001862   0.0001021   0.0000031  -0.0000018  -0.9415890   0.2860550
0.0345810    -0.9987470  -0.0002186  -0.0001742   0.0001728   0.0000025  -0.0000054  -0.9415994   0.2860402
0.0350061    -0.9987494  -0.0001401  -0.0001800   0.0001288   0.0000041   0.0000028  -0.9416480   0.2861025
0.0354365    -0.9986803  -0.0000157  -0.0001901   0.0001174   0.0000008  -0.0000113  -0.9415532   0.2862356
0.0358721    -0.9987346  -0.0002222  -0.0002133   0.0001492   0.0000027   0.0000040  -0.9415274   0.2861881
0.0363131    -0.9986868  -0.0001356  -0.0002211   0.0000741  -0.0000035  -0.0000022  -0.9415787   0.2862180
0.0367595    -0.9986463  -0.0000974  -0.0002731   0.0000738  -0.0000029  -0.0000134  -0.9414277   0.2863980
0.0372114    -0.9986484  -0.0000624  -0.0001336   0.0001776   0.0000021  -0.0000147  -0.9414660   0.2864445
0.0376688    -0.9985431  -0.0001513  -0.0000575   0.0001726  -0.0000015  -0.0000004  -0.9414265   0.2864517
0.0381319    -0.9986551  -0.0003393  -0.0000686   0.0001510  -0.0000009  -0.0000148  -0.9414994   0.2864761
0.0386006    -0.9986762  -0.0000877  -0.0001961   0.0000535  -0.0000001  -0.0000062  -0.9414738   0.2866139
0.0390752    -0.9985992  -0.0001951  -0.0001808   0.0000837   0.0000058  -0.0000044  -0.9413666   0.2865701
0.0395555    -0.9985752  -0.0001101  -0.0001446   0.0001185  -0.0000018  -0.0000008  -0.9413887   0.2866159
0.0400418    -0.9986169  -0.0001333  -0.0001567   0.0002177  -0.0000059  -0.0000090  -0.9414225   0.2867169
0.0405340    -0.9986355  -0.0001392  -0.0002178   0.0001278   0.0000032  -0.0000083  -0.9413678   0.2866962
0.0410323    -0.9986382  -0.0001394  -0.0002200   0.0001775   0.0000113  -0.0000063  -0.9412536   0.2867964
0.0415368    -0.9985853  -0.0001224  -0.0001928   0.0001152  -0.0000101   0.0000046  -0.9413906   0.2868516
0.0420474    -0.9986020  -0.0001433  -0.0002252   0.0001429  -0.0000032  -0.0000059  -0.9413047   0.2867908
0.0425643    -0.9986732  -0.0001063  -0.0002114   0.0001227   0.0000041  -0.0000041  -0.9412317   0.2868349
0.0430875    -0.9986336  -0.0002182  -0.0002057   0.0001232   0.0000041  -0.0000004  -0.9413051   0.2869693
0.0436172    -0.9986198  -0.0001328  -0.0001977   0.0001180  -0.0000077  -0.0000074  -0.9412355   0.2870156
0.0441534    -0.9985857  -0.0003025  -0.0001827   0.0001264   0.0000004  -0.0000073  -0.9411886   0.2871031
0.0446962    -0.9987489  -0.0000278  -0.0001928   0.0000911  -0.0000045  -0.0000057  -0.9411981   0.2871376
0.0452457    -0.9986656  -0.0001892  -0.0001727   0.0001232   0.0000028  -0.0000074  -0.9411458   0.2871384
0.0458019    -0.9986593  -0.0001530  -0.0002055   0.0001519   0.0000017  -0.0000085  -0.9411226   0.2871739
0.0463649    -0.9986503  -0.0002281  -0.0001436   0.0001290   0.0000098   0.0000013  -0.9410879   0.2872438
0.0469349    -0.9987138  -0.0002638  -0.0001792   0.0001181  -0.0000076  -0.0000056  -0.9410962   0.2873527
0.0475119    -0.9986647  -0.0002662  -0.0001863   0.0001280   0.0000017  -0.0000071  -0.9410704   0.2873649
0.0480960    -0.9986352  -0.0002806  -0.0001711   0.0001406  -0.0000044  -0.0000019  -0.9409973   0.2874680
0.0486872    -0.9986741  -0.0001730  -0.0001752   0.0001419  -0.0000129  -0.0000110  -0.9409651   0.2874875
0.0492857    -0.9987350  -0.0001675  -0.0002165   0.0001711  -0.0000002  -0.0000042  -0.9409461   0.2875644
0.0498916    -0.9986098  -0.0001320  -0.0002060   0.0001496  -0.0000045  -0.0000018  -0.9408737   0.2876173
0.0505050    -0.9986029  -0.0001068  -0.0002177   0.0001476  -0.0000103  -0.0000166  -0.9409469   0.2876108
0.0511258    -0.9986316  -0.0002271  -0.0002150   0.0001297  -0.0000017  -0.0000074  -0.9409396   0.2877756
0.0517543    -0.9986994  -0.0002076  -0.0002191   0.0001497  -0.0000078  -0.0000062  -0.9409543   0.2877150
0.0523906    -0.9987500  -0.0002275  -0.0002031   0.0001394   0.0000057  -0.0000072  -0.9408638   0.2877875
0.0530346    -0.9986103  -0.0001466  -0.0001968   0.0001180   0.0000032  -0.0000115  -0.9408033   0.2878187
0.0536866    -0.9986737  -0.0001891  -0.0001984   0.0001644  -0.0000095  -0.0000167  -0.9408350   0.2878571
0.0543466    -0.9986796  -0.0001718  -0.0002469   0.0001369  -0.0000052  -0.0000006  -0.9407425   0.2878680
0.0550146    -0.9986776  -0.0001195  -0.0002159   0.0001750  -0.0000055  -0.0000045  -0.9407686   0.2879192
0.0556910    -0.9986342  -0.0001957  -0.0001855   0.0001194  -0.0000121  -0.0000102  -0.9406990   0.2879734
0.0563756    -0.9986221  -0.0001514  -0.0002076   0.0000611   0.0000018  -0.0000108  -0.9407175   0.2881117
0.0570686    -0.9986764  -0.0002104  -0.0001536   0.0001941   0.0000006  -0.0000166  -0.9406780   0.2881488
0.0577702    -0.9987102  -0.0001828  -0.0002106   0.0001525  -0.0000013  -0.0000054  -0.9406106   0.2882546
0.0584804    -0.9986903  -0.0001900  -0.0001944   0.0001956   0.0000011  -0.0000075  -0.9405687   0.2881916
0.0591993    -0.9986435  -0.0001608  -0.0003069   0.0001360   0.0000087   0.0000003  -0.9405477   0.2882490
0.0599270    -0.9986916  -0.0002587  -0.0002205   0.0001642   0.0000084  -0.0000020  -0.9406534   0.2883762
0.0606637    -0.9986146  -0.0002188  -0.0002478   0.0001683  -0.0000008  -0.0000084  -0.9404613   0.2883609
0.0614095    -0.9986298  -0.0001223  -0.0002263   0.0001829  -0.0000130   0.0000009  -0.9405219   0.2883972
0.0621644    -0.9985758  -0.0001638  -0.0002302   0.0001754  -0.0000010  -0.0000074  -0.9405535   0.2885076
0.0629286    -0.9986570  -0.0001861  -0.0002041   0.0001542  -0.0000052  -0.0000012  -0.9404398   0.2884878
0.0637022    -0.9986370  -0.0001944  -0.0001863   0.0001728   0.0000020  -0.0000046  -0.9403573   0.2886245
0.0644853    -0.9987433  -0.0002087  -0.0002125   0.0001678  -0.0000014  -0.0000039  -0.9404157   0.2886764
0.0652780    -0.9986260  -0.0002152  -0.0002264   0.0001572   0.0000039  -0.0000084  -0.9403190   0.2886986
0.0660805    -0.9986962  -0.0001668  -0.0002024   0.0001729  -0.0000050  -0.0000067  -0.9402917   0.2888275
0.0668928    -0.9987095  -0.0001130  -0.0002490   0.0001617  -0.0000128  -0.0000122  -0.9402203   0.2888212
0.0677152    -0.9987298  -0.0002371  -0.0002122   0.0001727   0.0000000  -0.0000112  -0.9402024   0.2888230
0.0685476    -0.9987495  -0.0001752  -0.0002314   0.0001497  -0.0000072  -0.0000117  -0.9401862   0.2888922
0.0693903    -0.9987022  -0.0002216  -0.0002110   0.0002013  -0.0000004  -0.0000041  -0.9401122   0.2890172
0.0702433    -0.9987134  -0.0001980  -0.0002349   0.0001486  -0.0000029   0.0000041  -0.9401311   0.2890242
0.0711068    -0.9986008  -0.0002016  -0.0001944   0.0001305   0.0000037  -0.0000059  -0.9400895   0.2890692
0.0719810    -0.9986557  -0.0001453  -0.0002006   0.0001945  -0.0000091   0.0000050  -0.9400307   0.2890734
0.0728659    -0.9986489  -0.0002061  -0.0002523   0.0001473   0.0000052  -0.0000014  -0.9399982   0.2891921
0.0737616    -0.9987294  -0.0002239  -0.0002223   0.0001779  -0.0000012   0.0000004  -0.9399166   0.2892475
0.0746684    -0.9987062  -0.0002274  -0.0002587   0.0001629   0.0000073  -0.0000086  -0.9399425   0.2892933
0.0755863    -0.9987097  -0.0003189  -0.0002242   0.0001437  -0.0000051  -0.0000018  -0.9398644   0.2893296
0.0765155    -0.9987470  -0.0002250  -0.0002390   0.0002198  -0.0000040  -0.0000102  -0.9398543   0.2893451
0.0774561    -0.9986554  -0.0003136  -0.0001997   0.0002119   0.0000021  -0.0000132  -0.9397228   0.2894283
0.0784083    -0.9986941  -0.0003145  -0.0001847   0.0002098   0.0000033   0.0000006  -0.9396576   0.2894038
0.0793722    -0.9986070  -0.0003086  -0.0002305   0.0002012  -0.0000042  -0.0000104  -0.9396161   0.2895158
0.0803479    -0.9987960  -0.0003162  -0.0002416   0.0001761   0.0000014  -0.0000099  -0.9396115   0.2895176
0.0813357    -0.9986821  -0.0002306  -0.0002087   0.0002118  -0.0000006  -0.0000007  -0.9394970   0.2895606
0.0823356    -0.9986687  -0.0003242  -0.0002201   0.0002383  -0.0000053  -0.0000076  -0.9394075   0.2896695
0.0833477    -0.9985811  -0.0002289  -0.0002198   0.0002150   0.0000061  -0.0000029  -0.9393761   0.2896456
0.0843723    -0.9987606  -0.0003629  -0.0002172   0.0002227   0.0000086  -0.0000037  -0.9393115   0.2897923
0.0854095    -0.9987976  -0.0002495  -0.0002455   0.0002352  -0.0000026  -0.0000074  -0.9392051   0.2896720
0.0864595    -0.9986161  -0.0003812  -0.0002416   0.0002058  -0.0000029   0.0000073  -0.9391912   0.2898053
0.0875224    -0.9986566  -0.0002975  -0.0002307   0.0002145   0.0000034  -0.0000104  -0.9391330   0.2897833
0.0885983    -0.9986405  -0.0004182  -0.0002149   0.0002441  -0.0000022  -0.0000038  -0.9390844   0.2898074
0.0896875    -0.9986181  -0.0003106  -0.0002349   0.0002295   0.0000089  -0.0000091  -0.9389901   0.2898603
0.0907900    -0.9986630  -0.0003736  -0.0002328   0.0002113  -0.0000058  -0.0000009  -0.9389029   0.2897670
0.0919061    -0.9987166  -0.0002739  -0.0002411   0.0002554   0.0000026   0.0000009  -0.9387465   0.2898359
0.0930359    -0.9986732  -0.0004204  -0.0002383   0.0002228   0.0000012   0.0000016  -0.9387368   0.2897206
0.0941797    -0.9985746  -0.0004024  -0.0002769   0.0002425   0.0000025   0.0000095  -0.9386642   0.2897788
0.0953374    -0.9985673  -0.0003107  -0.0002672   0.0002562  -0.0000047   0.0000036  -0.9386589   0.2896874
0.0965094    -0.9985586  -0.0003231  -0.0002348   0.0002709   0.0000008  -0.0000022  -0.9385277   0.2897067
0.0976959    -0.9986903  -0.0003855  -0.0002587   0.0003087   0.0000064  -0.0000051  -0.9385353   0.2896980
0.0988969    -0.9987166  -0.0005222  -0.0002272   0.0002634  -0.0000068  -0.0000015  -0.9384663   0.2896201
0.1001126    -0.9986847  -0.0003620  -0.0002294   0.0002806  -0.0000042  -0.0000113  -0.9384273   0.2896009
0.1013433    -0.9986891  -0.0003957  -0.0002488   0.0002758  -0.0000066  -0.0000005  -0.9384162   0.2895283
0.1025892    -0.9986346  -0.0004112  -0.0002590   0.0002866  -0.0000089  -0.0000156  -0.9383242   0.2894642
0.1038503    -0.9986915  -0.0004357  -0.0002321   0.0003181  -0.0000061   0.0000026  -0.9383898   0.2893628
0.1051270    -0.9986994  -0.0004287  -0.0002435   0.0003002  -0.0000042   0.0000032  -0.9384645   0.2893710
0.1064193    -0.9987303  -0.0004378  -0.0002304   0.0002884  -0.0000009  -0.0000043  -0.9385210   0.2892712
0.1077276    -0.9987283  -0.0004377  -0.0002635   0.0003219  -0.0000010   0.0000042  -0.9385561   0.2893075
0.1090519    -0.9987745  -0.0003847  -0.0002602   0.0002742   0.0000081   0.0000023  -0.9386699   0.2891948
0.1103925    -0.9987614  -0.0004507  -0.0002662   0.0002743  -0.0000053  -0.0000082  -0.9386504   0.2892372
0.1117496    -0.9987218  -0.0004108  -0.0002643   0.0003237   0.0000070  -0.0000009  -0.9387449   0.2892651
0.1131233    -0.9986969  -0.0004956  -0.0002346   0.0003048  -0.0000109  -0.0000063  -0.9388706   0.2892237
0.1145140    -0.9988015  -0.0004527  -0.0002465   0.0003394  -0.0000020  -0.0000139  -0.9389367   0.2893050
0.1159217    -0.9987279  -0.0003814  -0.0002467   0.0003655  -0.0000058  -0.0000006  -0.9389502   0.2893045
0.1173468    -0.9987052  -0.0004879  -0.0002870   0.0003227   0.0000043  -0.0000100  -0.9390159   0.2893834
0.1187893    -0.9987998  -0.0004900  -0.0002494   0.0003238  -0.0000015  -0.0000112  -0.9391408   0.2894386
0.1202497    -0.9986648  -0.0005674  -0.0002285   0.0002982  -0.0000076  -0.0000202  -0.9391425   0.2894774
0.1217279    -0.9988286  -0.0004542  -0.0002554   0.0003276   0.0000047   0.0000067  -0.9391774   0.2895602
0.1232243    -0.9987407  -0.0004573  -0.0002709   0.0003510  -0.0000059  -0.0000097  -0.9393238   0.2897100
0.1247392    -0.9987823  -0.0003613  -0.0002601   0.0003475  -0.0000005  -0.0000021  -0.9393441   0.2897610
0.1262726    -0.9987504  -0.0004341  -0.0002492   0.0003389  -0.0000082  -0.0000107  -0.9393835   0.2898578
0.1278249    -0.9988107  -0.0005424  -0.0002605   0.0003552  -0.0000011  -0.0000062  -0.9393711   0.2899272
0.1293963    -0.9986775  -0.0004274  -0.0002493   0.0003367  -0.0000038  -0.0000042  -0.9394349   0.2900448
0.1309870    -0.9988305  -0.0004946  -0.0002384   0.0003733   0.0000004  -0.0000140  -0.9394403   0.2901690
0.1325973    -0.9987470  -0.0004912  -0.0002705   0.0003515  -0.0000006   0.0000020  -0.9394429   0.2901727
0.1342273    -0.9987481  -0.0004514  -0.0002697   0.0003696  -0.0000030  -0.0000066  -0.9395119   0.2902830
0.1358774    -0.9987551  -0.0004501  -0.0002475   0.0003799  -0.0000045   0.0000028  -0.9394840   0.2904587
0.1375478    -0.9987416  -0.0004589  -0.0002565   0.0003966   0.0000041  -0.0000011  -0.9395102   0.2904983
0.1392387    -0.9986691  -0.0004064  -0.0002439   0.0004002  -0.0000016  -0.0000030  -0.9394896   0.2906542
0.1409504    -0.9987828  -0.0005202  -0.0002631   0.0003817  -0.0000098  -0.0000030  -0.9395416   0.2907525
0.1426831    -0.9987304  -0.0004277  -0.0002738   0.0003956  -0.0000051  -0.0000032  -0.9395182   0.2907696
0.1444371    -0.9988209  -0.0004525  -0.0002607   0.0004034   0.0000040  -0.0000025  -0.9394529   0.2909111
0.1462127    -0.9988805  -0.0004295  -0.0002532   0.0003947   0.0000011  -0.0000080  -0.9395321   0.2910522
0.1480102    -0.9987964  -0.0003621  -0.0002322   0.0004079  -0.0000016  -0.0000117  -0.9394888   0.2911476
0.1498297    -0.9987697  -0.0004869  -0.0002673   0.0004359  -0.0000046   0.0000006  -0.9394295   0.2911965
0.1516716    -0.9988010  -0.0005512  -0.0002575   0.0004162  -0.0000031   0.0000037  -0.9394114   0.2913293
0.1535361    -0.9987106  -0.0004915  -0.0002493   0.0004399  -0.0000056  -0.0000089  -0.9394468   0.2914228
0.1554236    -0.9987542  -0.0004108  -0.0002741   0.0004170   0.0000006   0.0000022  -0.9394299   0.2915906
0.1573342    -0.9987087  -0.0004762  -0.0002635   0.0004471  -0.0000109  -0.0000090  -0.9393141   0.2916879
0.1592684    -0.9988049  -0.0004809  -0.0002820   0.0004558   0.0000048   0.0000032  -0.9394186   0.2917255
0.1612263    -0.9987458  -0.0005598  -0.0002891   0.0004532   0.0000049  -0.0000010  -0.9393069   0.2918717
0.1632083    -0.9989215  -0.0004861  -0.0002367   0.0004468   0.0000052  -0.0000046  -0.9393931   0.2919294
0.1652147    -0.9987657  -0.0005350  -0.0002503   0.0004527  -0.0000054   0.0000015  -0.9392935   0.2920767
0.1672457    -0.9986796  -0.0006013  -0.0002913   0.0004292   0.0000058  -0.0000092  -0.9392819   0.2921465
0.1693017    -0.9988185  -0.0005657  -0.0002040   0.0004016  -0.0000093  -0.0000026  -0.9392562   0.2921591
0.1713829    -0.9987815  -0.0005785  -0.0002308   0.0004131  -0.0000062  -0.0000029  -0.9392212   0.2923577
0.1734898    -0.9987188  -0.0005223  -0.0002712   0.0004525  -0.0000008   0.0000005  -0.9391912   0.2923584
0.1756225    -0.9987369  -0.0004398  -0.0002736   0.0004786   0.0000067  -0.0000024  -0.9391699   0.2925539
0.1777815    -0.9987739  -0.0005478  -0.0002702   0.0004737  -0.0000031  -0.0000086  -0.9390592   0.2925714
0.1799670    -0.9988439  -0.0006578  -0.0002556   0.0004736  -0.0000053  -0.0000102  -0.9390654   0.2927581
0.1821794    -0.9987900  -0.0005977  -0.0002556   0.0004903   0.0000027  -0.0000042  -0.9390483   0.2928551
0.1844190    -0.9987730  -0.0005303  -0.0002486   0.0005104  -0.0000014  -0.0000113  -0.9391059   0.2929285
0.1866861    -0.9987855  -0.0005501  -0.0002720   0.0005182  -0.0000025  -0.0000085  -0.9389236   0.2930493
0.1889811    -0.9988883  -0.0005206  -0.0002653   0.0005277  -0.0000052  -0.0000045  -0.9389341   0.2931909
0.1913043    -0.9988304  -0.0006880  -0.0002663   0.0005031  -0.0000022  -0.0000077  -0.9389398   0.2931881
0.1936560    -0.9987342  -0.0006027  -0.0002631   0.0005405  -0.0000029   0.0000011  -0.9388743   0.2934055
0.1960367    -0.9989154  -0.0006830  -0.0002863   0.0005123  -0.0000034  -0.0000113  -0.9388666   0.2935421
0.1984466    -0.9987993  -0.0006323  -0.0002595   0.0005388  -0.0000069  -0.0000007  -0.9388003   0.2935264
0.2008861    -0.9987508  -0.0005741  -0.0002467   0.0005353  -0.0000035  -0.0000135  -0.9388468   0.2937072
0.2033557    -0.9988070  -0.0006770  -0.0002557   0.0005312  -0.0000017  -0.0000072  -0.9388149   0.2937507
0.2058556    -0.9988740  -0.0005884  -0.0002542   0.0005579   0.0000063  -0.0000012  -0.9386165   0.2938308
0.2083862    -0.9987765  -0.0007230  -0.0002518   0.0005653  -0.0000007  -0.0000098  -0.9386430   0.2939738
0.2109480    -0.9987864  -0.0006325  -0.0002546   0.0005503  -0.0000041   0.0000037  -0.9386125   0.2940661
0.2135412    -0.9986924  -0.0005986  -0.0002409   0.0005796   0.0000026  -0.0000099  -0.9385548   0.2941996
0.2161663    -0.9987937  -0.0006920  -0.0002537   0.0005639   0.0000069  -0.0000061  -0.9385860   0.2942747
0.2188237    -0.9987407  -0.0006779  -0.0002660   0.0005654  -0.0000015  -0.0000051  -0.9385893   0.2944157
0.2215137    -0.9987636  -0.0007040  -0.0002484   0.0005946  -0.0000176  -0.0000081  -0.9384733   0.2944849
0.2242369    -0.9988101  -0.0007089  -0.0002734   0.0005971  -0.0000093  -0.0000156  -0.9383799   0.2946712
0.2269935    -0.9988385  -0.0006536  -0.0002636   0.0006038  -0.0000070  -0.0000102  -0.9383557   0.2947396
0.2297839    -0.9989326  -0.0006313  -0.0002722   0.0006263   0.0000008  -0.0000095  -0.9383288   0.2948782
0.2326087    -0.9988407  -0.0007224  -0.0002494   0.0006404  -0.0000072  -0.0000042  -0.9383012   0.2949777
0.2354682    -0.9988120  -0.0006721  -0.0002700   0.0006363   0.0000062  -0.0000025  -0.9382314   0.2950852
0.2383629    -0.9988909  -0.0007316  -0.0002582   0.0006240   0.0000095  -0.0000077  -0.9382402   0.2951383
0.2412932    -0.9988922  -0.0006476  -0.0002553   0.0006541  -0.0000204  -0.0000146  -0.9381400   0.2952565
0.2442594    -0.9988656  -0.0008270  -0.0002484   0.0006821  -0.0000093   0.0000065  -0.9381314   0.2954319
0.2472622    -0.9988639  -0.0006843  -0.0002346   0.0006772  -0.0000034  -0.0000044  -0.9381191   0.2955686
0.2503018    -0.9987795  -0.0007870  -0.0002635   0.0006678  -0.0000125  -0.0000093  -0.9379876   0.2957517
0.2533788    -0.9988970  -0.0007540  -0.0002445   0.0006839  -0.0000040   0.0000031  -0.9379655   0.2957465
0.2564937    -0.9987749  -0.0007515  -0.0002497   0.0006894  -0.0000017  -0.0000116  -0.9379517   0.2958429
0.2596468    -0.9987700  -0.0008724  -0.0002547   0.0006679  -0.0000103  -0.0000019  -0.9378675   0.2960615
0.2628387    -0.9989116  -0.0007623  -0.0002301   0.0006819   0.0000019   0.0000031  -0.9378421   0.2962113
0.2660699    -0.9988745  -0.0007374  -0.0002610   0.0007028   0.0000030  -0.0000001  -0.9377637   0.2962477
0.2693407    -0.9988690  -0.0008575  -0.0002504   0.0007014   0.0000029   0.0000017  -0.9376920   0.2964796
0.2726518    -0.9988333  -0.0008198  -0.0002588   0.0007202   0.0000098  -0.0000065  -0.9376563   0.2965318
0.2760036    -0.9987970  -0.0008571  -0.0002888   0.0007286  -0.0000009  -0.0000004  -0.9376370   0.2967253
0.2793966    -0.9987586  -0.0007687  -0.0002689   0.0007514   0.0000015  -0.0000069  -0.9375655   0.2967840
0.2828312    -0.9988454  -0.0007980  -0.0002696   0.0007370  -0.0000054  -0.0000065  -0.9375553   0.2969881
0.2863082    -0.9988287  -0.0008482  -0.0002523   0.0007503  -0.0000069  -0.0000156  -0.9374514   0.2970842
0.2898278    -0.9987937  -0.0008822  -0.0002722   0.0007664   0.0000011  -0.0000148  -0.9373987   0.2972562
0.2933907    -0.9988684  -0.0007839  -0.0002500   0.0007916  -0.0000071  -0.0000110  -0.9374491   0.2973166
0.2969975    -0.9989265  -0.0008730  -0.0002489   0.0007865   0.0000025  -0.0000002  -0.9373918   0.2974570
0.3006485    -0.9988495  -0.0008311  -0.0002478   0.0008092  -0.0000037  -0.0000003  -0.9372446   0.2976492
0.3043445    -0.9988314  -0.0008976  -0.0002572   0.0008112   0.0000030  -0.0000090  -0.9372233   0.2977212
0.3080858    -0.9989338  -0.0009528  -0.0002670   0.0007976   0.0000008  -0.0000047  -0.9371217   0.2978439
0.3118732    -0.9990118  -0.0008514  -0.0002595   0.0008352  -0.0000029  -0.0000037  -0.9370846   0.2981255
0.3157071    -0.9988061  -0.0009490  -0.0002580   0.0008126   0.0000001  -0.0000051  -0.9369519   0.2981806
0.3195882    -0.9987952  -0.0009203  -0.0002349   0.0008217  -0.0000056  -0.0000075  -0.9369621   0.2983713
0.3235170    -0.9989336  -0.0010078  -0.0002694   0.0008350   0.0000005  -0.0000101  -0.9368877   0.2985743
0.3274941    -0.9988260  -0.0008474  -0.0002539   0.0008628  -0.0000171  -0.0000030  -0.9368245   0.2986018
0.3315200    -0.9989894  -0.0010021  -0.0002648   0.0008595  -0.0000011  -0.0000002  -0.9366881   0.2987612
0.3355955    -0.9989768  -0.0008759  -0.0002674   0.0008444   0.0000024  -0.0000098  -0.9367534   0.2988743
0.3397210    -0.9989104  -0.0009796  -0.0002808   0.0008875  -0.0000033  -0.0000140  -0.9366286   0.2991156
0.3438973    -0.9989768  -0.0009701  -0.0002638   0.0009002   0.0000025  -0.0000018  -0.9365542   0.2991742
0.3481249    -0.9988811  -0.0010232  -0.0002574   0.0008860  -0.0000090  -0.0000003  -0.9365513   0.2993079
0.3524045    -0.9988183  -0.0009445  -0.0002439   0.0008938   0.0000071  -0.0000049  -0.9364981   0.2994654
0.3567367    -0.9989300  -0.0010013  -0.0002645   0.0009101   0.0000048  -0.0000006  -0.9364733   0.2996630
0.3611221    -0.9989465  -0.0010184  -0.0002651   0.0009371  -0.0000009  -0.0000053  -0.9363157   0.2998125
0.3655615    -0.9988869  -0.0010129  -0.0002463   0.0009550   0.0000008   0.0000035  -0.9362350   0.2999891
0.3700554    -0.9989171  -0.0010485  -0.0002617   0.0009592  -0.0000078   0.0000013  -0.9361766   0.3001423
0.3746046    -0.9990415  -0.0010610  -0.0002946   0.0009715  -0.0000074   0.0000052  -0.9360952   0.3002810
0.3792097    -0.9991427  -0.0010862  -0.0002341   0.0009594   0.0000027  -0.0000014  -0.9360310   0.3005167
0.3838714    -0.9989906  -0.0009914  -0.0002556   0.0010126  -0.0000147   0.0000006  -0.9360487   0.3006684
0.3885905    -0.9987980  -0.0010556  -0.0002332   0.0010012   0.0000014  -0.0000025  -0.9359445   0.3008066
0.3933675    -0.9989665  -0.0012223  -0.0002349   0.0010245  -0.0000064  -0.0000079  -0.9358374   0.3010662
0.3982033    -0.9990492  -0.0011160  -0.0002466   0.0010033   0.0000045  -0.0000028  -0.9357388   0.3011775
0.4030985    -0.9989192  -0.0011053  -0.0002359   0.0010597  -0.0000013  -0.0000019  -0.9356822   0.3013380
0.4080538    -0.9989452  -0.0011410  -0.0002362   0.0010464   0.0000088  -0.0000011  -0.9356213   0.3015114
0.4130701    -0.9990027  -0.0010988  -0.0002587   0.0010710  -0.0000030  -0.0000011  -0.9354990   0.3017008
0.4181481    -0.9988987  -0.0011945  -0.0002262   0.0010641  -0.0000217  -0.0000123  -0.9354835   0.3019167
0.4232885    -0.9989510  -0.0011798  -0.0002347   0.0010882   0.0000013  -0.0000042  -0.9353929   0.3020374
0.4284921    -0.9989282  -0.0011740  -0.0002423   0.0010850   0.0000050  -0.0000019  -0.9353126   0.3021829
0.4337597    -0.9988707  -0.0012014  -0.0002396   0.0010841  -0.0000025  -0.0000129  -0.9351899   0.3024178
0.4390920    -0.9989401  -0.0011318  -0.0002438   0.0011068   0.0000014  -0.0000040  -0.9351455   0.3026475
0.4444898    -0.9990153  -0.0010844  -0.0002529   0.0011369   0.0000003  -0.0000071  -0.9350953   0.3028394
0.4499541    -0.9990560  -0.0011817  -0.0002448   0.0011446   0.0000018   0.0000071  -0.9349420   0.3029515
0.4554854    -0.9989224  -0.0011254  -0.0002519   0.0011488  -0.0000024   0.0000004  -0.9349191   0.3031716
0.4610848    -0.9989749  -0.0012555  -0.0002621   0.0011604   0.0000036  -0.0000010  -0.9347462   0.3034583
0.4667531    -0.9990903  -0.0012047  -0.0002525   0.0011838  -0.0000048  -0.0000122  -0.9347264   0.3035858
0.4724910    -0.9990229  -0.0013789  -0.0002543   0.0012196   0.0000114  -0.0000039  -0.9345766   0.3037551
0.4782994    -0.9989176  -0.0012543  -0.0002398   0.0012165  -0.0000062  -0.0000052  -0.9345650   0.3040264
0.4841793    -0.9990193  -0.0013082  -0.0002649   0.0012443   0.0000106   0.0000023  -0.9344129   0.3041643
0.4901314    -0.9989215  -0.0012627  -0.0002417   0.0012262   0.0000062  -0.0000086  -0.9344641   0.3044346
0.4961567    -0.9989481  -0.0013007  -0.0002557   0.0012497  -0.0000058  -0.0000014  -0.9343045   0.3046205
0.5022561    -0.9990280  -0.0012867  -0.0002695   0.0012917  -0.0000017  -0.0000053  -0.9341865   0.3048411
0.5084304    -0.9990460  -0.0012713  -0.0002476   0.0013137  -0.0000013  -0.0000019  -0.9340425   0.3051119
0.5146807    -0.9990025  -0.0013403  -0.0002659   0.0013051  -0.0000092  -0.0000063  -0.9339961   0.3052493
0.5210078    -0.9990278  -0.0012899  -0.0002331   0.0012952   0.0000043  -0.0000041  -0.9338725   0.3054744
0.5274126    -0.9990388  -0.0013252  -0.0002494   0.0013520  -0.0000064  -0.0000075  -0.9338402   0.3057256
0.5338963    -0.9990019  -0.0013161  -0.0002497   0.0013824   0.0000003   0.0000057  -0.9337405   0.3059158
0.5404596    -0.9990389  -0.0014151  -0.0002523   0.0013829  -0.0000084   0.0000050  -0.9336710   0.3062319
0.5471036    -0.9989641  -0.0013374  -0.0002729   0.0013996  -0.0000094  -0.0000065  -0.9335276   0.3063257
0.5538292    -0.9990359  -0.0014198  -0.0002653   0.0013815   0.0000020  -0.0000054  -0.9334165   0.3066357
0.5606376    -0.9990589  -0.0014048  -0.0002785   0.0014273  -0.0000026  -0.0000073  -0.9332411   0.3068205
0.5675297    -0.9989688  -0.0015268  -0.0002612   0.0014458  -0.0000022  -0.0000028  -0.9331879   0.3071370
0.5745064    -0.9990860  -0.0015664  -0.0002965   0.0014546   0.0000018   0.0000011  -0.9330557   0.3073340
0.5815690    -0.9990196  -0.0015375  -0.0002667   0.0014739   0.0000020   0.0000047  -0.9330523   0.3075216
0.5887183    -0.9991119  -0.0014280  -0.0002756   0.0014833  -0.0000109  -0.0000114  -0.9328489   0.3077647
0.5959556    -0.9991019  -0.0015378  -0.0002538   0.0015062  -0.0000057  -0.0000093  -0.9327533   0.3080503
0.6032818    -0.9990327  -0.0015944  -0.0002544   0.0015027  -0.0000051  -0.0000031  -0.9326622   0.3083318
0.6106981    -0.9990328  -0.0015137  -0.0002634   0.0015394   0.0000033  -0.0000101  -0.9325332   0.3086434
0.6182056    -0.9991384  -0.0015383  -0.0002550   0.0015911   0.0000045  -0.0000047  -0.9324797   0.3087512
0.6258053    -0.9990549  -0.0016066  -0.0002617   0.0015723  -0.0000036   0.0000009  -0.9323100   0.3090988
0.6334985    -0.9989985  -0.0015307  -0.0002571   0.0015803   0.0000043  -0.0000057  -0.9322906   0.3093580
0.6412862    -0.9990898  -0.0015354  -0.0002794   0.0016238  -0.0000087  -0.0000039  -0.9320162   0.3096498
0.6491697    -0.9990584  -0.0016073  -0.0002620   0.0016194  -0.0000025   0.0000017  -0.9320639   0.3099768
0.6571501    -0.9991498  -0.0016388  -0.0002792   0.0016467  -0.0000156  -0.0000076  -0.9318527   0.3101546
0.6652286    -0.9990492  -0.0016650  -0.0002888   0.0016722   0.0000013  -0.0000025  -0.9317385   0.3105023
0.6734064    -0.9991081  -0.0015730  -0.0002835   0.0017001  -0.0000007  -0.0000128  -0.9316249   0.3107810
0.6816848    -0.9990997  -0.0017943  -0.0002515   0.0017356  -0.0000108  -0.0000052  -0.9314518   0.3109770
0.6900649    -0.9991446  -0.0017738  -0.0002687   0.0017489  -0.0000001  -0.0000024  -0.9313558   0.3112493
0.6985480    -0.9991007  -0.0017405  -0.0002777   0.0017423  -0.0000011  -0.0000022  -0.9312130   0.3116300
0.7071355    -0.9990615  -0.0017769  -0.0002692   0.0018021   0.0000024  -0.0000047  -0.9311384   0.3119213
0.7158284    -0.9990402  -0.0018368  -0.0002786   0.0018425   0.0000018  -0.0000044  -0.9310515   0.3121998
0.7246283    -0.9991184  -0.0017912  -0.0002779   0.0018492  -0.0000065  -0.0000022  -0.9308397   0.3124587
0.7335363    -0.9991346  -0.0018452  -0.0002981   0.0018710   0.0000072  -0.0000030  -0.9308036   0.3127722
0.7425539    -0.9991581  -0.0017719  -0.0002990   0.0018739  -0.0000014  -0.0000051  -0.9306783   0.3131388
0.7516822    -0.9990584  -0.0018638  -0.0002751   0.0019111  -0.0000061   0.0000039  -0.9304417   0.3133883
0.7609229    -0.9990373  -0.0018919  -0.0002720   0.0019239  -0.0000108  -0.0000073  -0.9302693   0.3136903
0.7702771    -0.9991858  -0.0018769  -0.0002990   0.0019340   0.0000060  -0.0000118  -0.9301103   0.3139566
0.7797463    -0.9991186  -0.0018470  -0.0002908   0.0019714  -0.0000053  -0.0000039  -0.9299867   0.3143409
0.7893319    -0.9991075  -0.0019384  -0.0002747   0.0020219  -0.0000011  -0.0000039  -0.9298566   0.3146606
0.7990353    -0.9991538  -0.0019660  -0.0002911   0.0020205   0.0000108   0.0000006  -0.9297423   0.3149845
0.8088580    -0.9990241  -0.0020028  -0.0002990   0.0020748  -0.0000011  -0.0000043  -0.9295781   0.3153214
0.8188015    -0.9991838  -0.0020157  -0.0002828   0.0020383  -0.0000041  -0.0000032  -0.9294537   0.3156519
0.8288673    -0.9991047  -0.0020114  -0.0002652   0.0021281  -0.0000032  -0.0000065  -0.9292674   0.3159989
0.8390567    -0.9990920  -0.0020942  -0.0002821   0.0021228   0.0000029  -0.0000167  -0.9291964   0.3163791
0.8493714    -0.9990856  -0.0020394  -0.0002828   0.0021617   0.0000081  -0.0000012  -0.9290133   0.3166715
0.8598130    -0.9991434  -0.0020382  -0.0003120   0.0021842   0.0000073  -0.0000083  -0.9288463   0.3170546
0.8703829    -0.9992105  -0.0021212  -0.0002781   0.0022200   0.0000037  -0.0000044  -0.9286617   0.3173866
0.8810827    -0.9991546  -0.0021625  -0.0002617   0.0022344  -0.0000029  -0.0000054  -0.9285109   0.3178376
0.8919140    -0.9991702  -0.0020749  -0.0002796   0.0022652   0.0000023  -0.0000108  -0.9283561   0.3181357
0.9028786    -0.9992032  -0.0021186  -0.0003061   0.0023009  -0.0000092   0.0000004  -0.9281942   0.3185210
0.9139779    -0.9992137  -0.0021406  -0.0003089   0.0023141  -0.0000026  -0.0000067  -0.9280326   0.3189216
0.9252136    -0.9991036  -0.0022505  -0.0002948   0.0023656  -0.0000001  -0.0000139  -0.9278553   0.3192816
0.9365875    -0.9991363  -0.0022412  -0.0003236   0.0023681  -0.0000034   0.0000006  -0.9276938   0.3196557
0.9481012    -0.9991096  -0.0021509  -0.0002945   0.0024266  -0.0000017  -0.0000055  -0.9275186   0.3200543
0.9597564    -0.9991884  -0.0022085  -0.0002705   0.0024288  -0.0000017  -0.0000023  -0.9273121   0.3204456
0.9715549    -0.9991325  -0.0022286  -0.0003199   0.0024874  -0.0000036  -0.0000012  -0.9271461   0.3208858
0.9834985    -0.9992245  -0.0022798  -0.0003131   0.0024888  -0.0000065  -0.0000013  -0.9270109   0.3212321
0.9955889    -0.9992089  -0.0021935  -0.0002871   0.0025309  -0.0000032  -0.0000050  -0.9268638   0.3216050
1.0078279    -0.9991539  -0.0024859  -0.0002791   0.0025704   0.0000107  -0.0000079  -0.9265545   0.3220619
1.0202173    -0.9992289  -0.0023418  -0.0002924   0.0025906   0.0000011  -0.0000053  -0.9264578   0.3224213
1.0327591    -0.9992044  -0.0024120  -0.0002989   0.0026429  -0.0000039  -0.0000004  -0.9262505   0.3229331
1.0454551    -0.9991378  -0.0024553  -0.0002852   0.0026621   0.0000008  -0.0000101  -0.9260666   0.3233381
1.0583071    -0.9992169  -0.0024774  -0.0002664   0.0026671  -0.0000013   0.0000049  -0.9258682   0.3237213
1.0713171    -0.9991046  -0.0024925  -0.0003006   0.0027330  -0.0000064   0.0000018  -0.9255917   0.3241481
1.0844871    -0.9991262  -0.0024145  -0.0002928   0.0027571  -0.0000048   0.0000027  -0.9254617   0.3245377
1.0978189    -0.9992541  -0.0025605  -0.0003127   0.0028003   0.0000007   0.0000068  -0.9252756   0.3250599
1.1113147    -0.9992245  -0.0025742  -0.0003013   0.0028255  -0.0000006  -0.0000055  -0.9250334   0.3254274
1.1249763    -0.9991696  -0.0026079  -0.0003036   0.0028870  -0.0000013  -0.0000018  -0.9248774   0.3259905
1.1388059    -0.9993200  -0.0025978  -0.0002975   0.0028903  -0.0000019  -0.0000060  -0.9247198   0.3264517
1.1528056    -0.9992073  -0.0026063  -0.0002972   0.0029582  -0.0000044  -0.0000036  -0.9244583   0.3268988
1.1669773    -0.9992233  -0.0026556  -0.0003058   0.0029800  -0.0000009  -0.0000082  -0.9242727   0.3273953
1.1813232    -0.9991802  -0.0027143  -0.0003021   0.0030307  -0.0000031  -0.0000048  -0.9240773   0.3278585
1.1958455    -0.9992333  -0.0027049  -0.0003105   0.0030607   0.0000009   0.0000004  -0.9238039   0.3283554
1.2105463    -0.9991513  -0.0027164  -0.0002957   0.0030999  -0.0000031  -0.0000085  -0.9236208   0.3288517
1.2254278    -0.9991644  -0.0027152  -0.0002993   0.0031174  -0.0000064   0.0000002  -0.9233540   0.3293477
1.2404923    -0.9992632  -0.0028641  -0.0002885   0.0031749   0.0000005  -0.0000006  -0.9232183   0.3298264
1.2557420    -0.9993680  -0.0027970  -0.0002999   0.0032133   0.0000060  -0.0000034  -0.9229541   0.3303611
1.2711791    -0.9994120  -0.0028967  -0.0003226   0.0032447   0.0000058   0.0000032  -0.9226769   0.3308420
1.2868060    -0.9993088  -0.0027427  -0.0003129   0.0032911  -0.0000086   0.0000018  -0.9224299   0.3313969
1.3026251    -0.9992414  -0.0029080  -0.0003228   0.0033178   0.0000010  -0.0000178  -0.9221532   0.3319239
1.3186385    -0.9992197  -0.0029366  -0.0002818   0.0033776  -0.0000032  -0.0000001  -0.9219294   0.3324706
1.3348489    -0.9992971  -0.0030227  -0.0003049   0.0034176  -0.0000022  -0.0000067  -0.9217568   0.3330027
1.3512585    -0.9992466  -0.0030759  -0.0002993   0.0034501  -0.0000067  -0.0000152  -0.9214508   0.3335168
1.3678698    -0.9993118  -0.0030153  -0.0002952   0.0034959  -0.0000091  -0.0000157  -0.9212825   0.3340755
1.3846854    -0.9993118  -0.0030715  -0.0002968   0.0035440   0.0000027  -0.0000135  -0.9210106   0.3347380
1.4017077    -0.9992347  -0.0031698  -0.0002878   0.0035904   0.0000041   0.0000045  -0.9207423   0.3352204
1.4189392    -0.9992864  -0.0031174  -0.0002968   0.0036236   0.0000006   0.0000001  -0.9205003   0.3357456
1.4363825    -0.9993130  -0.0031532  -0.0003106   0.0036739  -0.0000072  -0.0000012  -0.9202484   0.3363581
1.4540403    -0.9993150  -0.0031872  -0.0003078   0.0037134  -0.0000064  -0.0000011  -0.9199559   0.3369570
1.4719152    -0.9992411  -0.0031929  -0.0002915   0.0037843   0.0000078   0.0000075  -0.9197156   0.3376479
1.4900098    -0.9994049  -0.0032563  -0.0002988   0.0038189   0.0000059  -0.0000025  -0.9193985   0.3381595
1.5083269    -0.9993889  -0.0033138  -0.0003080   0.0038739  -0.0000053   0.0000013  -0.9191216   0.3387463
1.5268691    -0.9993156  -0.0034125  -0.0002908   0.0039223   0.0000075  -0.0000016  -0.9188447   0.3393919
1.5456392    -0.9993343  -0.0034475  -0.0002709   0.0039684  -0.0000034  -0.0000016  -0.9186352   0.3399954
1.5646402    -0.9993207  -0.0034553  -0.0003049   0.0040411   0.0000027  -0.0000022  -0.9183255   0.3407034
1.5838747    -0.9993845  -0.0034354  -0.0002840   0.0041037  -0.0000058   0.0000018  -0.9180071   0.3413056
1.6033456    -0.9993211  -0.0034397  -0.0002857   0.0041148  -0.0000038   0.0000005  -0.9178175   0.3419714
1.6230559    -0.9994413  -0.0034708  -0.0002856   0.0041878   0.0000040  -0.0000088  -0.9174998   0.3426997
1.6430085    -0.9993823  -0.0035916  -0.0002671   0.0042434  -0.0000092  -0.0000087  -0.9171685   0.3433497
1.6632064    -0.9993428  -0.0036033  -0.0002643   0.0043009  -0.0000108  -0.0000073  -0.9168588   0.3440620
1.6836526    -0.9992826  -0.0036561  -0.0002637   0.0043682   0.0000037  -0.0000099  -0.9166106   0.3447857
1.7043502    -0.9993750  -0.0037519  -0.0002576   0.0043863   0.0000002  -0.0000113  -0.9161800   0.3455200
1.7253021    -0.9993022  -0.0037188  -0.0002751   0.0044770  -0.0000079  -0.0000040  -0.9159925   0.3461715
1.7465117    -0.9992476  -0.0037254  -0.0002650   0.0045478   0.0000025  -0.0000055  -0.9157903   0.3469968
1.7679820    -0.9993560  -0.0037513  -0.0002458   0.0045877  -0.0000045   0.0000031  -0.9154066   0.3477171
1.7897162    -0.9992264  -0.0039032  -0.0002669   0.0046642  -0.0000016  -0.0000074  -0.9151174   0.3484560
1.8117176    -0.9993355  -0.0039491  -0.0002500   0.0047098  -0.0000088  -0.0000035  -0.9147761   0.3493066
1.8339895    -0.9993703  -0.0040056  -0.0002845   0.0047803  -0.0000118  -0.0000034  -0.9144893   0.3500739
1.8565352    -0.9993206  -0.0040858  -0.0002800   0.0048200  -0.0000061  -0.0000007  -0.9141587   0.3508992
1.8793580    -0.9993752  -0.0039840  -0.0002677   0.0048757   0.0000050  -0.0000067  -0.9138773   0.3516445
1.9024614    -0.9993814  -0.0040900  -0.0002719   0.0049235   0.0000034   0.0000019  -0.9136433   0.3524820
1.9258488    -0.9992819  -0.0041736  -0.0002804   0.0050131  -0.0000040  -0.0000066  -0.9132013   0.3533232
1.9495237    -0.9993748  -0.0042469  -0.0002738   0.0050437  -0.0000036  -0.0000086  -0.9128573   0.3542622
1.9734897    -0.9993782  -0.0042639  -0.0002692   0.0051084  -0.0000027  -0.0000027  -0.9124967   0.3551210
1.9977503    -0.9993398  -0.0041873  -0.0002753   0.0051690  -0.0000022  -0.0000100  -0.9121862   0.3560367
2.0223091    -0.9994818  -0.0042677  -0.0002544   0.0052325   0.0000036  -0.0000066  -0.9117146   0.3569520
2.0471698    -0.9994263  -0.0044215  -0.0002549   0.0053076   0.0000021  -0.0000058  -0.9112576   0.3578717
2.0723362    -0.9993487  -0.0043338  -0.0002725   0.0053441  -0.0000052  -0.0000109  -0.9108508   0.3587810
2.0978119    -0.9994303  -0.0044752  -0.0002599   0.0054013  -0.0000046  -0.0000081  -0.9103719   0.3597379
2.1236008    -0.9994023  -0.0046069  -0.0002422   0.0054989  -0.0000093  -0.0000004  -0.9098752   0.3606545
2.1497067    -0.9994756  -0.0046661  -0.0002501   0.0055457  -0.0000046  -0.0000022  -0.9093895   0.3616367
2.1761336    -0.9994727  -0.0046549  -0.0002410   0.0056239  -0.0000068  -0.0000094  -0.9089004   0.3624516
2.2028853    -0.9994739  -0.0046309  -0.0002574   0.0056615  -0.0000069  -0.0000036  -0.9082573   0.3634525
2.2299659    -0.9994828  -0.0047201  -0.0002500   0.0057294  -0.0000041  -0.0000103  -0.9079217   0.3643863
2.2573794    -0.9995139  -0.0047858  -0.0002408   0.0057953  -0.0000005   0.0000045  -0.9073349   0.3653268
2.2851299    -0.9995087  -0.0048343  -0.0002395   0.0058635  -0.0000203  -0.0000078  -0.9067572   0.3662666
2.3132216    -0.9995231  -0.0049447  -0.0002355   0.0059599  -0.0000061  -0.0000051  -0.9062437   0.3671181
2.3416586    -0.9994534  -0.0049473  -0.0002485   0.0060232   0.0000013  -0.0000147  -0.9056892   0.3680784
2.3704451    -0.9994860  -0.0049902  -0.0002462   0.0061029  -0.0000051  -0.0000091  -0.9051684   0.3691096
2.3995856    -0.9994336  -0.0051495  -0.0002342   0.0061798  -0.0000066  -0.0000082  -0.9045189   0.3700807
2.4290843    -0.9994992  -0.0050509  -0.0002714   0.0062566  -0.0000003  -0.0000136  -0.9041214   0.3709168
2.4589456    -0.9994774  -0.0052154  -0.0002215   0.0063065  -0.0000015  -0.0000055  -0.9035454   0.3719175
2.4891740    -0.9994524  -0.0052296  -0.0002331   0.0064003   0.0000065   0.0000046  -0.9030067   0.3729132
2.5197740    -0.9994186  -0.0053390  -0.0001951   0.0064891  -0.0000101  -0.0000049  -0.9025121   0.3739415
2.5507502    -0.9995259  -0.0053724  -0.0001987   0.0065306  -0.0000041   0.0000006  -0.9019500   0.3748543
2.5821072    -0.9995534  -0.0054315  -0.0001942   0.0066321   0.0000005  -0.0000009  -0.9013914   0.3758758
2.6138496    -0.9995795  -0.0055050  -0.0002064   0.0067434  -0.0000073  -0.0000027  -0.9007222   0.3768633
2.6459823    -0.9995034  -0.0055960  -0.0001932   0.0068179  -0.0000029   0.0000048  -0.9001987   0.3779199
2.6785100    -0.9995530  -0.0055235  -0.0001951   0.0068793  -0.0000082  -0.0000121  -0.8996597   0.3790409
2.7114376    -0.9995613  -0.0056511  -0.0001781   0.0069741  -0.0000063  -0.0000062  -0.8990225   0.3800620
2.7447699    -0.9995968  -0.0056682  -0.0002143   0.0070600   0.0000017  -0.0000063  -0.8984440   0.3810689
2.7785120    -0.9996233  -0.0058364  -0.0001860   0.0071451  -0.0000026  -0.0000068  -0.8978285   0.3821643
2.8126689    -0.9995203  -0.0058580  -0.0001926   0.0072356  -0.0000122   0.0000035  -0.8973122   0.3833147
2.8472457    -0.9995377  -0.0059854  -0.0001714   0.0073125  -0.0000035  -0.0000070  -0.8967607   0.3844286
2.8822476    -0.9995355  -0.0060627  -0.0001559   0.0074169   0.0000060   0.0000022  -0.8961782   0.3855124
2.9176798    -0.9995957  -0.0062180  -0.0001827   0.0074899  -0.0000007  -0.0000141  -0.8955195   0.3866086
2.9535475    -0.9995352  -0.0062038  -0.0001758   0.0075850  -0.0000058  -0.0000054  -0.8949483   0.3878070
2.9898562    -0.9996419  -0.0062932  -0.0001624   0.0076803  -0.0000028  -0.0000049  -0.8942470   0.3890268
3.0266112    -0.9995268  -0.0063043  -0.0001682   0.0077761  -0.0000014  -0.0000102  -0.8936296   0.3901293
3.0638180    -0.9995369  -0.0064060  -0.0001503   0.0078421  -0.0000027  -0.0000106  -0.8929854   0.3913348
3.1014823    -0.9995780  -0.0064530  -0.0001596   0.0079650   0.0000122   0.0000001  -0.8923790   0.3926033
3.1396096    -0.9995658  -0.0064914  -0.0001543   0.0080737   0.0000007  -0.0000151  -0.8916534   0.3937399
3.1782055    -0.9994735  -0.0065723  -0.0001490   0.0081404  -0.0000052  -0.0000060  -0.8910269   0.3950064
3.2172760    -0.9996037  -0.0066956  -0.0001445   0.0082274  -0.0000021  -0.0000025  -0.8903442   0.3962763
3.2568267    -0.9996390  -0.0067215  -0.0001581   0.0083278   0.0000000   0.0000010  -0.8897056   0.3975141
3.2968637    -0.9996104  -0.0068628  -0.0001364   0.0084394   0.0000079  -0.0000071  -0.8889123   0.3988380
3.3373928    -0.9995354  -0.0069287  -0.0001195   0.0085507  -0.0000055  -0.0000043  -0.8882090   0.4000991
3.3784202    -0.9996303  -0.0071181  -0.0001476   0.0086403   0.0000017  -0.0000115  -0.8874257   0.4014749
3.4199519    -0.9996769  -0.0070783  -0.0001282   0.0087426  -0.0000018  -0.0000072  -0.8867184   0.4027799
3.4619942    -0.9996429  -0.0072416  -0.0001204   0.0088555   0.0000094  -0.0000015  -0.8859021   0.4040620
3.5045533    -0.9996410  -0.0071494  -0.0000865   0.0089876  -0.0000130  -0.0000043  -0.8851955   0.4055343
3.5476356    -0.9996589  -0.0073866  -0.0001223   0.0090773  -0.0000032  -0.0000072  -0.8844131   0.4068135
3.5912475    -0.9996939  -0.0073782  -0.0001122   0.0091933   0.0000050  -0.0000068  -0.8835820   0.4081858
3.6353956    -0.9996391  -0.0075148  -0.0001270   0.0092935  -0.0000033   0.0000033  -0.8828196   0.4096963
3.6800864    -0.9996295  -0.0075681  -0.0001082   0.0094121  -0.0000019  -0.0000012  -0.8820544   0.4111741
3.7253266    -0.9997108  -0.0077519  -0.0001253   0.0095327  -0.0000012   0.0000029  -0.8812237   0.4125975
3.7711229    -0.9997083  -0.0077254  -0.0000968   0.0096233   0.0000036  -0.0000073  -0.8804596   0.4140384
3.8174822    -0.9996419  -0.0077758  -0.0000967   0.0097553   0.0000054  -0.0000037  -0.8795996   0.4154965
3.8644115    -0.9997678  -0.0079507  -0.0000996   0.0098573  -0.0000027  -0.0000005  -0.8788628   0.4170898
3.9119176    -0.9996277  -0.0080307  -0.0000785   0.0099977   0.0000050  -0.0000047  -0.8780034   0.4186069
3.9600077    -0.9997057  -0.0081525  -0.0000886   0.0101070  -0.0000003  -0.0000106  -0.8772529   0.4201030
4.0086890    -0.9996631  -0.0081932  -0.0000611   0.0102397  -0.0000001  -0.0000011  -0.8762245   0.4216955
4.0579688    -0.9997445  -0.0083087  -0.0000735   0.0103457   0.0000105  -0.0000087  -0.8753939   0.4232443
4.1078544    -0.9995797  -0.0084655  -0.0000560   0.0104835   0.0000009  -0.0000062  -0.8745147   0.4247613
4.1583532    -0.9995906  -0.0084745  -0.0000525   0.0105966  -0.0000076  -0.0000134  -0.8735491   0.4263804
4.2094729    -0.9997002  -0.0085754  -0.0000563   0.0107448  -0.0000130  -0.0000085  -0.8727399   0.4279787
4.2612209    -0.9996697  -0.0086147  -0.0000679   0.0108514   0.0000049  -0.0000003  -0.8717528   0.4295703
4.3136051    -0.9997678  -0.0087780  -0.0000396   0.0110244   0.0000094  -0.0000038  -0.8707551   0.4312195
4.3666333    -0.9996437  -0.0088850  -0.0000535   0.0111089  -0.0000042  -0.0000094  -0.8698497   0.4329018
4.4203134    -0.9997706  -0.0091457  -0.0000536   0.0112544  -0.0000094  -0.0000055  -0.8687537   0.4345216
4.4746534    -0.9997565  -0.0092129  -0.0000126   0.0113981  -0.0000100  -0.0000040  -0.8676684   0.4362446
4.5296613    -0.9998060  -0.0091803  -0.0000206   0.0115202  -0.0000140  -0.0000062  -0.8666960   0.4379928
4.5853455    -0.9997570  -0.0093246  -0.0000246   0.0116746   0.0000126  -0.0000056  -0.8655878   0.4397037
4.6417143    -0.9997822  -0.0095378  -0.0000067   0.0118203   0.0000038  -0.0000010  -0.8644354   0.4412928
4.6987760    -0.9997875  -0.0095567  -0.0000091   0.0119502  -0.0000146  -0.0000077  -0.8633619   0.4429503
4.7565392    -0.9996485  -0.0096120   0.0000114   0.0120898  -0.0000048  -0.0000118  -0.8622112   0.4446939
4.8150125    -0.9997761  -0.0097818   0.0000001   0.0122342   0.0000012  -0.0000054  -0.8610678   0.4463435
4.8742045    -0.9997617  -0.0098762   0.0000112   0.0123973   0.0000013  -0.0000100  -0.8598778   0.4479819
4.9341243    -0.9998307  -0.0100117  -0.0000008   0.0125494  -0.0000079  -0.0000109  -0.8588102   0.4494953
4.9947807    -0.9997778  -0.0101750   0.0000194   0.0127094  -0.0000006  -0.0000013  -0.8578174   0.4510817
5.0561827    -0.9998207  -0.0102726   0.0000199   0.0128284  -0.0000007  -0.0000055  -0.8568059   0.4527803
5.1183396    -0.9998561  -0.0103576   0.0000401   0.0129939   0.0000014  -0.0000067  -0.8558557   0.4544847
5.1812606    -0.9997284  -0.0105489   0.0000453   0.0131533   0.0000041   0.0000007  -0.8549632   0.4562606
5.2449550    -0.9997657  -0.0105412   0.0000379   0.0133084  -0.0000038  -0.0000165  -0.8540537   0.4582926
5.3094325    -0.9997839  -0.0106563   0.0000665   0.0134810  -0.0000002  -0.0000129  -0.8530595   0.4601084
5.3747026    -0.9998466  -0.0109008   0.0000513   0.0136484  -0.0000032  -0.0000010  -0.8520304   0.4623129
5.4407751    -0.9998337  -0.0110431   0.0000796   0.0138090   0.0000050  -0.0000045  -0.8508710   0.4642557
5.5076599    -0.9997914  -0.0111454   0.0000654   0.0139659  -0.0000117  -0.0000096  -0.8497691   0.4663224
5.5753669    -0.9998821  -0.0111926   0.0000737   0.0141490   0.0000046  -0.0000046  -0.8485973   0.4684798
5.6439062    -0.9998060  -0.0114908   0.0000853   0.0142924   0.0000020  -0.0000020  -0.8474325   0.4705647
5.7132881    -0.9997195  -0.0115526   0.0001112   0.0144459  -0.0000053  -0.0000021  -0.8461542   0.4727491
5.7835229    -0.9999444  -0.0116970   0.0000888   0.0146374   0.0000120  -0.0000015  -0.8448744   0.4749231
5.8546211    -0.9998792  -0.0118066   0.0001000   0.0148211   0.0000019  -0.0000059  -0.8436650   0.4771559
5.9265934    -0.9998850  -0.0119406   0.0001223   0.0150095   0.0000031  -0.0000032  -0.8422969   0.4793258
5.9994504    -0.9998317  -0.0121232   0.0001240   0.0151732  -0.0000047  -0.0000054  -0.8409209   0.4814409
6.0732031    -0.9999051  -0.0123462   0.0001296   0.0153781  -0.0000113  -0.0000100  -0.8395623   0.4836481
6.1478624    -0.9998222  -0.0124020   0.0001407   0.0155654   0.0000063  -0.0000045  -0.8381859   0.4858738
6.2234396    -0.9998362  -0.0124769   0.0001299   0.0157585  -0.0000013  -0.0000036  -0.8366054   0.4881844
6.2999458    -0.9999336  -0.0125104   0.0001617   0.0159481  -0.0000015  -0.0000074  -0.8352632   0.4904485
6.3773925    -0.9999018  -0.0127853   0.0001620   0.0161382  -0.0000065  -0.0000109  -0.8337530   0.4927246
6.4557914    -1.0000344  -0.0130041   0.0001718   0.0163337   0.0000019  -0.0000044  -0.8322471   0.4949631
6.5351539    -1.0000427  -0.0130707   0.0001963   0.0165424  -0.0000016   0.0000001  -0.8307492   0.4973691
6.6154922    -0.9999715  -0.0132478   0.0001996   0.0167145   0.0000017  -0.0000067  -0.8291662   0.4997310
6.6968180    -0.9999331  -0.0134199   0.0001996   0.0169472  -0.0000013  -0.0000054  -0.8275994   0.5021189
6.7791436    -0.9998379  -0.0135881   0.0002083   0.0171450  -0.0000036  -0.0000061  -0.8260330   0.5044637
6.8624812    -0.9999690  -0.0137597   0.0002137   0.0173413  -0.0000017  -0.0000108  -0.8244187   0.5069328
6.9468433    -0.9999345  -0.0138752   0.0002305   0.0175704  -0.0000075   0.0000006  -0.8228260   0.5093485
7.0322425    -0.9998855  -0.0140596   0.0002268   0.0177784  -0.0000001  -0.0000017  -0.8211146   0.5118158
7.1186916    -0.9999176  -0.0142848   0.0002433   0.0180042   0.0000055  -0.0000068  -0.8194095   0.5143454
7.2062034    -0.9998856  -0.0143647   0.0002710   0.0182199  -0.0000054  -0.0000028  -0.8176992   0.5169044
7.2947909    -0.9999056  -0.0145070   0.0002654   0.0184370  -0.0000060  -0.0000003  -0.8159561   0.5194736
7.3844675    -0.9999853  -0.0147584   0.0002729   0.0186588  -0.0000109  -0.0000018  -0.8142863   0.5220747
7.4752466    -0.9999005  -0.0149224   0.0002918   0.0188845   0.0000062  -0.0000064  -0.8124937   0.5246904
7.5671416    -0.9999466  -0.0151391   0.0003001   0.0191048  -0.0000101   0.0000033  -0.8107805   0.5273408
7.6601662    -0.9999639  -0.0151933   0.0003035   0.0193183  -0.0000032  -0.0000058  -0.8089321   0.5300260
7.7543345    -1.0000236  -0.0154953   0.0003119   0.0195335  -0.0000011  -0.0000027  -0.8070409   0.5328550
7.8496604    -0.9999843  -0.0156082   0.0003405   0.0197871  -0.0000081  -0.0000079  -0.8052010   0.5356596
7.9461581    -1.0000188  -0.0158432   0.0003461   0.0200337  -0.0000041  -0.0000001  -0.8031845   0.5385086
8.0438422    -1.0000584  -0.0159346   0.0003387   0.0202553  -0.0000019   0.0000034  -0.8012046   0.5413537
8.1427270    -0.9999798  -0.0162263   0.0003675   0.0205297   0.0000042   0.0000010  -0.7990345   0.5443276
8.2428275    -1.0000483  -0.0163549   0.0003865   0.0207697   0.0000016   0.0000028  -0.7968067   0.5471867
8.3441586    -0.9999871  -0.0166700   0.0003970   0.0210174  -0.0000017   0.0000017  -0.7946318   0.5499687
8.4467353    -1.0001345  -0.0167109   0.0004093   0.0212711   0.0000085  -0.0000037  -0.7923743   0.5529673
8.5505731    -1.0000928  -0.0169414   0.0004373   0.0215506   0.0000036  -0.0000037  -0.7900742   0.5557386
8.6556873    -1.0000142  -0.0172394   0.0004472   0.0217923   0.0000022  -0.0000069  -0.7877981   0.5586649
8.7620937    -1.0000953  -0.0173808   0.0004449   0.0220592  -0.0000146  -0.0000022  -0.7855033   0.5615264
8.8698082    -1.0000726  -0.0175979   0.0004682   0.0223265   0.0000006  -0.0000076  -0.7831491   0.5644380
8.9788469    -1.0001083  -0.0177689   0.0004925   0.0226199   0.0000057  -0.0000060  -0.7808526   0.5673655
9.0892260    -1.0000917  -0.0179920   0.0004886   0.0228724  -0.0000017  -0.0000065  -0.7784899   0.5703176
9.2009621    -1.0000701  -0.0182177   0.0005213   0.0231213  -0.0000012  -0.0000011  -0.7759998   0.5733714
9.3140717    -1.0000470  -0.0184975   0.0005203   0.0234128   0.0000038   0.0000058  -0.7735743   0.5763568
9.4285718    -1.0000786  -0.0186764   0.0005169   0.0236980  -0.0000053  -0.0000121  -0.7711036   0.5794398
9.5444795    -1.0001221  -0.0188638   0.0005593   0.0239682  -0.0000082   0.0000062  -0.7685506   0.5825374
9.6618121    -1.0001633  -0.0191117   0.0005821   0.0242765   0.0000018  -0.0000043  -0.7660223   0.5856292
9.7805870    -1.0001189  -0.0192376   0.0005805   0.0245581   0.0000009   0.0000032  -0.7634060   0.5888029
9.9008221    -1.0000826  -0.0195336   0.0006068   0.0248545   0.0000039  -0.0000012  -0.7607542   0.5920226
10.0225353   -1.0001574  -0.0197695   0.0006187   0.0251503  -0.0000049  -0.0000083  -0.7581033   0.5951324
10.1457447   -1.0001457  -0.0201692   0.0006383   0.0254612  -0.0000039  -0.0000058  -0.7553612   0.5984296
10.2704688   -1.0001985  -0.0202493   0.0006349   0.0257604  -0.0000041  -0.0000085  -0.7526769   0.6017045
10.3967261   -1.0001346  -0.0205509   0.0006695   0.0260822  -0.0000061  -0.0000066  -0.7498397   0.6050384
10.5245356   -1.0001319  -0.0207581   0.0007245   0.0263986  -0.0000079  -0.0000076  -0.7469667   0.6082174
10.6539162   -1.0001165  -0.0209581   0.0007218   0.0267228   0.0000029   0.0000029  -0.7440703   0.6115378
10.7848873   -1.0002192  -0.0212534   0.0007474   0.0270438   0.0000005  -0.0000063  -0.7411368   0.6149778
10.9174685   -1.0002709  -0.0214773   0.0007646   0.0273809  -0.0000070  -0.0000035  -0.7381281   0.6183689
11.0516796   -1.0002507  -0.0216677   0.0007781   0.0277309  -0.0000045   0.0000037  -0.7349763   0.6217995
11.1875405   -1.0002514  -0.0220012   0.0007890   0.0280399   0.0000009  -0.0000076  -0.7319551   0.6253218
11.3250716   -1.0002299  -0.0222910   0.0008252   0.0283743  -0.0000013  -0.0000002  -0.7288001   0.6287838
11.4642934   -1.0001859  -0.0226408   0.0008479   0.0287244  -0.0000070  -0.0000020  -0.7255736   0.6322627
11.6052267   -1.0001351  -0.0227848   0.0008649   0.0290598  -0.0000104  -0.0000051  -0.7223402   0.6358978
11.7478926   -1.0002030  -0.0230898   0.0008800   0.0294186  -0.0000036   0.0000009  -0.7190147   0.6394037
11.8923122   -1.0001558  -0.0233904   0.0009112   0.0297796   0.0000007   0.0000002  -0.7156511   0.6429700
12.0385073   -1.0002256  -0.0237385   0.0009190   0.0301178  -0.0000075  -0.0000003  -0.7121713   0.6466395
12.1864995   -1.0002379  -0.0238893   0.0009597   0.0304940  -0.0000044  -0.0000095  -0.7086981   0.6502674
12.3363111   -1.0002467  -0.0241080   0.0009821   0.0308273  -0.0000098  -0.0000015  -0.7052440   0.6539590
12.4879643   -1.0002725  -0.0245171   0.0010023   0.0312003  -0.0000047  -0.0000026  -0.7015574   0.6576797
12.6414818   -1.0002252  -0.0247119   0.0010220   0.0316361   0.0000050  -0.0000068  -0.6978449   0.6613944
12.7968866   -1.0003294  -0.0251351   0.0010760   0.0319908   0.0000019  -0.0000131  -0.6941116   0.6651428
12.9542018   -1.0002540  -0.0253174   0.0010765   0.0323609   0.0000027   0.0000004  -0.6903715   0.6689079
13.1134509   -1.0002770  -0.0256175   0.0010811   0.0327641  -0.0000100  -0.0000035  -0.6864955   0.6727020
13.2746577   -1.0002981  -0.0259260   0.0011358   0.0331431  -0.0000033  -0.0000037  -0.6825288   0.6765492
13.4378462   -1.0001846  -0.0261974   0.0011789   0.0335474   0.0000116  -0.0000093  -0.6785797   0.6805044
13.6030409   -1.0002985  -0.0265672   0.0011806   0.0339399   0.0000024  -0.0000091  -0.6744924   0.6843455
13.7702663   -1.0003147  -0.0269137   0.0012064   0.0343532  -0.0000078   0.0000053  -0.6703140   0.6882447
13.9395475   -1.0002668  -0.0272685   0.0012494   0.0347685  -0.0000009  -0.0000010  -0.6661352   0.6921232
14.1109097   -1.0001721  -0.0276381   0.0012779   0.0351870  -0.0000038  -0.0000051  -0.6618006   0.6961022
14.2843785   -1.0003303  -0.0278629   0.0013136   0.0356275   0.0000052   0.0000030  -0.6574447   0.7000021
14.4599797   -1.0003403  -0.0283116   0.0013230   0.0360543   0.0000036  -0.0000067  -0.6530176   0.7040575
14.6377397   -1.0003983  -0.0285263   0.0013645   0.0364838  -0.0000093  -0.0000076  -0.6485291   0.7080584
14.8176850   -1.0003214  -0.0289035   0.0014025   0.0369332  -0.0000131   0.0000027  -0.6439510   0.7120446
14.9998423   -1.0003032  -0.0292423   0.0014249   0.0373586  -0.0000022  -0.0000131  -0.6392536   0.7161155
15.1842390   -1.0004024  -0.0295757   0.0014386   0.0378225  -0.0000130   0.0000049  -0.6344815   0.7202062
15.3709024   -1.0003184  -0.0300005   0.0014801   0.0382639  -0.0000048   0.0000017  -0.6297241   0.7242485
15.5598606   -1.0003720  -0.0302862   0.0015251   0.0387301  -0.0000054  -0.0000108  -0.6248621   0.7283607
15.7511417   -1.0003701  -0.0307411   0.0015597   0.0391814   0.0000019  -0.0000063  -0.6198680   0.7325479
15.9447743   -1.0003545  -0.0309777   0.0015979   0.0396569   0.0000020  -0.0000005  -0.6148227   0.7366409
16.1407872   -1.0003180  -0.0313244   0.0016430   0.0401407  -0.0000153  -0.0000110  -0.6095775   0.7408179
16.3392097   -1.0003240  -0.0317014   0.0016788   0.0406098  -0.0000056   0.0000011  -0.6043237   0.7450111
16.5400716   -1.0003045  -0.0321169   0.0017243   0.0411013  -0.0000077   0.0000002  -0.5990279   0.7492048
16.7434026   -1.0003799  -0.0324613   0.0017630   0.0415897  -0.0000112  -0.0000024  -0.5935454   0.7533613
16.9492333   -1.0004320  -0.0328556   0.0017945   0.0420903   0.0000049   0.0000022  -0.5880423   0.7577115
17.1575942   -1.0003843  -0.0332527   0.0018580   0.0425918  -0.0000039   0.0000064  -0.5824226   0.7618352
17.3685166   -1.0003592  -0.0337232   0.0018917   0.0430904  -0.0000002   0.0000013  -0.5767305   0.7661086
17.5820320   -1.0003967  -0.0340685   0.0019082   0.0436183  -0.0000036  -0.0000010  -0.5708657   0.7702965
17.7981721   -1.0003763  -0.0344545   0.0019524   0.0441394  -0.0000008  -0.0000063  -0.5649477   0.7746078
18.0169693   -1.0004316  -0.0349996   0.0019883   0.0446769  -0.0000148   0.0000015  -0.5589829   0.7788677
18.2384562   -1.0002980  -0.0352584   0.0020250   0.0452330  -0.0000088  -0.0000066  -0.5528978   0.7832294
18.4626659   -1.0003878  -0.0356861   0.0020873   0.0457793   0.0000017  -0.0000043  -0.5466180   0.7874117
18.6896319   -1.0004321  -0.0361569   0.0021085   0.0463313  -0.0000066   0.0000047  -0.5403799   0.7916946
18.9193880   -1.0003777  -0.0365827   0.0021839   0.0469250  -0.0000040  -0.0000020  -0.5338648   0.7960754
19.1519686   -1.0004287  -0.0370122   0.0022064   0.0474531   0.0000009  -0.0000067  -0.5272533   0.8003731
19.3874083   -1.0003325  -0.0375022   0.0022804   0.0480313  -0.0000090  -0.0000072  -0.5205907   0.8046701
19.6257423   -1.0003888  -0.0380177   0.0023123   0.0485972  -0.0000034  -0.0000054  -0.5139282   0.8090026
19.8670063   -1.0004067  -0.0384494   0.0023764   0.0492142  -0.0000003  -0.0000053  -0.5070653   0.8132444
20.1112361   -1.0003200  -0.0388386   0.0024314   0.0498080   0.0000014   0.0000039  -0.5000667   0.8175503
20.3584684   -1.0003570  -0.0394001   0.0024834   0.0503803  -0.0000109  -0.0000031  -0.4928451   0.8218131
20.6087399   -1.0004124  -0.0397763   0.0025166   0.0509931   0.0000064  -0.0000074  -0.4856078   0.8260492
20.8620881   -1.0003217  -0.0402537   0.0025967   0.0515777  -0.0000070   0.0000015  -0.4781752   0.8303917
21.1185507   -1.0004273  -0.0408810   0.0026477   0.0521878  -0.0000055   0.0000029  -0.4706816   0.8346281
21.3781661   -1.0003764  -0.0412527   0.0027028   0.0528688  -0.0000035  -0.0000010  -0.4630449   0.8387695
21.6409730   -1.0004184  -0.0417796   0.0027527   0.0534895  -0.0000039  -0.0000078  -0.4552968   0.8429882
21.9070107   -1.0004091  -0.0421408   0.0028347   0.0541479  -0.0000070   0.0000040  -0.4474480   0.8472129
22.1763188   -1.0004126  -0.0428053   0.0028839   0.0547972  -0.0000040   0.0000040  -0.4393970   0.8514093
22.4489376   -1.0004625  -0.0432104   0.0029420   0.0554622  -0.0000043  -0.0000038  -0.4312338   0.8556008
22.7249077   -1.0003441  -0.0437236   0.0030052   0.0561338  -0.0000006  -0.0000028  -0.4229033   0.8597198
23.0042705   -1.0003972  -0.0442247   0.0030694   0.0567557  -0.0000025   0.0000032  -0.4144679   0.8638397
23.2870675   -1.0004125  -0.0448205   0.0031181   0.0574808  -0.0000063   0.0000051  -0.4059703   0.8679089
23.5733409   -1.0003362  -0.0454091   0.0032186   0.0581428  -0.0000101  -0.0000119  -0.3971808   0.8719871
23.8631337   -1.0003380  -0.0459489   0.0032631   0.0588386  -0.0000095   0.0000009  -0.3882574   0.8759217
24.1564889   -1.0003307  -0.0463590   0.0033515   0.0595294  -0.0000145   0.0000020  -0.3793041   0.8799030
24.4534504   -1.0003684  -0.0470147   0.0034057   0.0602453  -0.0000039  -0.0000033  -0.3701540   0.8837846
24.7540625   -1.0003571  -0.0475259   0.0034846   0.0610057  -0.0000011  -0.0000056  -0.3608652   0.8877116
25.0583701   -1.0004485  -0.0482070   0.0035539   0.0617480   0.0000015  -0.0000007  -0.3513553   0.8915770
25.3664186   -1.0004263  -0.0487119   0.0036316   0.0625308  -0.0000058  -0.0000061  -0.3416299   0.8953736
25.6782541   -1.0003445  -0.0492946   0.0036803   0.0632428   0.0000039  -0.0000031  -0.3318719   0.8991532
25.9939230   -1.0002814  -0.0498159   0.0037744   0.0640080  -0.0000041  -0.0000050  -0.3219447   0.9027781
26.3134725   -1.0002852  -0.0505408   0.0038462   0.0647958   0.0000036  -0.0000035  -0.3118192   0.9063520
26.6369503   -1.0003214  -0.0510718   0.0039240   0.0655528  -0.0000030  -0.0000139  -0.3015927   0.9099376
26.9644047   -1.0003335  -0.0515751   0.0040086   0.0663589   0.0000019   0.0000037  -0.2911556   0.9134289
27.2958846   -1.0003477  -0.0523140   0.0041055   0.0671476  -0.0000076   0.0000021  -0.2805167   0.9167797
27.6314394   -1.0004073  -0.0529327   0.0041747   0.0680029  -0.0000017  -0.0000051  -0.2698048   0.9201340
27.9711193   -1.0002830  -0.0535865   0.0043133   0.0688128   0.0000071  -0.0000031  -0.2588429   0.9232956
28.3149750   -1.0002311  -0.0541261   0.0043940   0.0696340   0.0000039  -0.0000051  -0.2477763   0.9264440
28.6630578   -1.0002013  -0.0548409   0.0045308   0.0704780  -0.0000087  -0.0000003  -0.2365017   0.9294491
29.0154196   -1.0002521  -0.0555339   0.0046578   0.0713293  -0.0000064  -0.0000030  -0.2250419   0.9323611
29.3721131   -1.0002491  -0.0561274   0.0047212   0.0721587   0.0000014  -0.0000039  -0.2134533   0.9351741
29.7331915   -1.0002875  -0.0567805   0.0048387   0.0730065  -0.0000054  -0.0000036  -0.2016027   0.9379710
30.0987087   -1.0003399  -0.0575261   0.0049217   0.0738570  -0.0000033   0.0000123  -0.1897006   0.9405994
30.4687194   -1.0002917  -0.0581638   0.0049960   0.0747601  -0.0000021  -0.0000058  -0.1775500   0.9431766
30.8432786   -1.0002655  -0.0588736   0.0051179   0.0756859  -0.0000102   0.0000030  -0.1652043   0.9454509
31.2224424   -1.0002079  -0.0594806   0.0052176   0.0766043   0.0000061   0.0000027  -0.1527992   0.9476807
31.6062674   -1.0001167  -0.0603408   0.0053821   0.0775008  -0.0000091  -0.0000072  -0.1400337   0.9498177
31.9948108   -1.0002334  -0.0610167   0.0054683   0.0784251   0.0000000   0.0000043  -0.1271896   0.9518871
32.3881306   -1.0001830  -0.0617754   0.0055853   0.0793217  -0.0000007  -0.0000042  -0.1141830   0.9537462
32.7862857   -1.0001326  -0.0624813   0.0056673   0.0803187  -0.0000070  -0.0000062  -0.1009629   0.9553778
33.1893353   -1.0001367  -0.0632959   0.0057787   0.0812721  -0.0000018  -0.0000006  -0.0875903   0.9570247
33.5973398   -1.0000749  -0.0639569   0.0058782   0.0822679   0.0000037  -0.0000116  -0.0740442   0.9583378
34.0103599   -1.0001646  -0.0646511   0.0059445   0.0832517  -0.0000011   0.0000036  -0.0602129   0.9594876
34.4284574   -0.9999602  -0.0654228   0.0058586   0.0844539  -0.0000075  -0.0000028  -0.0465159   0.9606917
34.8516946   -1.0000715  -0.0662817   0.0061143   0.0855696  -0.0000053   0.0000028  -0.0322434   0.9616950
35.2801349   -0.9999930  -0.0670751   0.0064339   0.0866451  -0.0000032  -0.0000036  -0.0177784   0.9624635
35.7138420   -1.0000042  -0.0679262   0.0066236   0.0875796  -0.0000069  -0.0000060  -0.0032039   0.9628964
36.1528808   -0.9999331  -0.0687525   0.0067665   0.0886967  -0.0000086  -0.0000063   0.0115347   0.9632563
36.5973168   -0.9999096  -0.0695756   0.0069840   0.0897464   0.0000000  -0.0000055   0.0264333   0.9633738
37.0472164   -0.9998700  -0.0704413   0.0070501   0.0908532  -0.0000010  -0.0000025   0.0415912   0.9631242
37.5026467   -0.9998808  -0.0712010   0.0073315   0.0920277   0.0000005  -0.0000051   0.0569194   0.9628974
37.9636757   -0.9998727  -0.0721715   0.0076670   0.0928359  -0.0000025  -0.0000048   0.0726387   0.9619464
38.4303722   -0.9998265  -0.0730015   0.0077441   0.0940314   0.0000012  -0.0000023   0.0881824   0.9611452
38.9028060   -0.9997376  -0.0738728   0.0078888   0.0951143   0.0000032   0.0000041   0.1040381   0.9599848
39.3810475   -0.9997235  -0.0746965   0.0080640   0.0962779  -0.0000019   0.0000034   0.1201362   0.9586652
39.8651681   -0.9996740  -0.0755702   0.0082595   0.0974429  -0.0000008   0.0000047   0.1362896   0.9569852
40.3552402   -0.9997090  -0.0764516   0.0084448   0.0985664   0.0000052   0.0000025   0.1527017   0.9550329
40.8513368   -0.9995755  -0.0772886   0.0086277   0.0997765  -0.0000009  -0.0000083   0.1693457   0.9526915
41.3535320   -0.9996251  -0.0783616   0.0088054   0.1009274  -0.0000069  -0.0000035   0.1860114   0.9501695
41.8619009   -0.9995470  -0.0792518   0.0090003   0.1021334  -0.0000012   0.0000013   0.2030277   0.9472720
42.3765193   -0.9994916  -0.0801937   0.0092347   0.1033338   0.0000010  -0.0000008   0.2201222   0.9440599
42.8974639   -0.9995340  -0.0810878   0.0094621   0.1045117  -0.0000026   0.0000052   0.2373514   0.9404513
43.4248127   -0.9994403  -0.0822250   0.0096569   0.1058035   0.0000010  -0.0000060   0.2547651   0.9366341
43.9586443   -0.9993178  -0.0831508   0.0098309   0.1070855   0.0000045  -0.0000092   0.2723270   0.9323410
44.4990385   -0.9993665  -0.0840481   0.0100463   0.1083673  -0.0000060   0.0000010   0.2900678   0.9276746
45.0460758   -0.9992312  -0.0850710   0.0102660   0.1096832   0.0000030   0.0000042   0.3079234   0.9226692
45.5998380   -0.9991288  -0.0860655   0.0104208   0.1109265  -0.0000014  -0.0000026   0.3258964   0.9172927
46.1604077   -0.9991515  -0.0871824   0.0106095   0.1122209  -0.0000057  -0.0000096   0.3439905   0.9114112
46.7278686   -0.9991411  -0.0881676   0.0108250   0.1135863  -0.0000078  -0.0000061   0.3622095   0.9051561
47.3023055   -0.9990805  -0.0892742   0.0109852   0.1149382  -0.0000035   0.0000063   0.3805383   0.8984954
47.8838040   -0.9990123  -0.0902400   0.0111478   0.1164147   0.0000035  -0.0000116   0.3990787   0.8913030
48.4724511   -0.9989355  -0.0913861   0.0114337   0.1179273  -0.0000043   0.0000037   0.4175483   0.8837820
49.0683345   -0.9989870  -0.0923759   0.0117258   0.1194486  -0.0000065   0.0000016   0.4362200   0.8757527
49.6715433   -0.9988580  -0.0935592   0.0120491   0.1208891  -0.0000056  -0.0000091   0.4548566   0.8672616
50.2821675   -0.9987636  -0.0947113   0.0123232   0.1222729  -0.0000049  -0.0000026   0.4737366   0.8581977
50.9002982   -0.9986343  -0.0958269   0.0126982   0.1237935  -0.0000001  -0.0000023   0.4925113   0.8486204
51.5260277   -0.9986476  -0.0968898   0.0129830   0.1252151   0.0000016  -0.0000145   0.5114078   0.8386844
52.1594495   -0.9985454  -0.0981564   0.0132622   0.1267535   0.0000007  -0.0000111   0.5302185   0.8281260
52.8006581   -0.9984122  -0.0992225   0.0135328   0.1281850   0.0000019  -0.0000070   0.5491565   0.8169084
53.4497492   -0.9983264  -0.1005315   0.0137623   0.1296398   0.0000038  -0.0000035   0.5682259   0.8053365
54.1068198   -0.9982087  -0.1016760   0.0140542   0.1313466   0.0000014  -0.0000070   0.5870810   0.7931806
54.7719678   -0.9982501  -0.1028718   0.0144679   0.1330478  -0.0000080  -0.0000108   0.6059003   0.7804755
55.4452927   -0.9980737  -0.1039597   0.0147753   0.1346234  -0.0000031   0.0000036   0.6248029   0.7668483
56.1268950   -0.9980731  -0.1053686   0.0150709   0.1361961  -0.0000012  -0.0000006   0.6436129   0.7528409
56.8168763   -0.9979367  -0.1066253   0.0154156   0.1378251  -0.0000113  -0.0000002   0.6623330   0.7382715
57.5153398   -0.9978203  -0.1078712   0.0158081   0.1394382  -0.0000006  -0.0000099   0.6809259   0.7230836
58.2223896   -0.9976289  -0.1091129   0.0160615   0.1410535   0.0000062  -0.0000063   0.6993919   0.7071741
58.9381314   -0.9976060  -0.1104579   0.0164631   0.1427880   0.0000077  -0.0000018   0.7177304   0.6906869
59.6626719   -0.9975556  -0.1117639   0.0167216   0.1443996   0.0000018  -0.0000044   0.7358872   0.6734457
60.3961194   -0.9974281  -0.1131090   0.0170321   0.1462828  -0.0000076  -0.0000076   0.7539451   0.6555725
61.1385834   -0.9973596  -0.1144165   0.0174163   0.1480427   0.0000077  -0.0000151   0.7717916   0.6369847
61.8901746   -0.9972881  -0.1158336   0.0176099   0.1498993  -0.0000007  -0.0000055   0.7892939   0.6177425
62.6510053   -0.9970207  -0.1171353   0.0181617   0.1517597  -0.0000042  -0.0000129   0.8065969   0.5978861
63.4211891   -0.9969724  -0.1184586   0.0184749   0.1536740  -0.0000005   0.0000010   0.8236544   0.5771804
64.2008409   -0.9968327  -0.1199301   0.0188441   0.1556198  -0.0000013  -0.0000071   0.8403290   0.5559154
64.9900772   -0.9967202  -0.1214166   0.0191637   0.1576613   0.0000060  -0.0000039   0.8567017   0.5338548
65.7890158   -0.9964137  -0.1227470   0.0195757   0.1598861   0.0000066  -0.0000067   0.8726612   0.5111127
66.5977759   -0.9963358  -0.1242848   0.0203959   0.1618057  -0.0000110   0.0000004   0.8881822   0.4875516
67.4164783   -0.9962752  -0.1257413   0.0208787   0.1639559   0.0000024  -0.0000098   0.9034119   0.4632958
68.2452452   -0.9960770  -0.1271750   0.0214247   0.1658864  -0.0000016  -0.0000030   0.9180764   0.4384124
69.0842003   -0.9959383  -0.1286609   0.0219610   0.1679115  -0.0000021  -0.0000152   0.9322427   0.4127304
69.9334689   -0.9957125  -0.1301610   0.0227797   0.1703308  -0.0000106  -0.0000085   0.9455765   0.3863505
70.7931778   -0.9954621  -0.1321031   0.0234637   0.1714477   0.0000082  -0.0000021   0.9591080   0.3591561
71.6634552   -0.9954082  -0.1335632   0.0236018   0.1739474  -0.0000035  -0.0000070   0.9716677   0.3310241
72.5444312   -0.9951106  -0.1350969   0.0240444   0.1758475   0.0000123   0.0000005   0.9836817   0.3023485
73.4362373   -0.9950127  -0.1367273   0.0238422   0.1783133  -0.0000012  -0.0000107   0.9948434   0.2729349
74.3390065   -0.9949675  -0.1381870   0.0253634   0.1811537   0.0000080  -0.0000129   1.0046945   0.2431284
75.2528737   -0.9946449  -0.1398349   0.0259599   0.1832130  -0.0000040  -0.0000102   1.0143737   0.2123149
76.1779753   -0.9944925  -0.1414487   0.0268276   0.1854670  -0.0000051  -0.0000124   1.0232854   0.1808396
77.1144493   -0.9943053  -0.1432667   0.0274947   0.1877681  -0.0000026  -0.0000045   1.0313023   0.1486103
78.0624357   -0.9940318  -0.1448720   0.0281838   0.1901845  -0.0000029  -0.0000080   1.0384154   0.1157628
79.0220759   -0.9938935  -0.1466368   0.0291072   0.1926262   0.0000002  -0.0000036   1.0445212   0.0821697
79.9935132   -0.9934969  -0.1484360   0.0300021   0.1950838   0.0000041  -0.0000131   1.0496229   0.0480313
80.9768926   -0.9933806  -0.1501183   0.0310837   0.1973412  -0.0000064  -0.0000116   1.0537186   0.0132410
81.9723609   -0.9932019  -0.1518995   0.0319585   0.1995324   0.0000053  -0.0000071   1.0567157  -0.0222640
82.9800667   -0.9929574  -0.1536392   0.0327682   0.2016883  -0.0000016  -0.0000180   1.0586042  -0.0582525
84.0001605   -0.9925984  -0.1554287   0.0334165   0.2040904   0.0000053  -0.0000160   1.0593000  -0.0947391
85.0327946   -0.9925027  -0.1573679   0.0342143   0.2068273   0.0000022  -0.0000081   1.0586965  -0.1319093
86.0781231   -0.9922008  -0.1592096   0.0351336   0.2094050   0.0000029  -0.0000101   1.0568105  -0.1694968
87.1363020   -0.9917827  -0.1612488   0.0360895   0.2120447   0.0000048  -0.0000041   1.0536046  -0.2074041
88.2074894   -0.9916379  -0.1630912   0.0370982   0.2147882  -0.0000051  -0.0000155   1.0489040  -0.2458368
89.2918452   -0.9914445  -0.1650545   0.0384565   0.2179055  -0.0000005  -0.0000021   1.0430306  -0.2849234
90.3895312   -0.9910506  -0.1669172   0.0396086   0.2198402  -0.0000024  -0.0000180   1.0355088  -0.3237174
91.5007114   -0.9907926  -0.1688424   0.0407727   0.2221110  -0.0000084  -0.0000163   1.0264270  -0.3630294
92.6255515   -0.9904695  -0.1708413   0.0417512   0.2245800  -0.0000034  -0.0000041   1.0155656  -0.4024850
93.7642195   -0.9901813  -0.1728390   0.0428085   0.2272829  -0.0000052  -0.0000188   1.0031624  -0.4420937
94.9168855   -0.9897814  -0.1748648   0.0441562   0.2302379  -0.0000125  -0.0000104   0.9892346  -0.4818269
96.0837215   -0.9895904  -0.1769390   0.0453727   0.2326538  -0.0000039  -0.0000178   0.9734644  -0.5215695
97.2649017   -0.9891578  -0.1791034   0.0465142   0.2352286  -0.0000004  -0.0000104   0.9559370  -0.5609835
98.4606024   -0.9887721  -0.1811556   0.0476236   0.2378250  -0.0000038  -0.0000064   0.9365502  -0.6005025
99.6710021   -0.9885290  -0.1833428   0.0487608   0.2402801  -0.0000145  -0.0000062   0.9153443  -0.6396754
100.8962816  -0.9881035  -0.1854653   0.0497404   0.2427405  -0.0000102  -0.0000124   0.8922365  -0.6784421
102.1366237  -0.9877808  -0.1876390   0.0509368   0.2457577   0.0000052  -0.0000179   0.8671283  -0.7166929
103.3922136  -0.9872827  -0.1899324   0.0520675   0.2485252  -0.0000096  -0.0000112   0.8401955  -0.7544722
104.6632389  -0.9867559  -0.1921560   0.0531032   0.2512132  -0.0000105  -0.0000055   0.8113415  -0.7912682
105.9498891  -0.9859738  -0.1943326   0.0530405   0.2532201  -0.0000069  -0.0000089   0.7803574  -0.8250929
107.2523564  -0.9865243  -0.1964557   0.0574219   0.2574943  -0.0000016  -0.0000085   0.7458400  -0.8653272
108.5708353  -0.9860938  -0.1988043   0.0582585   0.2617285  -0.0000106  -0.0000041   0.7121824  -0.8993932
109.9055225  -0.9839213  -0.2016010   0.0565138   0.2618267   0.0000076  -0.0000064   0.6774515  -0.9319120
111.2566174  -0.9846106  -0.2035985   0.0590134   0.2672076  -0.0000017  -0.0000120   0.6366632  -0.9623526
112.6243216  -0.9840989  -0.2058735   0.0610920   0.2707965   0.0000017  -0.0000150   0.5956314  -0.9930429
114.0088393  -0.9837044  -0.2084328   0.0627696   0.2740483  -0.0000127  -0.0000032   0.5528684  -1.0220177
115.4103773  -0.9833676  -0.2109591   0.0645238   0.2772456  -0.0000076  -0.0000214   0.5080600  -1.0493846
116.8291446  -0.9828094  -0.2132868   0.0664441   0.2807727   0.0000125  -0.0000049   0.4616156  -1.0748125
118.2653533  -0.9822455  -0.2158226   0.0683532   0.2840997  -0.0000004  -0.0000118   0.4131618  -1.0983546
119.7192175  -0.9816522  -0.2182486   0.0703118   0.2871378  -0.0000147  -0.0000006   0.3630310  -1.1198741
121.1909545  -0.9811911  -0.2207977   0.0719852   0.2902518  -0.0000096  -0.0000137   0.3112472  -1.1389094
122.6807839  -0.9805864  -0.2234346   0.0738670   0.2936140  -0.0000186  -0.0000183   0.2578829  -1.1556283
124.1889281  -0.9800045  -0.2260733   0.0756669   0.2966749   0.0000025  -0.0000021   0.2030196  -1.1697805
125.7156123  -0.9794796  -0.2285689   0.0771401   0.2997688  -0.0000108  -0.0000053   0.1468018  -1.1813263
127.2610644  -0.9788883  -0.2312614   0.0790338   0.3030563  -0.0000061  -0.0000096   0.0899457  -1.1898236
128.8255151  -0.9781468  -0.2339420   0.0804537   0.3064538  -0.0000125  -0.0000101   0.0310541  -1.1954536
130.4091980  -0.9774295  -0.2366055   0.0819168   0.3096960  -0.0000132  -0.0000125  -0.0282397  -1.1979713
132.0123495  -0.9766703  -0.2392958   0.0831902   0.3137404  -0.0000062  -0.0000027  -0.0885005  -1.1971293
133.6352088  -0.9760898  -0.2421454   0.0847189   0.3181272  -0.0000239  -0.0000059  -0.1491135  -1.1931309
135.2780184  -0.9753512  -0.2450220   0.0863218   0.3224358  -0.0000031  -0.0000057  -0.2103454  -1.1854267
136.9410235  -0.9744134  -0.2479400   0.0880793   0.3272462  -0.0000093  -0.0000137  -0.2717939  -1.1740384
138.6244722  -0.9737778  -0.2507919   0.0904367   0.3319608  -0.0000096  -0.0000023  -0.3330388  -1.1591738
140.3286160  -0.9730410  -0.2537268   0.0927136   0.3372456  -0.0000127  -0.0000127  -0.3943408  -1.1406394
142.0537093  -0.9720398  -0.2565810   0.0967713   0.3425985  -0.0000183  -0.0000196  -0.4577303  -1.1193078
143.8000095  -0.9715839  -0.2594110   0.0985564   0.3483796  -0.0000058   0.0000000  -0.5114804  -1.0920313
145.5677774  -0.9708298  -0.2629292   0.1024548   0.3529343   0.0000058  -0.0000122  -0.5686752  -1.0596310
147.3572769  -0.9698387  -0.2658566   0.1079864   0.3564684  -0.0000021  -0.0000169  -0.6296031  -1.0274029
149.1687752  -0.9692199  -0.2687553   0.1120187   0.3602125   0.0000015  -0.0000091  -0.6842854  -0.9897038
151.0025426  -0.9680491  -0.2718965   0.1156648   0.3638082  -0.0000053  -0.0000193  -0.7376444  -0.9478988
152.8588530  -0.9675171  -0.2750163   0.1196037   0.3677917  -0.0000013  -0.0000092  -0.7884430  -0.9023780
154.7379834  -0.9664228  -0.2780987   0.1230783   0.3715037  -0.0000086  -0.0000110  -0.8368112  -0.8532143
156.6402144  -0.9656641  -0.2814690   0.1269456   0.3754899  -0.0000084  -0.0000061  -0.8822036  -0.8005717
158.5658301  -0.9646118  -0.2847275   0.1306145   0.3792552  -0.0000037   0.0000147  -0.9241073  -0.7445390
160.5151177  -0.9635431  -0.2877938   0.1341292   0.3829291   0.0000014  -0.0000065  -0.9630209  -0.6849737
162.4883685  -0.9630031  -0.2913101   0.1384456   0.3874124   0.0000013  -0.0000028  -0.9967976  -0.6237559
164.4858769  -0.9614741  -0.2944115   0.1419832   0.3915436   0.0000046  -0.0000033  -1.0278789  -0.5582318
166.5079411  -0.9604637  -0.2977246   0.1458721   0.3954804  -0.0000070  -0.0000102  -1.0539276  -0.4910024
168.5548630  -0.9594415  -0.3012439   0.1498690   0.3996914  -0.0000107   0.0000016  -1.0755896  -0.4214285
170.6269483  -0.9582934  -0.3044734   0.1539608   0.4036253  -0.0000006  -0.0000172  -1.0920161  -0.3500769
172.7245062  -0.9570551  -0.3079239   0.1581192   0.4080059   0.0000046  -0.0000030  -1.1035268  -0.2774294
174.8478498  -0.9560719  -0.3116844   0.1624016   0.4126723   0.0000061  -0.0000036  -1.1094082  -0.2032648
176.9972963  -0.9548803  -0.3151150   0.1670210   0.4170758   0.0000235  -0.0000062  -1.1102204  -0.1277967
179.1731664  -0.9542860  -0.3213157   0.1720424   0.4244372  -0.0000187  -0.0000088  -1.1019377  -0.0580540
181.3757850  -0.9532725  -0.3220892   0.1748121   0.4252966  -0.0000020  -0.0000058  -1.0923748   0.0172629
183.6054809  -0.9509230  -0.3257853   0.1804428   0.4304184  -0.0000115  -0.0000014  -1.0773858   0.0954521
185.8625870  -0.9494483  -0.3294866   0.1851364   0.4344058  -0.0000271  -0.0000083  -1.0548059   0.1676861
188.1474402  -0.9484729  -0.3332191   0.1898468   0.4384241  -0.0000045  -0.0000041  -1.0266452   0.2388777
190.4603817  -0.9471344  -0.3370450   0.1942632   0.4426034  -0.0000241  -0.0000166  -0.9928692   0.3077410
192.8017567  -0.9453991  -0.3409875   0.1986000   0.4470374   0.0000113  -0.0000080  -0.9528826   0.3737659
195.1719148  -0.9439979  -0.3445249   0.2032769   0.4519995  -0.0000411   0.0000164  -0.9079903   0.4365081
197.5712099  -0.9426641  -0.3479546   0.2084545   0.4564196   0.0000064  -0.0000064  -0.8584258   0.4960860
200.0000000  -0.9412647  -0.3525632   0.2123692   0.4624484  -0.0000129  -0.0000066  -0.8026131   0.5505821
