! ListType=Log
# MHZ S RI R 50
0.0010000    -0.9985526  -0.0002282   0.0001901   0.0003735  -0.0000115  -0.0000299  -0.9088780   0.2599563
0.0010123    -0.9994211  -0.0001881  -0.0003589   0.0004544   0.0000121  -0.0000287  -0.9094622   0.2603417
0.0010247    -0.9980065  -0.0006427  -0.0000826   0.0007494  -0.0000157   0.0000266  -0.9095897   0.2591301
0.0010373    -0.9988977  -0.0001047  -0.0000615   0.0002100  -0.0000085  -0.0000056  -0.9097936   0.2598523
0.0010501    -0.9983764   0.0005089  -0.0003691   0.0002373  -0.0000136  -0.0000118  -0.9091506   0.2596915
0.0010630    -0.9995488  -0.0004439   0.0002148   0.0000997   0.0000229   0.0000125  -0.9105505   0.2595735
0.0010761    -0.9983439  -0.0005434  -0.0001773   0.0004373  -0.0000149   0.0000095  -0.9107037   0.2587981
0.0010893    -0.9995785   0.0000423  -0.0004672   0.0004076   0.0000198  -0.0000037  -0.9110865   0.2599258
0.0011027    -0.9988865  -0.0003037  -0.0001168   0.0003480   0.0000030  -0.0000187  -0.9110775   0.2587990
0.0011162    -0.9988405  -0.0008971  -0.0000389   0.0004462  -0.0000056   0.0000030  -0.9120701   0.2584382
0.0011300    -0.9984315  -0.0000984  -0.0001195   0.0005287  -0.0000259  -0.0000173  -0.9112969   0.2587179
0.0011439    -0.9987670   0.0001807  -0.0001289   0.0005787   0.0000190  -0.0000020  -0.9120502   0.2590832
0.0011579    -0.9979896  -0.0006136  -0.0002737   0.0003293  -0.0000080   0.0000011  -0.9120575   0.2578675
0.0011721    -0.9987332  -0.0000589  -0.0002466   0.0005327   0.0000114  -0.0000118  -0.9124015   0.2585311
0.0011866    -0.9979373   0.0001510  -0.0001435   0.0004626  -0.0000454  -0.0000152  -0.9122040   0.2582435
0.0012011    -0.9986127  -0.0001768  -0.0002110   0.0001050  -0.0000151   0.0000003  -0.9128818   0.2582597
0.0012159    -0.9993856  -0.0003448   0.0000141   0.0003923   0.0000208   0.0000031  -0.9136437   0.2584854
0.0012309    -0.9984730  -0.0002005  -0.0002614   0.0004707   0.0000094   0.0000109  -0.9137401   0.2577885
0.0012460    -0.9985109   0.0004671  -0.0002034   0.0000624  -0.0000062  -0.0000060  -0.9134154   0.2581256
0.0012613    -0.9992296  -0.0005073  -0.0001794   0.0003919   0.0000269  -0.0000021  -0.9147353   0.2579363
0.0012768    -0.9983042  -0.0001766   0.0000409   0.0005561  -0.0000207   0.0000053  -0.9141770   0.2576231
0.0012925    -0.9996347  -0.0004033  -0.0004899   0.0002463   0.0000140   0.0000076  -0.9151106   0.2580592
0.0013084    -0.9982409  -0.0003338  -0.0002548   0.0001915  -0.0000049   0.0000097  -0.9149123   0.2575421
0.0013245    -0.9993007  -0.0000877  -0.0000972   0.0003163   0.0000181  -0.0000016  -0.9155488   0.2580240
0.0013408    -0.9985991  -0.0004166  -0.0001937   0.0002646   0.0000024  -0.0000096  -0.9153819   0.2572752
0.0013572    -0.9993245  -0.0002266   0.0000078   0.0000631   0.0000187   0.0000077  -0.9163567   0.2576933
0.0013739    -0.9986133  -0.0001111   0.0000289   0.0003350   0.0000133   0.0000164  -0.9162218   0.2575399
0.0013908    -0.9989516  -0.0008029  -0.0000125   0.0002765   0.0000136   0.0000045  -0.9169530   0.2576089
0.0014079    -0.9990175   0.0002951   0.0000194   0.0001748  -0.0000214  -0.0000005  -0.9167295   0.2573538
0.0014252    -0.9987793  -0.0008737  -0.0002423   0.0007079   0.0000186   0.0000247  -0.9176592   0.2572531
0.0014427    -0.9988803   0.0000351  -0.0001353   0.0001921  -0.0000097  -0.0000156  -0.9173659   0.2571991
0.0014605    -0.9989065  -0.0006151  -0.0003850   0.0003283   0.0000009  -0.0000180  -0.9180822   0.2573986
0.0014784    -0.9983647  -0.0000153  -0.0000556   0.0002906  -0.0000049   0.0000082  -0.9178605   0.2569127
0.0014966    -0.9991401   0.0005760  -0.0003912   0.0005560   0.0000002  -0.0000287  -0.9186111   0.2574162
0.0015150    -0.9989778  -0.0004769   0.0000686   0.0004004   0.0000270   0.0000241  -0.9189818   0.2573396
0.0015336    -0.9984506  -0.0001790  -0.0001543   0.0003657  -0.0000074  -0.0000028  -0.9190102   0.2570696
0.0015525    -0.9988102   0.0003602   0.0001283   0.0003044  -0.0000076  -0.0000167  -0.9190290   0.2573496
0.0015716    -0.9984557  -0.0001448  -0.0000249   0.0005114   0.0000126  -0.0000211  -0.9196280   0.2571869
0.0015909    -0.9990512   0.0001912   0.0000029   0.0004680   0.0000100  -0.0000345  -0.9199847   0.2575694
0.0016104    -0.9984445  -0.0004817   0.0000502   0.0003850  -0.0000243   0.0000094  -0.9203199   0.2569523
0.0016302    -0.9989356   0.0003179   0.0002070   0.0003971   0.0000135  -0.0000063  -0.9203642   0.2573044
0.0016503    -0.9989421  -0.0002653  -0.0001958   0.0002618   0.0000088  -0.0000100  -0.9213751   0.2574882
0.0016706    -0.9985910  -0.0002491  -0.0000376   0.0003992   0.0000033  -0.0000045  -0.9211996   0.2574022
0.0016911    -0.9985374  -0.0004407  -0.0001386   0.0002275  -0.0000210  -0.0000159  -0.9218180   0.2570958
0.0017119    -0.9984962   0.0000203  -0.0000638   0.0004081  -0.0000161  -0.0000298  -0.9218589   0.2574357
0.0017329    -0.9984507  -0.0006672  -0.0000287   0.0005176  -0.0000031   0.0000134  -0.9220861   0.2573962
0.0017542    -0.9985392  -0.0007498  -0.0000355   0.0003020   0.0000071   0.0000175  -0.9225671   0.2571541
0.0017758    -0.9986615  -0.0001993  -0.0000492   0.0003595  -0.0000018  -0.0000029  -0.9227763   0.2574617
0.0017976    -0.9986293  -0.0003043  -0.0000397   0.0003171   0.0000059  -0.0000063  -0.9233452   0.2574793
0.0018197    -0.9983065  -0.0001357   0.0000800   0.0001271  -0.0000150  -0.0000040  -0.9231438   0.2573279
0.0018421    -0.9989228  -0.0000937  -0.0000563   0.0003304   0.0000151  -0.0000070  -0.9238326   0.2577191
0.0018648    -0.9984796  -0.0000822  -0.0000495   0.0003306  -0.0000028   0.0000040  -0.9239003   0.2574820
0.0018877    -0.9985970   0.0000183  -0.0001833   0.0004173  -0.0000105  -0.0000158  -0.9239804   0.2577066
0.0019109    -0.9987850  -0.0002837  -0.0002128   0.0003656  -0.0000036   0.0000066  -0.9248491   0.2579357
0.0019344    -0.9984382  -0.0002735   0.0000354   0.0001988  -0.0000050  -0.0000064  -0.9247153   0.2577397
0.0019582    -0.9984709   0.0000143  -0.0000114   0.0002251   0.0000018  -0.0000051  -0.9248236   0.2579512
0.0019822    -0.9989602  -0.0001989  -0.0000787   0.0000509   0.0000061   0.0000007  -0.9256894   0.2580907
0.0020066    -0.9986940  -0.0000493  -0.0000346   0.0004329   0.0000030   0.0000010  -0.9257598   0.2582423
0.0020313    -0.9987780  -0.0004820  -0.0003156  -0.0000990   0.0000072   0.0000076  -0.9261621   0.2581689
0.0020562    -0.9985172  -0.0004806  -0.0000376   0.0002580  -0.0000161  -0.0000018  -0.9265384   0.2580705
0.0020815    -0.9985018   0.0000819   0.0001346   0.0004420   0.0000003  -0.0000015  -0.9265952   0.2584793
0.0021071    -0.9987388  -0.0002494  -0.0000496   0.0003483  -0.0000104  -0.0000033  -0.9270215   0.2585237
0.0021330    -0.9989778   0.0000982  -0.0000249   0.0002072  -0.0000010  -0.0000229  -0.9272019   0.2587586
0.0021592    -0.9990748  -0.0000661  -0.0001724   0.0003649  -0.0000025  -0.0000190  -0.9277383   0.2588852
0.0021858    -0.9987167  -0.0004794   0.0000522   0.0003788  -0.0000026  -0.0000044  -0.9279115   0.2586740
0.0022126    -0.9988405  -0.0000124  -0.0000407   0.0002611  -0.0000054  -0.0000144  -0.9280733   0.2590422
0.0022398    -0.9987328  -0.0001793  -0.0001011   0.0001950  -0.0000122   0.0000062  -0.9283379   0.2590142
0.0022674    -0.9991632  -0.0000010  -0.0000293   0.0001683   0.0000047  -0.0000181  -0.9287816   0.2593020
0.0022953    -0.9990716  -0.0000041  -0.0000616   0.0002043   0.0000060  -0.0000025  -0.9290308   0.2594769
0.0023235    -0.9987114  -0.0006674   0.0000302   0.0003575  -0.0000061  -0.0000002  -0.9294341   0.2594680
0.0023520    -0.9985514   0.0001411   0.0000183   0.0001334  -0.0000078  -0.0000054  -0.9292532   0.2594361
0.0023809    -0.9989053  -0.0003319  -0.0000556   0.0002236  -0.0000079   0.0000077  -0.9299422   0.2596373
0.0024102    -0.9988136  -0.0002279  -0.0000461   0.0003214   0.0000131   0.0000064  -0.9298942   0.2598229
0.0024398    -0.9986620  -0.0002245   0.0000282   0.0001834   0.0000033   0.0000032  -0.9303333   0.2599209
0.0024698    -0.9986646  -0.0001788   0.0000410   0.0001684   0.0000079  -0.0000170  -0.9305707   0.2602177
0.0025002    -0.9987292   0.0001225  -0.0000240   0.0004095  -0.0000013  -0.0000042  -0.9307198   0.2603729
0.0025309    -0.9988331   0.0000914   0.0001178   0.0002917  -0.0000087  -0.0000112  -0.9309336   0.2606611
0.0025621    -0.9990064  -0.0003529  -0.0000353   0.0002752   0.0000070  -0.0000087  -0.9313972   0.2606534
0.0025935    -0.9989577  -0.0004614  -0.0000598   0.0002305  -0.0000057  -0.0000035  -0.9316742   0.2605261
0.0026254    -0.9987622  -0.0003423   0.0000339   0.0002470  -0.0000042  -0.0000026  -0.9317934   0.2605545
0.0026577    -0.9985309   0.0000820  -0.0001232   0.0002544  -0.0000107  -0.0000105  -0.9319015   0.2609742
0.0026904    -0.9988734  -0.0000885  -0.0001184   0.0003081  -0.0000128  -0.0000062  -0.9320964   0.2613407
0.0027235    -0.9988780  -0.0004829  -0.0000728   0.0002539  -0.0000013  -0.0000137  -0.9327563   0.2611832
0.0027569    -0.9985033  -0.0000164   0.0000159   0.0001467  -0.0000088  -0.0000033  -0.9327095   0.2612955
0.0027908    -0.9987913  -0.0000218  -0.0000091   0.0002614   0.0000059  -0.0000083  -0.9327881   0.2617246
0.0028251    -0.9989487  -0.0003366  -0.0000748   0.0001879   0.0000069   0.0000018  -0.9332618   0.2618815
0.0028599    -0.9987864  -0.0005281   0.0000366   0.0002242  -0.0000022   0.0000010  -0.9334185   0.2618729
0.0028950    -0.9986455  -0.0002759   0.0000200   0.0001840   0.0000031   0.0000025  -0.9336124   0.2618484
0.0029306    -0.9987386  -0.0003117  -0.0000054   0.0002091  -0.0000042  -0.0000190  -0.9337557   0.2620064
0.0029666    -0.9987846  -0.0003288  -0.0000324   0.0000416   0.0000131  -0.0000065  -0.9339990   0.2622600
0.0030031    -0.9989149  -0.0002114   0.0000935   0.0003725  -0.0000049   0.0000133  -0.9341076   0.2625548
0.0030400    -0.9988160  -0.0002683  -0.0001129   0.0002047  -0.0000027  -0.0000165  -0.9343379   0.2628196
0.0030774    -0.9986290  -0.0001337   0.0000090   0.0002078  -0.0000097  -0.0000045  -0.9345217   0.2629743
0.0031152    -0.9988537  -0.0005414  -0.0000105   0.0001873   0.0000102   0.0000018  -0.9348862   0.2629809
0.0031535    -0.9987734  -0.0001598  -0.0000587   0.0001716  -0.0000035  -0.0000120  -0.9349260   0.2633534
0.0031923    -0.9989498  -0.0003456  -0.0001061   0.0001743   0.0000126  -0.0000124  -0.9353236   0.2634966
0.0032315    -0.9989493  -0.0004254  -0.0001037   0.0002681  -0.0000004  -0.0000064  -0.9355121   0.2636469
0.0032713    -0.9988318  -0.0003757  -0.0000471   0.0002219   0.0000023  -0.0000089  -0.9356770   0.2636865
0.0033115    -0.9988620  -0.0003640   0.0000180   0.0002014   0.0000084  -0.0000006  -0.9357024   0.2639999
0.0033522    -0.9988787  -0.0000756   0.0000616   0.0002327  -0.0000109  -0.0000057  -0.9360229   0.2644064
0.0033934    -0.9988300  -0.0003665  -0.0000178   0.0002327   0.0000014   0.0000021  -0.9362628   0.2642656
0.0034351    -0.9985956  -0.0003759   0.0001196   0.0002350  -0.0000013   0.0000084  -0.9364516   0.2645556
0.0034773    -0.9986687   0.0000623   0.0000214   0.0001458   0.0000084  -0.0000086  -0.9364323   0.2647053
0.0035201    -0.9987994  -0.0003711   0.0000456   0.0002189   0.0000056  -0.0000029  -0.9367876   0.2648143
0.0035634    -0.9987097  -0.0003049  -0.0000230   0.0001600   0.0000070  -0.0000048  -0.9368663   0.2649771
0.0036072    -0.9986575  -0.0002556  -0.0001884   0.0003100  -0.0000008  -0.0000046  -0.9369396   0.2652301
0.0036515    -0.9986211  -0.0000199   0.0000550   0.0001987  -0.0000051   0.0000044  -0.9372120   0.2655556
0.0036964    -0.9986441   0.0001898  -0.0000257   0.0001803  -0.0000114   0.0000007  -0.9371598   0.2658447
0.0037418    -0.9988180  -0.0001384  -0.0000157   0.0001164   0.0000014  -0.0000077  -0.9373776   0.2659021
0.0037878    -0.9990043  -0.0002516  -0.0000050   0.0001199   0.0000009  -0.0000191  -0.9374859   0.2660117
0.0038344    -0.9989297  -0.0002118  -0.0000806   0.0002863   0.0000059  -0.0000063  -0.9376847   0.2663411
0.0038815    -0.9989087  -0.0003481  -0.0000193   0.0001715  -0.0000009   0.0000041  -0.9378065   0.2664228
0.0039293    -0.9987365  -0.0002784  -0.0000801   0.0001502   0.0000049  -0.0000071  -0.9379777   0.2663981
0.0039776    -0.9988859  -0.0002831   0.0000618   0.0005575  -0.0000018  -0.0000120  -0.9381920   0.2668196
0.0040265    -0.9987777  -0.0004056   0.0002044   0.0004823   0.0000000   0.0000014  -0.9383100   0.2667670
0.0040759    -0.9989229  -0.0000860   0.0000492   0.0001777  -0.0000007   0.0000008  -0.9384242   0.2671272
0.0041261    -0.9988930  -0.0003785   0.0000136   0.0001865   0.0000015  -0.0000048  -0.9385339   0.2672093
0.0041768    -0.9988461  -0.0002576  -0.0000440   0.0001844  -0.0000009   0.0000009  -0.9387328   0.2675105
0.0042281    -0.9988212  -0.0002997   0.0000156   0.0001595   0.0000064  -0.0000054  -0.9388509   0.2677209
0.0042801    -0.9990065  -0.0001398  -0.0000091   0.0001769   0.0000041  -0.0000002  -0.9389324   0.2679158
0.0043327    -0.9990785  -0.0001013   0.0000374   0.0001157  -0.0000035  -0.0000042  -0.9390299   0.2683019
0.0043860    -0.9990518  -0.0001842   0.0000730   0.0000886  -0.0000025   0.0000091  -0.9392749   0.2683077
0.0044399    -0.9988732  -0.0002581  -0.0000245   0.0001956   0.0000007  -0.0000043  -0.9393379   0.2684832
0.0044945    -0.9987954  -0.0002788  -0.0001204   0.0000883  -0.0000065  -0.0000034  -0.9394909   0.2686169
0.0045497    -0.9989726  -0.0000645   0.0000563   0.0001894  -0.0000109  -0.0000034  -0.9394766   0.2688047
0.0046057    -0.9989777  -0.0001137   0.0000269   0.0001664  -0.0000053   0.0000049  -0.9395575   0.2689400
0.0046623    -0.9989913  -0.0000491  -0.0000014   0.0001696   0.0000035  -0.0000071  -0.9395089   0.2692334
0.0047196    -0.9989498  -0.0001700   0.0000436   0.0001650  -0.0000083  -0.0000009  -0.9398293   0.2694102
0.0047776    -0.9989179  -0.0002257   0.0000001   0.0001077   0.0000065  -0.0000104  -0.9398891   0.2695281
0.0048363    -0.9990365  -0.0000845  -0.0000398   0.0001395   0.0000003  -0.0000094  -0.9399332   0.2697804
0.0048958    -0.9990200   0.0000555  -0.0000382   0.0001526  -0.0000047  -0.0000137  -0.9400721   0.2700554
0.0049560    -0.9990305  -0.0001155   0.0000217   0.0001019  -0.0000099  -0.0000067  -0.9402632   0.2701632
0.0050169    -0.9987803  -0.0003080   0.0001029   0.0001046  -0.0000178   0.0000051  -0.9403351   0.2701639
0.0050786    -0.9987579  -0.0000558   0.0000030   0.0001728   0.0000062   0.0000011  -0.9403187   0.2703988
0.0051410    -0.9987532  -0.0001404   0.0000304   0.0001380  -0.0000039  -0.0000105  -0.9404152   0.2706001
0.0052042    -0.9989716  -0.0002140  -0.0000150   0.0000744   0.0000035  -0.0000032  -0.9405021   0.2708001
0.0052682    -0.9989050  -0.0001868  -0.0000027   0.0001018   0.0000060  -0.0000054  -0.9406327   0.2710467
0.0053330    -0.9988393  -0.0001806  -0.0000170   0.0001082  -0.0000089  -0.0000088  -0.9406896   0.2711812
0.0053985    -0.9989697  -0.0001098  -0.0000190   0.0001431  -0.0000131  -0.0000073  -0.9407775   0.2713440
0.0054649    -0.9990920  -0.0001683   0.0000469   0.0000948   0.0000164  -0.0000018  -0.9409076   0.2714998
0.0055321    -0.9991600  -0.0002117   0.0000423   0.0000504  -0.0000015  -0.0000112  -0.9409565   0.2716945
0.0056001    -0.9990177  -0.0003272   0.0000701   0.0001479   0.0000146   0.0000031  -0.9411138   0.2719386
0.0056689    -0.9991150  -0.0001837   0.0000000   0.0001160  -0.0000082  -0.0000200  -0.9411273   0.2720064
0.0057386    -0.9991375  -0.0002156   0.0000437   0.0001300   0.0000036  -0.0000155  -0.9411893   0.2721200
0.0058091    -0.9987873  -0.0002077   0.0000494   0.0000594   0.0000022   0.0000047  -0.9411386   0.2723728
0.0058806    -0.9989091  -0.0002000   0.0000345   0.0001242  -0.0000013  -0.0000061  -0.9411190   0.2724188
0.0059529    -0.9987048  -0.0001636   0.0000493   0.0001068  -0.0000054  -0.0000104  -0.9412062   0.2727041
0.0060260    -0.9989680  -0.0001287  -0.0000058   0.0000590  -0.0000053  -0.0000183  -0.9412507   0.2727098
0.0061001    -0.9990271  -0.0002032  -0.0000068   0.0000311  -0.0000142  -0.0000055  -0.9413455   0.2729546
0.0061751    -0.9989261  -0.0001252   0.0000558   0.0001209   0.0000003   0.0000049  -0.9413314   0.2731470
0.0062510    -0.9990801  -0.0001017   0.0000047   0.0001301  -0.0000030  -0.0000002  -0.9415101   0.2732916
0.0063279    -0.9988889  -0.0002792   0.0000179   0.0000949  -0.0000043  -0.0000012  -0.9416430   0.2734560
0.0064056    -0.9991715  -0.0002867   0.0000408   0.0001298   0.0000044  -0.0000061  -0.9416371   0.2736081
0.0064844    -0.9988708  -0.0002948  -0.0000291   0.0001014   0.0000000  -0.0000076  -0.9416977   0.2736701
0.0065641    -0.9987820  -0.0002290   0.0000441   0.0000941  -0.0000063  -0.0000193  -0.9415242   0.2737903
0.0066448    -0.9986962  -0.0001241  -0.0000631   0.0000851   0.0000005  -0.0000093  -0.9416728   0.2739591
0.0067265    -0.9986799  -0.0002325   0.0000298   0.0001028  -0.0000082   0.0000041  -0.9417777   0.2741424
0.0068092    -0.9989108  -0.0002482   0.0000161   0.0000889   0.0000036   0.0000010  -0.9418365   0.2743665
0.0068929    -0.9987653  -0.0003033   0.0000284   0.0000969   0.0000128  -0.0000086  -0.9418909   0.2744498
0.0069776    -0.9989796  -0.0003095   0.0000038   0.0000173   0.0000024  -0.0000116  -0.9420478   0.2746782
0.0070634    -0.9989319  -0.0002419  -0.0000244   0.0000571   0.0000023  -0.0000052  -0.9419420   0.2748400
0.0071502    -0.9989945  -0.0001316   0.0000246   0.0000682   0.0000031  -0.0000154  -0.9419125   0.2748555
0.0072381    -0.9988551  -0.0002041  -0.0000104   0.0001422  -0.0000033  -0.0000122  -0.9418756   0.2750367
0.0073271    -0.9987296  -0.0001088   0.0000452   0.0001370  -0.0000089  -0.0000030  -0.9420109   0.2752536
0.0074172    -0.9988657  -0.0003663   0.0000382   0.0000809   0.0000121  -0.0000083  -0.9421284   0.2753567
0.0075084    -0.9988162  -0.0002818   0.0000307   0.0000875   0.0000064  -0.0000108  -0.9421577   0.2755385
0.0076007    -0.9989214  -0.0001457   0.0000156   0.0000273   0.0000004  -0.0000116  -0.9421461   0.2756577
0.0076941    -0.9990656  -0.0000845   0.0000199   0.0001281  -0.0000021   0.0000084  -0.9421786   0.2759126
0.0077887    -0.9990032  -0.0001159   0.0000570   0.0000643   0.0000107  -0.0000020  -0.9421820   0.2759312
0.0078844    -0.9989404  -0.0003665   0.0000759   0.0000384  -0.0000035  -0.0000018  -0.9422685   0.2760016
0.0079814    -0.9989472  -0.0000586   0.0000532   0.0000664   0.0000006  -0.0000059  -0.9422404   0.2762762
0.0080795    -0.9990133  -0.0002310   0.0000205   0.0001325   0.0000058  -0.0000034  -0.9423989   0.2763341
0.0081788    -0.9990863  -0.0001927   0.0000022   0.0000415  -0.0000045   0.0000043  -0.9422137   0.2765218
0.0082793    -0.9987557  -0.0001644   0.0000239   0.0000417  -0.0000005  -0.0000093  -0.9423942   0.2765888
0.0083811    -0.9990202  -0.0001743   0.0000442   0.0000208  -0.0000037   0.0000070  -0.9423573   0.2767983
0.0084842    -0.9988957  -0.0001223   0.0000195   0.0000739  -0.0000016   0.0000005  -0.9423313   0.2768930
0.0085885    -0.9989201  -0.0000467  -0.0000121   0.0000786   0.0000015  -0.0000070  -0.9424398   0.2769427
0.0086940    -0.9988718  -0.0001370   0.0000382  -0.0000205   0.0000127  -0.0000141  -0.9423699   0.2771411
0.0088009    -0.9989678  -0.0001713   0.0000208   0.0000545   0.0000002   0.0000062  -0.9423860   0.2772914
0.0089091    -0.9989091  -0.0001788   0.0000941   0.0001557   0.0000024  -0.0000112  -0.9423989   0.2774866
0.0090186    -0.9989792  -0.0001785   0.0000036   0.0000966  -0.0000090  -0.0000046  -0.9424998   0.2774735
0.0091295    -0.9989706  -0.0001566   0.0000103   0.0001325   0.0000055  -0.0000005  -0.9425199   0.2777457
0.0092417    -0.9989254   0.0000152   0.0000256   0.0000769   0.0000093  -0.0000054  -0.9424069   0.2777833
0.0093553    -0.9989166  -0.0001428   0.0000310   0.0001289   0.0000041  -0.0000095  -0.9424297   0.2779104
0.0094703    -0.9988982  -0.0002417   0.0000028   0.0000513   0.0000006   0.0000108  -0.9425230   0.2779699
0.0095868    -0.9989334  -0.0001155   0.0000041   0.0000967  -0.0000033  -0.0000074  -0.9424579   0.2781670
0.0097046    -0.9988252  -0.0002030  -0.0000257   0.0000982  -0.0000017   0.0000127  -0.9425030   0.2781965
0.0098239    -0.9989585  -0.0000816  -0.0000181  -0.0000340  -0.0000008   0.0000001  -0.9425577   0.2783250
0.0099447    -0.9988791  -0.0001517  -0.0000327   0.0000526  -0.0000004  -0.0000051  -0.9425478   0.2783615
0.0100669    -0.9990860  -0.0001240  -0.0000226   0.0000032  -0.0000093  -0.0000186  -0.9425242   0.2785836
0.0101907    -0.9990367  -0.0001189  -0.0000004   0.0000385  -0.0000033  -0.0000092  -0.9425358   0.2786114
0.0103160    -0.9990131  -0.0002404   0.0000541   0.0000497   0.0000116  -0.0000083  -0.9425019   0.2787091
0.0104428    -0.9990147  -0.0000164   0.0000027   0.0000550  -0.0000035   0.0000003  -0.9425838   0.2789201
0.0105712    -0.9989473  -0.0000620  -0.0000098   0.0000662   0.0000088   0.0000015  -0.9425830   0.2789347
0.0107011    -0.9989387  -0.0000280  -0.0000075   0.0000675   0.0000044  -0.0000051  -0.9426090   0.2791118
0.0108327    -0.9990020  -0.0001741   0.0000399   0.0000997   0.0000012  -0.0000062  -0.9425325   0.2791449
0.0109658    -0.9989633  -0.0002403  -0.0000208   0.0000154  -0.0000070  -0.0000045  -0.9426464   0.2792784
0.0111006    -0.9989727  -0.0001490  -0.0000104   0.0000393  -0.0000041  -0.0000068  -0.9426136   0.2795289
0.0112371    -0.9988873  -0.0001270   0.0000038   0.0001160  -0.0000054   0.0000003  -0.9426557   0.2794251
0.0113752    -0.9989373  -0.0002431  -0.0000368   0.0000920  -0.0000107   0.0000007  -0.9425597   0.2795968
0.0115151    -0.9991479   0.0000498  -0.0000300   0.0000492   0.0000003  -0.0000004  -0.9427017   0.2798539
0.0116566    -0.9988590  -0.0002754   0.0000111   0.0000631  -0.0000025  -0.0000093  -0.9425976   0.2797545
0.0117999    -0.9990477  -0.0001216   0.0000073   0.0000390  -0.0000078  -0.0000039  -0.9426702   0.2800117
0.0119450    -0.9974977  -0.0031535   0.0000012   0.0000379  -0.0000012   0.0000006  -0.9434624   0.2782170
0.0120918    -0.9988212  -0.0000644   0.0000289   0.0000555   0.0000006  -0.0000104  -0.9426943   0.2801527
0.0122405    -0.9989658  -0.0001523  -0.0000108   0.0000642  -0.0000107   0.0000039  -0.9427471   0.2801706
0.0123910    -0.9990909   0.0001535   0.0000232   0.0000405  -0.0000042  -0.0000100  -0.9426088   0.2804391
0.0125433    -0.9989688  -0.0002894  -0.0000189  -0.0000070  -0.0000016   0.0000043  -0.9427097   0.2803775
0.0126975    -0.9989944   0.0000129  -0.0000187   0.0000216  -0.0000036  -0.0000023  -0.9425424   0.2804387
0.0128536    -0.9990277  -0.0000926  -0.0000314   0.0000402   0.0000036  -0.0000033  -0.9426407   0.2806492
0.0130116    -0.9989650  -0.0003158  -0.0000174  -0.0000368   0.0000031   0.0000037  -0.9426215   0.2806846
0.0131716    -0.9989688  -0.0001935   0.0000967   0.0000840  -0.0000045   0.0000010  -0.9426642   0.2806807
0.0133335    -0.9988990  -0.0000517  -0.0000133   0.0000122  -0.0000017  -0.0000095  -0.9425145   0.2809397
0.0134974    -0.9989841  -0.0000918  -0.0000268   0.0000688   0.0000014  -0.0000020  -0.9425677   0.2809175
0.0136633    -0.9988907  -0.0001804   0.0001168   0.0000307   0.0000013  -0.0000062  -0.9426221   0.2811150
0.0138313    -0.9991171  -0.0000295   0.0001252   0.0000930  -0.0000014  -0.0000050  -0.9425397   0.2811490
0.0140013    -0.9989882  -0.0000467  -0.0000488  -0.0000256  -0.0000043  -0.0000027  -0.9426175   0.2812854
0.0141734    -0.9989519  -0.0000476  -0.0001000  -0.0000520  -0.0000133  -0.0000052  -0.9426482   0.2814176
0.0143477    -0.9989802  -0.0001247   0.0002364   0.0001731   0.0000019  -0.0000050  -0.9426134   0.2813920
0.0145240    -0.9989115  -0.0002997  -0.0000054  -0.0000398   0.0000018   0.0000028  -0.9426510   0.2814696
0.0147026    -0.9989587  -0.0000877  -0.0000362   0.0001018   0.0000098  -0.0000082  -0.9425887   0.2815431
0.0148833    -0.9989016  -0.0000795  -0.0000743   0.0000587  -0.0000038  -0.0000085  -0.9425701   0.2817147
0.0150663    -0.9990888  -0.0001059  -0.0000071   0.0000687   0.0000025  -0.0000094  -0.9425500   0.2817628
0.0152515    -0.9988725  -0.0001797  -0.0000793   0.0001241  -0.0000064  -0.0000097  -0.9425577   0.2819218
0.0154390    -0.9989586  -0.0001234   0.0000736   0.0000573  -0.0000151   0.0000062  -0.9425825   0.2819117
0.0156288    -0.9989384  -0.0002131   0.0000658   0.0001322  -0.0000092  -0.0000074  -0.9426634   0.2819290
0.0158209    -0.9989045  -0.0001539   0.0001253   0.0000765  -0.0000031  -0.0000088  -0.9425187   0.2819562
0.0160154    -0.9989855  -0.0001700  -0.0000555   0.0001816   0.0000012  -0.0000067  -0.9425096   0.2821765
0.0162123    -0.9990152  -0.0001145  -0.0000269   0.0000850  -0.0000041  -0.0000005  -0.9424733   0.2823458
0.0164116    -0.9990120  -0.0000587  -0.0000477   0.0000838   0.0000020  -0.0000133  -0.9425390   0.2823374
0.0166134    -0.9989104  -0.0001190  -0.0000081   0.0000381   0.0000025   0.0000024  -0.9424725   0.2825105
0.0168176    -0.9989587  -0.0000734  -0.0000126   0.0000885   0.0000023  -0.0000011  -0.9425681   0.2824212
0.0170243    -0.9990520  -0.0001172   0.0001194   0.0000351  -0.0000044  -0.0000021  -0.9425075   0.2825839
0.0172336    -0.9991381  -0.0000522   0.0000268   0.0000844   0.0000039  -0.0000065  -0.9424701   0.2825693
0.0174455    -0.9988881  -0.0000274  -0.0001143   0.0000641  -0.0000069   0.0000054  -0.9424511   0.2826684
0.0176599    -0.9989642  -0.0001975  -0.0000383  -0.0000822  -0.0000030  -0.0000096  -0.9424459   0.2827776
0.0178770    -0.9991792  -0.0000785  -0.0000007  -0.0000652  -0.0000056   0.0000042  -0.9424224   0.2829245
0.0180968    -0.9990444  -0.0002195  -0.0000971   0.0000149  -0.0000086  -0.0000035  -0.9424302   0.2828374
0.0183193    -0.9989180  -0.0001501  -0.0000324   0.0000955   0.0000087  -0.0000044  -0.9424509   0.2830002
0.0185445    -0.9988585  -0.0000602   0.0000279   0.0000193   0.0000103  -0.0000060  -0.9424455   0.2830423
0.0187724    -0.9990243  -0.0000977  -0.0001661  -0.0001080   0.0000036   0.0000011  -0.9423371   0.2830841
0.0190032    -0.9988932  -0.0000159  -0.0000341  -0.0002277  -0.0000030  -0.0000051  -0.9424280   0.2831313
0.0192368    -0.9989319  -0.0001202   0.0000337  -0.0001809   0.0000020   0.0000008  -0.9425254   0.2832695
0.0194733    -0.9990925  -0.0001537  -0.0000741  -0.0001293   0.0000098  -0.0000044  -0.9424154   0.2833488
0.0197127    -0.9989554  -0.0000692  -0.0000205   0.0002237  -0.0000072  -0.0000149  -0.9423865   0.2834325
0.0199550    -0.9989586  -0.0001147   0.0000989  -0.0000102  -0.0000085  -0.0000115  -0.9424142   0.2834576
0.0202003    -0.9990029  -0.0000352  -0.0001435   0.0000178  -0.0000027  -0.0000121  -0.9424186   0.2834956
0.0204487    -0.9989996  -0.0001633  -0.0000657  -0.0000016  -0.0000126  -0.0000027  -0.9423482   0.2836018
0.0207001    -0.9989645  -0.0000509  -0.0000402   0.0000856  -0.0000050  -0.0000153  -0.9422820   0.2836091
0.0209545    -0.9989916  -0.0000409   0.0000048   0.0000421  -0.0000042  -0.0000062  -0.9422991   0.2836966
0.0212121    -0.9989860  -0.0001221  -0.0000235   0.0000194   0.0000013   0.0000014  -0.9422630   0.2838958
0.0214729    -0.9989907  -0.0000546  -0.0000393   0.0001334  -0.0000082  -0.0000137  -0.9423046   0.2839225
0.0217369    -0.9989457  -0.0001576   0.0000346   0.0000970   0.0000177  -0.0000012  -0.9422967   0.2839207
0.0220041    -0.9989577  -0.0002028  -0.0000560   0.0001009  -0.0000034  -0.0000052  -0.9423316   0.2839710
0.0222746    -0.9990002  -0.0000311   0.0000473   0.0000294   0.0000044  -0.0000094  -0.9421834   0.2840686
0.0225484    -0.9989541  -0.0000637   0.0000549   0.0000933  -0.0000069   0.0000029  -0.9421589   0.2840821
0.0228256    -0.9989449  -0.0000669   0.0000497  -0.0000482  -0.0000015   0.0000000  -0.9422130   0.2841121
0.0231062    -0.9988782  -0.0000619  -0.0000022   0.0000521  -0.0000071  -0.0000067  -0.9422103   0.2841453
0.0233902    -0.9989527   0.0000006   0.0000409   0.0000428  -0.0000062   0.0000041  -0.9421501   0.2842650
0.0236778    -0.9989367  -0.0000394  -0.0000235   0.0000549   0.0000026  -0.0000065  -0.9421274   0.2843437
0.0239689    -1.0011994  -0.0004959   0.0000953   0.0000695  -0.0000034  -0.0000028  -0.9431943   0.2849166
0.0242635    -0.9989679  -0.0000847   0.0000150   0.0000299   0.0000020  -0.0000015  -0.9421554   0.2844378
0.0245618    -0.9989563  -0.0000454   0.0000310   0.0000470  -0.0000175  -0.0000006  -0.9420997   0.2845678
0.0248637    -0.9989006  -0.0001708  -0.0000139   0.0000451  -0.0000010  -0.0000011  -0.9421057   0.2846436
0.0251694    -0.9991345  -0.0001279   0.0000077   0.0000868  -0.0000045  -0.0000092  -0.9421237   0.2846718
0.0254788    -0.9988869  -0.0001448   0.0000171   0.0000752  -0.0000051  -0.0000060  -0.9420106   0.2847303
0.0257920    -0.9990475  -0.0001079   0.0000052   0.0000506   0.0000011  -0.0000116  -0.9420984   0.2848583
0.0261091    -0.9989934  -0.0001250   0.0000224   0.0000540   0.0000032  -0.0000093  -0.9419308   0.2848252
0.0264301    -0.9989491  -0.0001178  -0.0000077   0.0000491   0.0000051  -0.0000114  -0.9420806   0.2849199
0.0267550    -0.9988922  -0.0001523  -0.0000213   0.0000522  -0.0000017   0.0000036  -0.9419236   0.2849455
0.0270839    -0.9991456  -0.0001356   0.0000354   0.0001296  -0.0000150  -0.0000070  -0.9420152   0.2849370
0.0274168    -0.9989816  -0.0002120   0.0000300   0.0000602  -0.0000071  -0.0000091  -0.9419723   0.2849874
0.0277539    -0.9989568  -0.0002263  -0.0000178   0.0000811  -0.0000055  -0.0000124  -0.9418585   0.2850718
0.0280951    -0.9988305  -0.0001263   0.0000177   0.0000897  -0.0000084  -0.0000131  -0.9418695   0.2851680
0.0284404    -0.9989940  -0.0001783  -0.0000008   0.0000327  -0.0000050  -0.0000027  -0.9418926   0.2852433
0.0287901    -0.9989783  -0.0000420   0.0000028   0.0001036  -0.0000104  -0.0000071  -0.9419360   0.2851845
0.0291440    -0.9989904  -0.0000910  -0.0000008   0.0000910   0.0000046  -0.0000088  -0.9418947   0.2853351
0.0295023    -0.9989555  -0.0001482   0.0000150   0.0001106   0.0000158   0.0000033  -0.9418181   0.2853636
0.0298649    -0.9990862  -0.0001720   0.0000100   0.0000649   0.0000090  -0.0000008  -0.9418149   0.2853996
0.0302321    -0.9989687  -0.0003020  -0.0000026   0.0000648   0.0000043  -0.0000058  -0.9417208   0.2854923
0.0306037    -0.9988778  -0.0001597  -0.0000176   0.0000874  -0.0000045  -0.0000008  -0.9417143   0.2855678
0.0309799    -0.9989929  -0.0001741   0.0000362   0.0000363  -0.0000045   0.0000013  -0.9418265   0.2855831
0.0313608    -0.9990268  -0.0000832  -0.0000423  -0.0000526   0.0000041  -0.0000197  -0.9417779   0.2856653
0.0317463    -0.9989272  -0.0001339  -0.0000523   0.0000605  -0.0000047   0.0000050  -0.9416988   0.2857371
0.0321366    -0.9990513  -0.0001959   0.0000537   0.0000931   0.0000041  -0.0000031  -0.9417880   0.2857474
0.0325316    -0.9989784  -0.0001467  -0.0000409   0.0000606   0.0000030  -0.0000159  -0.9416747   0.2858300
0.0329316    -0.9988904  -0.0000819   0.0000363   0.0000950   0.0000071  -0.0000175  -0.9416642   0.2859160
0.0333364    -0.9989462  -0.0001753   0.0000527  -0.0000096   0.0000033  -0.0000037  -0.9416956   0.2859965
0.0337462    -0.9989749  -0.0001018  -0.0000474   0.0000005   0.0000003   0.0000066  -0.9415459   0.2858363
0.0341610    -0.9989981  -0.0001728   0.0000175   0.0001204   0.0000031  -0.0000018  -0.9415890   0.2860550
0.0345810    -0.9990003  -0.0001509   0.0000365   0.0000498   0.0000025  -0.0000054  -0.9415994   0.2860402
0.0350061    -0.9989659  -0.0000827  -0.0000264   0.0000660   0.0000041   0.0000028  -0.9416480   0.2861025
0.0354365    -0.9990995  -0.0000631  -0.0000061   0.0000959   0.0000008  -0.0000113  -0.9415532   0.2862356
0.0358721    -0.9990068  -0.0002536   0.0000697   0.0000539   0.0000027   0.0000040  -0.9415274   0.2861881
0.0363131    -0.9989177  -0.0001249  -0.0000185   0.0001228  -0.0000035  -0.0000022  -0.9415787   0.2862180
0.0367595    -0.9990253  -0.0001586   0.0000851  -0.0000132  -0.0000029  -0.0000134  -0.9414277   0.2863980
0.0372114    -0.9989159  -0.0000270  -0.0000132   0.0001063   0.0000021  -0.0000147  -0.9414660   0.2864445
0.0376688    -0.9989535  -0.0001946   0.0000539   0.0001099  -0.0000015  -0.0000004  -0.9414265   0.2864517
0.0381319    -0.9990080  -0.0002991   0.0000369  -0.0000240  -0.0000009  -0.0000148  -0.9414994   0.2864761
0.0386006    -0.9990064  -0.0000423   0.0000797  -0.0000306  -0.0000001  -0.0000062  -0.9414738   0.2866139
0.0390752    -0.9988820  -0.0002006   0.0000685   0.0000506   0.0000058  -0.0000044  -0.9413666   0.2865701
0.0395555    -0.9989855  -0.0000938  -0.0000203   0.0001121  -0.0000018  -0.0000008  -0.9413887   0.2866159
0.0400418    -0.9989509  -0.0001669   0.0000166  -0.0000096  -0.0000059  -0.0000090  -0.9414225   0.2867169
0.0405340    -0.9990501  -0.0002040  -0.0000032   0.0000667   0.0000032  -0.0000083  -0.9413678   0.2866962
0.0410323    -0.9989776  -0.0001806   0.0000300   0.0000405   0.0000113  -0.0000063  -0.9412536   0.2867964
0.0415368    -0.9988642  -0.0001343   0.0000227   0.0000749  -0.0000101   0.0000046  -0.9413906   0.2868516
0.0420474    -0.9989766  -0.0001633   0.0000238   0.0000916  -0.0000032  -0.0000059  -0.9413047   0.2867908
0.0425643    -0.9990403  -0.0001831   0.0000027   0.0000500   0.0000041  -0.0000041  -0.9412317   0.2868349
0.0430875    -0.9989844  -0.0002604  -0.0000210   0.0000349   0.0000041  -0.0000004  -0.9413051   0.2869693
0.0436172    -0.9989427  -0.0000674  -0.0000370   0.0000467  -0.0000077  -0.0000074  -0.9412355   0.2870156
0.0441534    -0.9989922  -0.0002574  -0.0000040   0.0000659   0.0000004  -0.0000073  -0.9411886   0.2871031
0.0446962    -0.9990323  -0.0000310   0.0000199   0.0000454  -0.0000045  -0.0000057  -0.9411981   0.2871376
0.0452457    -0.9988885  -0.0001559   0.0000091   0.0000711   0.0000028  -0.0000074  -0.9411458   0.2871384
0.0458019    -0.9989755  -0.0002459  -0.0000275   0.0000733   0.0000017  -0.0000085  -0.9411226   0.2871739
0.0463649    -0.9988446  -0.0001934   0.0000454   0.0000630   0.0000098   0.0000013  -0.9410879   0.2872438
0.0469349    -0.9989985  -0.0002094   0.0000274   0.0000691  -0.0000076  -0.0000056  -0.9410962   0.2873527
0.0475119    -0.9989641  -0.0002621   0.0000403   0.0000580   0.0000017  -0.0000071  -0.9410704   0.2873649
0.0480960    -0.9988566  -0.0001513   0.0000175   0.0000635  -0.0000044  -0.0000019  -0.9409973   0.2874680
0.0486872    -0.9990742  -0.0001601   0.0000277   0.0000494  -0.0000129  -0.0000110  -0.9409651   0.2874875
0.0492857    -0.9990472  -0.0001949  -0.0000003   0.0000946  -0.0000002  -0.0000042  -0.9409461   0.2875644
0.0498916    -0.9989108  -0.0001211   0.0000314   0.0000918  -0.0000045  -0.0000018  -0.9408737   0.2876173
0.0505050    -0.9989445  -0.0001678  -0.0000620   0.0000775  -0.0000103  -0.0000166  -0.9409469   0.2876108
0.0511258    -0.9989855  -0.0002503  -0.0000232   0.0000867  -0.0000017  -0.0000074  -0.9409396   0.2877756
0.0517543    -0.9990698  -0.0001500  -0.0000050   0.0000113  -0.0000078  -0.0000062  -0.9409543   0.2877150
0.0523906    -0.9990416  -0.0001707   0.0000202   0.0000219   0.0000057  -0.0000072  -0.9408638   0.2877875
0.0530346    -0.9989185  -0.0000775   0.0000329   0.0000540   0.0000032  -0.0000115  -0.9408033   0.2878187
0.0536866    -0.9990040  -0.0001571  -0.0000152   0.0000344  -0.0000095  -0.0000167  -0.9408350   0.2878571
0.0543466    -0.9989760  -0.0002654  -0.0000051   0.0000173  -0.0000052  -0.0000006  -0.9407425   0.2878680
0.0550146    -0.9990424  -0.0001067   0.0000561   0.0000663  -0.0000055  -0.0000045  -0.9407686   0.2879192
0.0556910    -0.9989105  -0.0002274  -0.0000284   0.0000661  -0.0000121  -0.0000102  -0.9406990   0.2879734
0.0563756    -0.9988733  -0.0002628  -0.0000256   0.0000448   0.0000018  -0.0000108  -0.9407175   0.2881117
0.0570686    -0.9989700  -0.0001350   0.0000363   0.0000109   0.0000006  -0.0000166  -0.9406780   0.2881488
0.0577702    -0.9990166  -0.0000788   0.0000351   0.0000338  -0.0000013  -0.0000054  -0.9406106   0.2882546
0.0584804    -0.9989727  -0.0001529   0.0000163   0.0001090   0.0000011  -0.0000075  -0.9405687   0.2881916
0.0591993    -0.9990034  -0.0002073   0.0000384   0.0000607   0.0000087   0.0000003  -0.9405477   0.2882490
0.0599270    -0.9989128  -0.0002215  -0.0000092   0.0000516   0.0000084  -0.0000020  -0.9406534   0.2883762
0.0606637    -0.9989268  -0.0001417   0.0000044   0.0000627  -0.0000008  -0.0000084  -0.9404613   0.2883609
0.0614095    -0.9990378  -0.0002190   0.0000059   0.0000848  -0.0000130   0.0000009  -0.9405219   0.2883972
0.0621644    -0.9989564  -0.0000877   0.0000018   0.0000573  -0.0000010  -0.0000074  -0.9405535   0.2885076
0.0629286    -0.9989944  -0.0002020  -0.0000015   0.0000582  -0.0000052  -0.0000012  -0.9404398   0.2884878
0.0637022    -0.9989430  -0.0002485   0.0000069   0.0000427   0.0000020  -0.0000046  -0.9403573   0.2886245
0.0644853    -0.9989947  -0.0002657  -0.0000205   0.0000463  -0.0000014  -0.0000039  -0.9404157   0.2886764
0.0652780    -0.9989386  -0.0001897  -0.0000155   0.0000945   0.0000039  -0.0000084  -0.9403190   0.2886986
0.0660805    -0.9990313  -0.0002253   0.0000178   0.0000801  -0.0000050  -0.0000067  -0.9402917   0.2888275
0.0668928    -0.9990577  -0.0001701   0.0000129   0.0000566  -0.0000128  -0.0000122  -0.9402203   0.2888212
0.0677152    -0.9989801  -0.0001877   0.0000314   0.0000236   0.0000000  -0.0000112  -0.9402024   0.2888230
0.0685476    -0.9989782  -0.0001277   0.0000040   0.0000737  -0.0000072  -0.0000117  -0.9401862   0.2888922
0.0693903    -0.9989920  -0.0001863   0.0000099   0.0000905  -0.0000004  -0.0000041  -0.9401122   0.2890172
0.0702433    -0.9990448  -0.0002442   0.0000121   0.0000487  -0.0000029   0.0000041  -0.9401311   0.2890242
0.0711068    -0.9989006  -0.0001677   0.0000133   0.0000530   0.0000037  -0.0000059  -0.9400895   0.2890692
0.0719810    -0.9989557  -0.0001949   0.0000150   0.0000489  -0.0000091   0.0000050  -0.9400307   0.2890734
0.0728659    -0.9989021  -0.0003482  -0.0000040   0.0000658   0.0000052  -0.0000014  -0.9399982   0.2891921
0.0737616    -0.9989820  -0.0002635  -0.0000932   0.0000665  -0.0000012   0.0000004  -0.9399166   0.2892475
0.0746684    -0.9990150  -0.0002340  -0.0000062   0.0000752   0.0000073  -0.0000086  -0.9399425   0.2892933
0.0755863    -0.9989774  -0.0003049   0.0000010   0.0000558  -0.0000051  -0.0000018  -0.9398644   0.2893296
0.0765155    -0.9990401  -0.0002074  -0.0000489   0.0000276  -0.0000040  -0.0000102  -0.9398543   0.2893451
0.0774561    -0.9990421  -0.0002939  -0.0000387   0.0000493   0.0000021  -0.0000132  -0.9397228   0.2894283
0.0784083    -0.9990336  -0.0001908  -0.0000233   0.0001024   0.0000033   0.0000006  -0.9396576   0.2894038
0.0793722    -0.9987512  -0.0003856  -0.0000010   0.0000707  -0.0000042  -0.0000104  -0.9396161   0.2895158
0.0803479    -0.9989559  -0.0002891   0.0000023   0.0001073   0.0000014  -0.0000099  -0.9396115   0.2895176
0.0813357    -0.9989082  -0.0002917   0.0000078   0.0000501  -0.0000006  -0.0000007  -0.9394970   0.2895606
0.0823356    -0.9989879  -0.0003081   0.0000047   0.0000853  -0.0000053  -0.0000076  -0.9394075   0.2896695
0.0833477    -0.9989848  -0.0002867   0.0000095   0.0001152   0.0000061  -0.0000029  -0.9393761   0.2896456
0.0843723    -0.9990576  -0.0002473   0.0000022   0.0000957   0.0000086  -0.0000037  -0.9393115   0.2897923
0.0854095    -0.9990998  -0.0003053  -0.0000511   0.0000751  -0.0000026  -0.0000074  -0.9392051   0.2896720
0.0864595    -0.9991339  -0.0003430   0.0000014   0.0001121  -0.0000029   0.0000073  -0.9391912   0.2898053
0.0875224    -0.9989662  -0.0003211  -0.0000368   0.0001214   0.0000034  -0.0000104  -0.9391330   0.2897833
0.0885983    -0.9989888  -0.0003506  -0.0000250   0.0000481  -0.0000022  -0.0000038  -0.9390844   0.2898074
0.0896875    -0.9989416  -0.0003199   0.0000069   0.0000920   0.0000089  -0.0000091  -0.9389901   0.2898603
0.0907900    -0.9988619  -0.0004050   0.0000176   0.0000776  -0.0000058  -0.0000009  -0.9389029   0.2897670
0.0919061    -0.9991078  -0.0002481   0.0000071   0.0000512   0.0000026   0.0000009  -0.9387465   0.2898359
0.0930359    -0.9989367  -0.0003945   0.0000227   0.0001123   0.0000012   0.0000016  -0.9387368   0.2897206
0.0941797    -0.9988123  -0.0004421   0.0000367   0.0001469   0.0000025   0.0000095  -0.9386642   0.2897788
0.0953374    -0.9989378  -0.0002902   0.0000228   0.0000848  -0.0000047   0.0000036  -0.9386589   0.2896874
0.0965094    -0.9989686  -0.0003703  -0.0000345   0.0000846   0.0000008  -0.0000022  -0.9385277   0.2897067
0.0976959    -0.9989446  -0.0004957  -0.0000478   0.0001107   0.0000064  -0.0000051  -0.9385353   0.2896980
0.0988969    -0.9989787  -0.0006325  -0.0000613   0.0001250  -0.0000068  -0.0000015  -0.9384663   0.2896201
0.1001126    -0.9989338  -0.0004486  -0.0000143   0.0001505  -0.0000042  -0.0000113  -0.9384273   0.2896009
0.1013433    -0.9990297  -0.0003474  -0.0000031   0.0001022  -0.0000066  -0.0000005  -0.9384162   0.2895283
0.1025892    -0.9989085  -0.0003972  -0.0000486   0.0000910  -0.0000089  -0.0000156  -0.9383242   0.2894642
0.1038503    -0.9989664  -0.0004880  -0.0000219   0.0001352  -0.0000061   0.0000026  -0.9383898   0.2893628
0.1051270    -0.9989934  -0.0004016  -0.0000237   0.0001236  -0.0000042   0.0000032  -0.9384645   0.2893710
0.1064193    -0.9989971  -0.0005430  -0.0000567   0.0001373  -0.0000009  -0.0000043  -0.9385210   0.2892712
0.1077276    -0.9989641  -0.0003888  -0.0000203   0.0001344  -0.0000010   0.0000042  -0.9385561   0.2893075
0.1090519    -0.9990776  -0.0004541  -0.0000344   0.0001034   0.0000081   0.0000023  -0.9386699   0.2891948
0.1103925    -0.9991200  -0.0003929   0.0000092   0.0001253  -0.0000053  -0.0000082  -0.9386504   0.2892372
0.1117496    -0.9990442  -0.0004540  -0.0000383   0.0001198   0.0000070  -0.0000009  -0.9387449   0.2892651
0.1131233    -0.9991022  -0.0004510  -0.0000706   0.0001373  -0.0000109  -0.0000063  -0.9388706   0.2892237
0.1145140    -0.9991588  -0.0005407  -0.0000062   0.0001366  -0.0000020  -0.0000139  -0.9389367   0.2893050
0.1159217    -0.9990362  -0.0004713  -0.0000336   0.0001098  -0.0000058  -0.0000006  -0.9389502   0.2893045
0.1173468    -0.9991025  -0.0004745  -0.0000195   0.0001138   0.0000043  -0.0000100  -0.9390159   0.2893834
0.1187893    -0.9992038  -0.0004854  -0.0000345   0.0001411  -0.0000015  -0.0000112  -0.9391408   0.2894386
0.1202497    -0.9990696  -0.0005361  -0.0000184   0.0001240  -0.0000076  -0.0000202  -0.9391425   0.2894774
0.1217279    -0.9990582  -0.0004562   0.0000024   0.0001441   0.0000047   0.0000067  -0.9391774   0.2895602
0.1232243    -0.9990847  -0.0003858  -0.0000481   0.0001494  -0.0000059  -0.0000097  -0.9393238   0.2897100
0.1247392    -0.9990873  -0.0003470  -0.0000484   0.0001579  -0.0000005  -0.0000021  -0.9393441   0.2897610
0.1262726    -0.9990404  -0.0004055   0.0000396   0.0001486  -0.0000082  -0.0000107  -0.9393835   0.2898578
0.1278249    -0.9991316  -0.0004615  -0.0000218   0.0001624  -0.0000011  -0.0000062  -0.9393711   0.2899272
0.1293963    -0.9989501  -0.0003485  -0.0000174   0.0001341  -0.0000038  -0.0000042  -0.9394349   0.2900448
0.1309870    -0.9991166  -0.0004875  -0.0000385   0.0001309   0.0000004  -0.0000140  -0.9394403   0.2901690
0.1325973    -0.9991407  -0.0004807  -0.0000386   0.0001611  -0.0000006   0.0000020  -0.9394429   0.2901727
0.1342273    -0.9991492  -0.0004592   0.0000221   0.0001464  -0.0000030  -0.0000066  -0.9395119   0.2902830
0.1358774    -0.9990642  -0.0004992  -0.0000223   0.0001679  -0.0000045   0.0000028  -0.9394840   0.2904587
0.1375478    -0.9989662  -0.0004433  -0.0000301   0.0001837   0.0000041  -0.0000011  -0.9395102   0.2904983
0.1392387    -0.9989649  -0.0004164  -0.0000467   0.0001796  -0.0000016  -0.0000030  -0.9394896   0.2906542
0.1409504    -0.9990583  -0.0004946  -0.0000298   0.0001653  -0.0000098  -0.0000030  -0.9395416   0.2907525
0.1426831    -0.9990155  -0.0004680  -0.0000208   0.0001475  -0.0000051  -0.0000032  -0.9395182   0.2907696
0.1444371    -0.9991094  -0.0005255  -0.0000236   0.0001749   0.0000040  -0.0000025  -0.9394529   0.2909111
0.1462127    -0.9991465  -0.0004671  -0.0000303   0.0001796   0.0000011  -0.0000080  -0.9395321   0.2910522
0.1480102    -0.9990547  -0.0004034   0.0000346   0.0001595  -0.0000016  -0.0000117  -0.9394888   0.2911476
0.1498297    -0.9990362  -0.0005433  -0.0000303   0.0001870  -0.0000046   0.0000006  -0.9394295   0.2911965
0.1516716    -0.9991265  -0.0004660  -0.0000557   0.0001680  -0.0000031   0.0000037  -0.9394114   0.2913293
0.1535361    -0.9989860  -0.0004414  -0.0000393   0.0001395  -0.0000056  -0.0000089  -0.9394468   0.2914228
0.1554236    -0.9990085  -0.0005331  -0.0000416   0.0001792   0.0000006   0.0000022  -0.9394299   0.2915906
0.1573342    -0.9989622  -0.0005470  -0.0000099   0.0001860  -0.0000109  -0.0000090  -0.9393141   0.2916879
0.1592684    -0.9991173  -0.0005972  -0.0000438   0.0001652   0.0000048   0.0000032  -0.9394186   0.2917255
0.1612263    -0.9990395  -0.0005665  -0.0000502   0.0002020   0.0000049  -0.0000010  -0.9393069   0.2918717
0.1632083    -0.9991290  -0.0005608  -0.0000664   0.0001593   0.0000052  -0.0000046  -0.9393931   0.2919294
0.1652147    -0.9991103  -0.0005407  -0.0000721   0.0002098  -0.0000054   0.0000015  -0.9392935   0.2920767
0.1672457    -0.9990252  -0.0005528  -0.0000329   0.0001932   0.0000058  -0.0000092  -0.9392819   0.2921465
0.1693017    -0.9991717  -0.0005708  -0.0000394   0.0002137  -0.0000093  -0.0000026  -0.9392562   0.2921591
0.1713829    -0.9990559  -0.0004905  -0.0000593   0.0001944  -0.0000062  -0.0000029  -0.9392212   0.2923577
0.1734898    -0.9990514  -0.0005520  -0.0000613   0.0002228  -0.0000008   0.0000005  -0.9391912   0.2923584
0.1756225    -0.9990653  -0.0005438  -0.0000621   0.0002181   0.0000067  -0.0000024  -0.9391699   0.2925539
0.1777815    -0.9990670  -0.0006321  -0.0000474   0.0002178  -0.0000031  -0.0000086  -0.9390592   0.2925714
0.1799670    -0.9992362  -0.0006035  -0.0000320   0.0002045  -0.0000053  -0.0000102  -0.9390654   0.2927581
0.1821794    -0.9990532  -0.0006382  -0.0000130   0.0002137   0.0000027  -0.0000042  -0.9390483   0.2928551
0.1844190    -0.9991715  -0.0004223  -0.0000285   0.0002331  -0.0000014  -0.0000113  -0.9391059   0.2929285
0.1866861    -0.9991017  -0.0004978  -0.0000517   0.0002131  -0.0000025  -0.0000085  -0.9389236   0.2930493
0.1889811    -0.9991375  -0.0005734  -0.0000360   0.0002213  -0.0000052  -0.0000045  -0.9389341   0.2931909
0.1913043    -0.9991437  -0.0006588  -0.0000363   0.0002315  -0.0000022  -0.0000077  -0.9389398   0.2931881
0.1936560    -0.9990254  -0.0006476  -0.0000587   0.0002482  -0.0000029   0.0000011  -0.9388743   0.2934055
0.1960367    -0.9992454  -0.0007169  -0.0000448   0.0002316  -0.0000034  -0.0000113  -0.9388666   0.2935421
0.1984466    -0.9991452  -0.0006547  -0.0000833   0.0001964  -0.0000069  -0.0000007  -0.9388003   0.2935264
0.2008861    -0.9990718  -0.0005799  -0.0000492   0.0002265  -0.0000035  -0.0000135  -0.9388468   0.2937072
0.2033557    -0.9991078  -0.0006278  -0.0000442   0.0002388  -0.0000017  -0.0000072  -0.9388149   0.2937507
0.2058556    -0.9991535  -0.0006106  -0.0000573   0.0002508   0.0000063  -0.0000012  -0.9386165   0.2938308
0.2083862    -0.9990169  -0.0006960  -0.0000362   0.0002850  -0.0000007  -0.0000098  -0.9386430   0.2939738
0.2109480    -0.9991208  -0.0005808  -0.0000553   0.0002619  -0.0000041   0.0000037  -0.9386125   0.2940661
0.2135412    -0.9990915  -0.0006216  -0.0000387   0.0002645   0.0000026  -0.0000099  -0.9385548   0.2941996
0.2161663    -0.9991128  -0.0006908  -0.0000419   0.0002686   0.0000069  -0.0000061  -0.9385860   0.2942747
0.2188237    -0.9990726  -0.0006547  -0.0000389   0.0002525  -0.0000015  -0.0000051  -0.9385893   0.2944157
0.2215137    -0.9991576  -0.0006408  -0.0000502   0.0002792  -0.0000176  -0.0000081  -0.9384733   0.2944849
0.2242369    -0.9991745  -0.0006382  -0.0000524   0.0003003  -0.0000093  -0.0000156  -0.9383799   0.2946712
0.2269935    -0.9991470  -0.0007324  -0.0000592   0.0002853  -0.0000070  -0.0000102  -0.9383557   0.2947396
0.2297839    -0.9991970  -0.0006588  -0.0000697   0.0003020   0.0000008  -0.0000095  -0.9383288   0.2948782
0.2326087    -0.9991046  -0.0007626  -0.0000360   0.0002790  -0.0000072  -0.0000042  -0.9383012   0.2949777
0.2354682    -0.9990037  -0.0007670  -0.0000404   0.0003046   0.0000062  -0.0000025  -0.9382314   0.2950852
0.2383629    -0.9991056  -0.0007757  -0.0000406   0.0002927   0.0000095  -0.0000077  -0.9382402   0.2951383
0.2412932    -0.9991201  -0.0006924  -0.0000277   0.0003074  -0.0000204  -0.0000146  -0.9381400   0.2952565
0.2442594    -0.9991700  -0.0008355  -0.0000452   0.0003001  -0.0000093   0.0000065  -0.9381314   0.2954319
0.2472622    -0.9991119  -0.0007560  -0.0000407   0.0002740  -0.0000034  -0.0000044  -0.9381191   0.2955686
0.2503018    -0.9991182  -0.0007920  -0.0000580   0.0003018  -0.0000125  -0.0000093  -0.9379876   0.2957517
0.2533788    -0.9990865  -0.0007347  -0.0000298   0.0003289  -0.0000040   0.0000031  -0.9379655   0.2957465
0.2564937    -0.9991160  -0.0007548  -0.0000449   0.0003526  -0.0000017  -0.0000116  -0.9379517   0.2958429
0.2596468    -0.9990297  -0.0007472  -0.0000210   0.0003421  -0.0000103  -0.0000019  -0.9378675   0.2960615
0.2628387    -0.9992479  -0.0007303  -0.0000452   0.0003321   0.0000019   0.0000031  -0.9378421   0.2962113
0.2660699    -0.9990167  -0.0008351  -0.0000455   0.0003273   0.0000030  -0.0000001  -0.9377637   0.2962477
0.2693407    -0.9990999  -0.0008904  -0.0000508   0.0003485   0.0000029   0.0000017  -0.9376920   0.2964796
0.2726518    -0.9991159  -0.0007772  -0.0000616   0.0003242   0.0000098  -0.0000065  -0.9376563   0.2965318
0.2760036    -0.9991064  -0.0008573  -0.0000455   0.0003379  -0.0000009  -0.0000004  -0.9376370   0.2967253
0.2793966    -0.9991114  -0.0008084  -0.0000424   0.0003636   0.0000015  -0.0000069  -0.9375655   0.2967840
0.2828312    -0.9991295  -0.0008505  -0.0000515   0.0003576  -0.0000054  -0.0000065  -0.9375553   0.2969881
0.2863082    -0.9992393  -0.0008553  -0.0000455   0.0003546  -0.0000069  -0.0000156  -0.9374514   0.2970842
0.2898278    -0.9992624  -0.0009689  -0.0000496   0.0003828   0.0000011  -0.0000148  -0.9373987   0.2972562
0.2933907    -0.9991360  -0.0007713  -0.0000228   0.0003954  -0.0000071  -0.0000110  -0.9374491   0.2973166
0.2969975    -0.9992325  -0.0009483  -0.0000254   0.0003751   0.0000025  -0.0000002  -0.9373918   0.2974570
0.3006485    -0.9991463  -0.0008665  -0.0000182   0.0004053  -0.0000037  -0.0000003  -0.9372446   0.2976492
0.3043445    -0.9991719  -0.0008823  -0.0000177   0.0003735   0.0000030  -0.0000090  -0.9372233   0.2977212
0.3080858    -0.9992954  -0.0009571  -0.0000354   0.0003732   0.0000008  -0.0000047  -0.9371217   0.2978439
0.3118732    -0.9992566  -0.0008079  -0.0000550   0.0003834  -0.0000029  -0.0000037  -0.9370846   0.2981255
0.3157071    -0.9991095  -0.0009564  -0.0000359   0.0003927   0.0000001  -0.0000051  -0.9369519   0.2981806
0.3195882    -0.9991253  -0.0009750  -0.0000409   0.0004056  -0.0000056  -0.0000075  -0.9369621   0.2983713
0.3235170    -0.9991170  -0.0009175  -0.0000143   0.0004061   0.0000005  -0.0000101  -0.9368877   0.2985743
0.3274941    -0.9991548  -0.0009951  -0.0000548   0.0004109  -0.0000171  -0.0000030  -0.9368245   0.2986018
0.3315200    -0.9992542  -0.0010451  -0.0000458   0.0004262  -0.0000011  -0.0000002  -0.9366881   0.2987612
0.3355955    -0.9993060  -0.0009302  -0.0000220   0.0004133   0.0000024  -0.0000098  -0.9367534   0.2988743
0.3397210    -0.9991921  -0.0010134  -0.0000449   0.0004193  -0.0000033  -0.0000140  -0.9366286   0.2991156
0.3438973    -0.9992039  -0.0009906  -0.0000918   0.0004084   0.0000025  -0.0000018  -0.9365542   0.2991742
0.3481249    -0.9991882  -0.0010464  -0.0000447   0.0004244  -0.0000090  -0.0000003  -0.9365513   0.2993079
0.3524045    -0.9992568  -0.0009662  -0.0000400   0.0004503   0.0000071  -0.0000049  -0.9364981   0.2994654
0.3567367    -0.9993192  -0.0010959  -0.0000244   0.0004516   0.0000048  -0.0000006  -0.9364733   0.2996630
0.3611221    -0.9992069  -0.0010573  -0.0000576   0.0004443  -0.0000009  -0.0000053  -0.9363157   0.2998125
0.3655615    -0.9991948  -0.0010082  -0.0000235   0.0004693   0.0000008   0.0000035  -0.9362350   0.2999891
0.3700554    -0.9992917  -0.0010356  -0.0000317   0.0004702  -0.0000078   0.0000013  -0.9361766   0.3001423
0.3746046    -0.9992430  -0.0011490  -0.0000406   0.0004905  -0.0000074   0.0000052  -0.9360952   0.3002810
0.3792097    -0.9993119  -0.0010904  -0.0000344   0.0004728   0.0000027  -0.0000014  -0.9360310   0.3005167
0.3838714    -0.9992925  -0.0010165  -0.0000353   0.0004870  -0.0000147   0.0000006  -0.9360487   0.3006684
0.3885905    -0.9991963  -0.0011084  -0.0000587   0.0004778   0.0000014  -0.0000025  -0.9359445   0.3008066
0.3933675    -0.9992337  -0.0012653  -0.0000747   0.0005124  -0.0000064  -0.0000079  -0.9358374   0.3010662
0.3982033    -0.9993211  -0.0012647  -0.0000202   0.0005093   0.0000045  -0.0000028  -0.9357388   0.3011775
0.4030985    -0.9992318  -0.0011738  -0.0000339   0.0005196  -0.0000013  -0.0000019  -0.9356822   0.3013380
0.4080538    -0.9992819  -0.0012005  -0.0000305   0.0005062   0.0000088  -0.0000011  -0.9356213   0.3015114
0.4130701    -0.9994414  -0.0012632  -0.0000345   0.0005240  -0.0000030  -0.0000011  -0.9354990   0.3017008
0.4181481    -0.9993028  -0.0012141  -0.0000479   0.0005240  -0.0000217  -0.0000123  -0.9354835   0.3019167
0.4232885    -0.9992893  -0.0010696  -0.0000293   0.0005267   0.0000013  -0.0000042  -0.9353929   0.3020374
0.4284921    -0.9992584  -0.0012106  -0.0000475   0.0004987   0.0000050  -0.0000019  -0.9353126   0.3021829
0.4337597    -0.9992468  -0.0011791  -0.0000129   0.0005531  -0.0000025  -0.0000129  -0.9351899   0.3024178
0.4390920    -0.9992313  -0.0011953  -0.0000342   0.0005560   0.0000014  -0.0000040  -0.9351455   0.3026475
0.4444898    -0.9993939  -0.0012505  -0.0000581   0.0005591   0.0000003  -0.0000071  -0.9350953   0.3028394
0.4499541    -0.9993714  -0.0012438  -0.0000286   0.0005593   0.0000018   0.0000071  -0.9349420   0.3029515
0.4554854    -0.9992610  -0.0012047  -0.0000268   0.0005792  -0.0000024   0.0000004  -0.9349191   0.3031716
0.4610848    -0.9992523  -0.0012253  -0.0000359   0.0005808   0.0000036  -0.0000010  -0.9347462   0.3034583
0.4667531    -0.9994222  -0.0012958  -0.0000262   0.0005877  -0.0000048  -0.0000122  -0.9347264   0.3035858
0.4724910    -0.9994479  -0.0014151  -0.0000162   0.0005957   0.0000114  -0.0000039  -0.9345766   0.3037551
0.4782994    -0.9993623  -0.0013722  -0.0000749   0.0006118  -0.0000062  -0.0000052  -0.9345650   0.3040264
0.4841793    -0.9992316  -0.0013732  -0.0000765   0.0006356   0.0000106   0.0000023  -0.9344129   0.3041643
0.4901314    -0.9991806  -0.0013826  -0.0000218   0.0005945   0.0000062  -0.0000086  -0.9344641   0.3044346
0.4961567    -0.9993282  -0.0014630  -0.0000264   0.0006065  -0.0000058  -0.0000014  -0.9343045   0.3046205
0.5022561    -0.9992911  -0.0013610  -0.0000213   0.0006123  -0.0000017  -0.0000053  -0.9341865   0.3048411
0.5084304    -0.9993002  -0.0012834  -0.0000467   0.0006228  -0.0000013  -0.0000019  -0.9340425   0.3051119
0.5146807    -0.9993202  -0.0014229  -0.0000597   0.0006040  -0.0000092  -0.0000063  -0.9339961   0.3052493
0.5210078    -0.9993653  -0.0013819  -0.0000535   0.0006681   0.0000043  -0.0000041  -0.9338725   0.3054744
0.5274126    -0.9992970  -0.0014117  -0.0000355   0.0006716  -0.0000064  -0.0000075  -0.9338402   0.3057256
0.5338963    -0.9993881  -0.0014117  -0.0000348   0.0006703   0.0000003   0.0000057  -0.9337405   0.3059158
0.5404596    -0.9992858  -0.0014604  -0.0000361   0.0006431  -0.0000084   0.0000050  -0.9336710   0.3062319
0.5471036    -0.9992873  -0.0014348  -0.0000416   0.0006837  -0.0000094  -0.0000065  -0.9335276   0.3063257
0.5538292    -0.9994186  -0.0015141  -0.0000397   0.0006802   0.0000020  -0.0000054  -0.9334165   0.3066357
0.5606376    -0.9994511  -0.0014159  -0.0000279   0.0006863  -0.0000026  -0.0000073  -0.9332411   0.3068205
0.5675297    -0.9993636  -0.0015701  -0.0000473   0.0006992  -0.0000022  -0.0000028  -0.9331879   0.3071370
0.5745064    -0.9993505  -0.0015193  -0.0000377   0.0007032   0.0000018   0.0000011  -0.9330557   0.3073340
0.5815690    -0.9993054  -0.0015563  -0.0000085   0.0007352   0.0000020   0.0000047  -0.9330523   0.3075216
0.5887183    -0.9993680  -0.0015293  -0.0000296   0.0007103  -0.0000109  -0.0000114  -0.9328489   0.3077647
0.5959556    -0.9994135  -0.0016592  -0.0000293   0.0007283  -0.0000057  -0.0000093  -0.9327533   0.3080503
0.6032818    -0.9993458  -0.0015412  -0.0000354   0.0007414  -0.0000051  -0.0000031  -0.9326622   0.3083318
0.6106981    -0.9993122  -0.0016268  -0.0000235   0.0007546   0.0000033  -0.0000101  -0.9325332   0.3086434
0.6182056    -0.9992795  -0.0016434  -0.0000257   0.0007535   0.0000045  -0.0000047  -0.9324797   0.3087512
0.6258053    -0.9993625  -0.0016308  -0.0000487   0.0007576  -0.0000036   0.0000009  -0.9323100   0.3090988
0.6334985    -0.9993218  -0.0016123  -0.0000506   0.0007907   0.0000043  -0.0000057  -0.9322906   0.3093580
0.6412862    -0.9993187  -0.0016425  -0.0000339   0.0007921  -0.0000087  -0.0000039  -0.9320162   0.3096498
0.6491697    -0.9994507  -0.0017233  -0.0000309   0.0007910  -0.0000025   0.0000017  -0.9320639   0.3099768
0.6571501    -0.9994173  -0.0017218  -0.0000448   0.0008054  -0.0000156  -0.0000076  -0.9318527   0.3101546
0.6652286    -0.9993608  -0.0017406  -0.0000559   0.0008131   0.0000013  -0.0000025  -0.9317385   0.3105023
0.6734064    -0.9993201  -0.0016732  -0.0000496   0.0008202  -0.0000007  -0.0000128  -0.9316249   0.3107810
0.6816848    -0.9994190  -0.0017584  -0.0000360   0.0008325  -0.0000108  -0.0000052  -0.9314518   0.3109770
0.6900649    -0.9994340  -0.0018327  -0.0000225   0.0008461  -0.0000001  -0.0000024  -0.9313558   0.3112493
0.6985480    -0.9993639  -0.0019107  -0.0000695   0.0008603  -0.0000011  -0.0000022  -0.9312130   0.3116300
0.7071355    -0.9993417  -0.0017738  -0.0000634   0.0009140   0.0000024  -0.0000047  -0.9311384   0.3119213
0.7158284    -0.9994010  -0.0018918  -0.0000502   0.0008796   0.0000018  -0.0000044  -0.9310515   0.3121998
0.7246283    -0.9994901  -0.0019289  -0.0000564   0.0008989  -0.0000065  -0.0000022  -0.9308397   0.3124587
0.7335363    -0.9994607  -0.0020232  -0.0000279   0.0008923   0.0000072  -0.0000030  -0.9308036   0.3127722
0.7425539    -0.9994410  -0.0018327  -0.0000234   0.0008969  -0.0000014  -0.0000051  -0.9306783   0.3131388
0.7516822    -0.9994497  -0.0019370  -0.0000288   0.0009290  -0.0000061   0.0000039  -0.9304417   0.3133883
0.7609229    -0.9993954  -0.0019731  -0.0000466   0.0009249  -0.0000108  -0.0000073  -0.9302693   0.3136903
0.7702771    -0.9993119  -0.0020247  -0.0000469   0.0009522   0.0000060  -0.0000118  -0.9301103   0.3139566
0.7797463    -0.9995111  -0.0018532  -0.0000824   0.0009952  -0.0000053  -0.0000039  -0.9299867   0.3143409
0.7893319    -0.9994745  -0.0019234  -0.0000170   0.0010782  -0.0000011  -0.0000039  -0.9298566   0.3146606
0.7990353    -0.9994680  -0.0020660  -0.0000452   0.0009975   0.0000108   0.0000006  -0.9297423   0.3149845
0.8088580    -0.9993874  -0.0020691  -0.0000367   0.0009835  -0.0000011  -0.0000043  -0.9295781   0.3153214
0.8188015    -0.9994475  -0.0021251  -0.0000324   0.0010237  -0.0000041  -0.0000032  -0.9294537   0.3156519
0.8288673    -0.9994565  -0.0021315  -0.0000098   0.0010034  -0.0000032  -0.0000065  -0.9292674   0.3159989
0.8390567    -0.9994326  -0.0022516  -0.0000387   0.0010176   0.0000029  -0.0000167  -0.9291964   0.3163791
0.8493714    -0.9995150  -0.0021178  -0.0000355   0.0010516   0.0000081  -0.0000012  -0.9290133   0.3166715
0.8598130    -0.9994086  -0.0021460  -0.0000282   0.0011216   0.0000073  -0.0000083  -0.9288463   0.3170546
0.8703829    -0.9996076  -0.0022300  -0.0000543   0.0010834   0.0000037  -0.0000044  -0.9286617   0.3173866
0.8810827    -0.9995111  -0.0022227  -0.0000672   0.0010995  -0.0000029  -0.0000054  -0.9285109   0.3178376
0.8919140    -0.9994980  -0.0022056  -0.0000449   0.0011121   0.0000023  -0.0000108  -0.9283561   0.3181357
0.9028786    -0.9994839  -0.0022367  -0.0000340   0.0011340  -0.0000092   0.0000004  -0.9281942   0.3185210
0.9139779    -0.9994833  -0.0022974  -0.0000466   0.0011458  -0.0000026  -0.0000067  -0.9280326   0.3189216
0.9252136    -0.9994911  -0.0022973  -0.0000503   0.0011283  -0.0000001  -0.0000139  -0.9278553   0.3192816
0.9365875    -0.9995272  -0.0023194  -0.0000269   0.0011488  -0.0000034   0.0000006  -0.9276938   0.3196557
0.9481012    -0.9994446  -0.0023141  -0.0000342   0.0011664  -0.0000017  -0.0000055  -0.9275186   0.3200543
0.9597564    -0.9994856  -0.0023527  -0.0000547   0.0011597  -0.0000017  -0.0000023  -0.9273121   0.3204456
0.9715549    -0.9994386  -0.0023724  -0.0000375   0.0012091  -0.0000036  -0.0000012  -0.9271461   0.3208858
0.9834985    -0.9995397  -0.0024275  -0.0000595   0.0011936  -0.0000065  -0.0000013  -0.9270109   0.3212321
0.9955889    -0.9995302  -0.0024111  -0.0000173   0.0012119  -0.0000032  -0.0000050  -0.9268638   0.3216050
1.0078279    -0.9995158  -0.0025516  -0.0000361   0.0012565   0.0000107  -0.0000079  -0.9265545   0.3220619
1.0202173    -0.9994715  -0.0024433  -0.0000492   0.0012470   0.0000011  -0.0000053  -0.9264578   0.3224213
1.0327591    -0.9995539  -0.0025336  -0.0000371   0.0012437  -0.0000039  -0.0000004  -0.9262505   0.3229331
1.0454551    -0.9994836  -0.0026090  -0.0000711   0.0012890   0.0000008  -0.0000101  -0.9260666   0.3233381
1.0583071    -0.9995497  -0.0025619  -0.0000377   0.0012947  -0.0000013   0.0000049  -0.9258682   0.3237213
1.0713171    -0.9993889  -0.0025709  -0.0000264   0.0013361  -0.0000064   0.0000018  -0.9255917   0.3241481
1.0844871    -0.9994554  -0.0025064  -0.0000194   0.0013454  -0.0000048   0.0000027  -0.9254617   0.3245377
1.0978189    -0.9995828  -0.0027574  -0.0000314   0.0013491   0.0000007   0.0000068  -0.9252756   0.3250599
1.1113147    -0.9994821  -0.0028297  -0.0000421   0.0013359  -0.0000006  -0.0000055  -0.9250334   0.3254274
1.1249763    -0.9995996  -0.0027748  -0.0000289   0.0013812  -0.0000013  -0.0000018  -0.9248774   0.3259905
1.1388059    -0.9995967  -0.0027347  -0.0000436   0.0013915  -0.0000019  -0.0000060  -0.9247198   0.3264517
1.1528056    -0.9995295  -0.0027200  -0.0000197   0.0014248  -0.0000044  -0.0000036  -0.9244583   0.3268988
1.1669773    -0.9996063  -0.0027420  -0.0000476   0.0014350  -0.0000009  -0.0000082  -0.9242727   0.3273953
1.1813232    -0.9994537  -0.0028283  -0.0000362   0.0014557  -0.0000031  -0.0000048  -0.9240773   0.3278585
1.1958455    -0.9995290  -0.0028862  -0.0000414   0.0014721   0.0000009   0.0000004  -0.9238039   0.3283554
1.2105463    -0.9995112  -0.0029615  -0.0000441   0.0014946  -0.0000031  -0.0000085  -0.9236208   0.3288517
1.2254278    -0.9995014  -0.0028728  -0.0000654   0.0014881  -0.0000064   0.0000002  -0.9233540   0.3293477
1.2404923    -0.9995746  -0.0029685  -0.0000523   0.0015373   0.0000005  -0.0000006  -0.9232183   0.3298264
1.2557420    -0.9996361  -0.0028793  -0.0000512   0.0015345   0.0000060  -0.0000034  -0.9229541   0.3303611
1.2711791    -0.9996567  -0.0030387  -0.0000467   0.0015636   0.0000058   0.0000032  -0.9226769   0.3308420
1.2868060    -0.9995853  -0.0029034  -0.0000509   0.0015918  -0.0000086   0.0000018  -0.9224299   0.3313969
1.3026251    -0.9995645  -0.0031155  -0.0000661   0.0015796   0.0000010  -0.0000178  -0.9221532   0.3319239
1.3186385    -0.9994811  -0.0031309  -0.0000577   0.0016185  -0.0000032  -0.0000001  -0.9219294   0.3324706
1.3348489    -0.9995237  -0.0031701  -0.0000660   0.0016445  -0.0000022  -0.0000067  -0.9217568   0.3330027
1.3512585    -0.9995720  -0.0032262  -0.0000660   0.0016720  -0.0000067  -0.0000152  -0.9214508   0.3335168
1.3678698    -0.9995742  -0.0032203  -0.0000526   0.0016807  -0.0000091  -0.0000157  -0.9212825   0.3340755
1.3846854    -0.9996767  -0.0032326  -0.0000631   0.0017090   0.0000027  -0.0000135  -0.9210106   0.3347380
1.4017077    -0.9996668  -0.0032456  -0.0000686   0.0017301   0.0000041   0.0000045  -0.9207423   0.3352204
1.4189392    -0.9995703  -0.0033665  -0.0000601   0.0017633   0.0000006   0.0000001  -0.9205003   0.3357456
1.4363825    -0.9995620  -0.0033039  -0.0000387   0.0017543  -0.0000072  -0.0000012  -0.9202484   0.3363581
1.4540403    -0.9996523  -0.0032979  -0.0000418   0.0017795  -0.0000064  -0.0000011  -0.9199559   0.3369570
1.4719152    -0.9995562  -0.0033661  -0.0000664   0.0018364   0.0000078   0.0000075  -0.9197156   0.3376479
1.4900098    -0.9996666  -0.0035389  -0.0000566   0.0018182   0.0000059  -0.0000025  -0.9193985   0.3381595
1.5083269    -0.9997092  -0.0035504  -0.0000577   0.0018778  -0.0000053   0.0000013  -0.9191216   0.3387463
1.5268691    -0.9996947  -0.0034788  -0.0000541   0.0018851   0.0000075  -0.0000016  -0.9188447   0.3393919
1.5456392    -0.9996505  -0.0036098  -0.0000177   0.0019074  -0.0000034  -0.0000016  -0.9186352   0.3399954
1.5646402    -0.9997614  -0.0036511  -0.0000564   0.0019557   0.0000027  -0.0000022  -0.9183255   0.3407034
1.5838747    -0.9996494  -0.0036937  -0.0000225   0.0019652  -0.0000058   0.0000018  -0.9180071   0.3413056
1.6033456    -0.9996389  -0.0036236  -0.0000408   0.0019944  -0.0000038   0.0000005  -0.9178175   0.3419714
1.6230559    -0.9997362  -0.0036622  -0.0000440   0.0020102   0.0000040  -0.0000088  -0.9174998   0.3426997
1.6430085    -0.9996358  -0.0038347   0.0000159   0.0020324  -0.0000092  -0.0000087  -0.9171685   0.3433497
1.6632064    -0.9996446  -0.0039376  -0.0000479   0.0020766  -0.0000108  -0.0000073  -0.9168588   0.3440620
1.6836526    -0.9996361  -0.0038514  -0.0000340   0.0021036   0.0000037  -0.0000099  -0.9166106   0.3447857
1.7043502    -0.9997311  -0.0040390  -0.0000780   0.0021261   0.0000002  -0.0000113  -0.9161800   0.3455200
1.7253021    -0.9997444  -0.0039511  -0.0000401   0.0021594  -0.0000079  -0.0000040  -0.9159925   0.3461715
1.7465117    -0.9996824  -0.0039352  -0.0000371   0.0022091   0.0000025  -0.0000055  -0.9157903   0.3469968
1.7679820    -0.9997606  -0.0040371  -0.0000543   0.0022189  -0.0000045   0.0000031  -0.9154066   0.3477171
1.7897162    -0.9995963  -0.0041449  -0.0000476   0.0022541  -0.0000016  -0.0000074  -0.9151174   0.3484560
1.8117176    -0.9996943  -0.0041298  -0.0000533   0.0022866  -0.0000088  -0.0000035  -0.9147761   0.3493066
1.8339895    -0.9996891  -0.0042188  -0.0000631   0.0023085  -0.0000118  -0.0000034  -0.9144893   0.3500739
1.8565352    -0.9996954  -0.0042988  -0.0000339   0.0023430  -0.0000061  -0.0000007  -0.9141587   0.3508992
1.8793580    -0.9996088  -0.0042002  -0.0000512   0.0023517   0.0000050  -0.0000067  -0.9138773   0.3516445
1.9024614    -0.9996845  -0.0042961  -0.0000371   0.0023758   0.0000034   0.0000019  -0.9136433   0.3524820
1.9258488    -0.9997050  -0.0042994  -0.0000544   0.0024195  -0.0000040  -0.0000066  -0.9132013   0.3533232
1.9495237    -0.9997470  -0.0044572  -0.0000536   0.0024231  -0.0000036  -0.0000086  -0.9128573   0.3542622
1.9734897    -0.9996963  -0.0045199  -0.0000331   0.0024878  -0.0000027  -0.0000027  -0.9124967   0.3551210
1.9977503    -0.9997258  -0.0044483  -0.0000449   0.0024872  -0.0000022  -0.0000100  -0.9121862   0.3560367
2.0223091    -0.9997797  -0.0046363  -0.0000122   0.0024827   0.0000036  -0.0000066  -0.9117146   0.3569520
2.0471698    -0.9997702  -0.0046694  -0.0000374   0.0025594   0.0000021  -0.0000058  -0.9112576   0.3578717
2.0723362    -0.9997562  -0.0045625  -0.0000533   0.0025945  -0.0000052  -0.0000109  -0.9108508   0.3587810
2.0978119    -0.9997429  -0.0047160  -0.0000056   0.0025821  -0.0000046  -0.0000081  -0.9103719   0.3597379
2.1236008    -0.9997960  -0.0048148  -0.0000445   0.0026657  -0.0000093  -0.0000004  -0.9098752   0.3606545
2.1497067    -0.9996775  -0.0049149  -0.0000395   0.0026672  -0.0000046  -0.0000022  -0.9093895   0.3616367
2.1761336    -0.9997439  -0.0048814  -0.0000481   0.0027273  -0.0000068  -0.0000094  -0.9089004   0.3624516
2.2028853    -0.9997667  -0.0049636  -0.0000367   0.0027603  -0.0000069  -0.0000036  -0.9082573   0.3634525
2.2299659    -0.9998880  -0.0049753  -0.0000320   0.0027842  -0.0000041  -0.0000103  -0.9079217   0.3643863
2.2573794    -0.9997864  -0.0050678  -0.0000304   0.0028078  -0.0000005   0.0000045  -0.9073349   0.3653268
2.2851299    -0.9998396  -0.0050994  -0.0000340   0.0028106  -0.0000203  -0.0000078  -0.9067572   0.3662666
2.3132216    -0.9997974  -0.0052053  -0.0000388   0.0028857  -0.0000061  -0.0000051  -0.9062437   0.3671181
2.3416586    -0.9998634  -0.0052003  -0.0000208   0.0029311   0.0000013  -0.0000147  -0.9056892   0.3680784
2.3704451    -0.9998361  -0.0052113  -0.0000530   0.0029614  -0.0000051  -0.0000091  -0.9051684   0.3691096
2.3995856    -0.9998978  -0.0054748  -0.0000344   0.0029963  -0.0000066  -0.0000082  -0.9045189   0.3700807
2.4290843    -0.9997344  -0.0053545  -0.0000373   0.0029913  -0.0000003  -0.0000136  -0.9041214   0.3709168
2.4589456    -0.9998420  -0.0054722  -0.0000222   0.0030484  -0.0000015  -0.0000055  -0.9035454   0.3719175
2.4891740    -0.9997813  -0.0055523  -0.0000226   0.0030662   0.0000065   0.0000046  -0.9030067   0.3729132
2.5197740    -0.9997995  -0.0056330  -0.0000262   0.0031510  -0.0000101  -0.0000049  -0.9025121   0.3739415
2.5507502    -0.9997852  -0.0056659  -0.0000132   0.0031822  -0.0000041   0.0000006  -0.9019500   0.3748543
2.5821072    -0.9998784  -0.0056882  -0.0000167   0.0031843   0.0000005  -0.0000009  -0.9013914   0.3758758
2.6138496    -0.9998876  -0.0057200  -0.0000076   0.0032654  -0.0000073  -0.0000027  -0.9007222   0.3768633
2.6459823    -0.9998904  -0.0059343  -0.0000340   0.0033056  -0.0000029   0.0000048  -0.9001987   0.3779199
2.6785100    -0.9998631  -0.0059194  -0.0000053   0.0033135  -0.0000082  -0.0000121  -0.8996597   0.3790409
2.7114376    -0.9998764  -0.0059548  -0.0000041   0.0033826  -0.0000063  -0.0000062  -0.8990225   0.3800620
2.7447699    -0.9998748  -0.0060512  -0.0000152   0.0033992   0.0000017  -0.0000063  -0.8984440   0.3810689
2.7785120    -0.9999147  -0.0062286  -0.0000244   0.0034215  -0.0000026  -0.0000068  -0.8978285   0.3821643
2.8126689    -0.9998671  -0.0061190   0.0000066   0.0034991  -0.0000122   0.0000035  -0.8973122   0.3833147
2.8472457    -0.9998660  -0.0062364  -0.0000021   0.0035136  -0.0000035  -0.0000070  -0.8967607   0.3844286
2.8822476    -0.9998395  -0.0064101   0.0000069   0.0035913   0.0000060   0.0000022  -0.8961782   0.3855124
2.9176798    -0.9999378  -0.0065059  -0.0000057   0.0035754  -0.0000007  -0.0000141  -0.8955195   0.3866086
2.9535475    -1.0000139  -0.0065245  -0.0000008   0.0036745  -0.0000058  -0.0000054  -0.8949483   0.3878070
2.9898562    -0.9999582  -0.0065022   0.0000090   0.0037123  -0.0000028  -0.0000049  -0.8942470   0.3890268
3.0266112    -0.9998778  -0.0065745   0.0000072   0.0037559  -0.0000014  -0.0000102  -0.8936296   0.3901293
3.0638180    -0.9998989  -0.0066933  -0.0000040   0.0037918  -0.0000027  -0.0000106  -0.8929854   0.3913348
3.1014823    -0.9998997  -0.0067619   0.0000250   0.0038634   0.0000122   0.0000001  -0.8923790   0.3926033
3.1396096    -0.9998303  -0.0067994   0.0000120   0.0039150   0.0000007  -0.0000151  -0.8916534   0.3937399
3.1782055    -0.9999401  -0.0070373   0.0000263   0.0039570  -0.0000052  -0.0000060  -0.8910269   0.3950064
3.2172760    -0.9999910  -0.0069648   0.0000118   0.0039912  -0.0000021  -0.0000025  -0.8903442   0.3962763
3.2568267    -1.0000436  -0.0070481  -0.0000075   0.0040087   0.0000000   0.0000010  -0.8897056   0.3975141
3.2968637    -1.0000531  -0.0071942  -0.0000019   0.0040743   0.0000079  -0.0000071  -0.8889123   0.3988380
3.3373928    -0.9999415  -0.0072987   0.0000317   0.0041426  -0.0000055  -0.0000043  -0.8882090   0.4000991
3.3784202    -0.9999410  -0.0073712   0.0000235   0.0041916   0.0000017  -0.0000115  -0.8874257   0.4014749
3.4199519    -0.9999169  -0.0075044   0.0000242   0.0042308  -0.0000018  -0.0000072  -0.8867184   0.4027799
3.4619942    -0.9998916  -0.0075969   0.0000061   0.0042615   0.0000094  -0.0000015  -0.8859021   0.4040620
3.5045533    -1.0000076  -0.0075869   0.0000353   0.0043537  -0.0000130  -0.0000043  -0.8851955   0.4055343
3.5476356    -0.9999510  -0.0077505   0.0000212   0.0044011  -0.0000032  -0.0000072  -0.8844131   0.4068135
3.5912475    -1.0000397  -0.0077711   0.0000448   0.0044393   0.0000050  -0.0000068  -0.8835820   0.4081858
3.6353956    -0.9999545  -0.0078683   0.0000436   0.0044988  -0.0000033   0.0000033  -0.8828196   0.4096963
3.6800864    -0.9999080  -0.0079209   0.0000512   0.0045643  -0.0000019  -0.0000012  -0.8820544   0.4111741
3.7253266    -1.0000451  -0.0081388   0.0000339   0.0046026  -0.0000012   0.0000029  -0.8812237   0.4125975
3.7711229    -1.0000555  -0.0081020   0.0000591   0.0046582   0.0000036  -0.0000073  -0.8804596   0.4140384
3.8174822    -1.0000718  -0.0082327   0.0000318   0.0047163   0.0000054  -0.0000037  -0.8795996   0.4154965
3.8644115    -1.0000221  -0.0083120   0.0000304   0.0047706  -0.0000027  -0.0000005  -0.8788628   0.4170898
3.9119176    -1.0000314  -0.0084392   0.0000727   0.0048389   0.0000050  -0.0000047  -0.8780034   0.4186069
3.9600077    -1.0000487  -0.0086177   0.0000554   0.0048969  -0.0000003  -0.0000106  -0.8772529   0.4201030
4.0086890    -1.0000676  -0.0086427   0.0000631   0.0049477  -0.0000001  -0.0000011  -0.8762245   0.4216955
4.0579688    -1.0000588  -0.0086191   0.0000624   0.0050079   0.0000105  -0.0000087  -0.8753939   0.4232443
4.1078544    -0.9998656  -0.0088493   0.0000936   0.0050809   0.0000009  -0.0000062  -0.8745147   0.4247613
4.1583532    -1.0000808  -0.0089265   0.0000997   0.0051257  -0.0000076  -0.0000134  -0.8735491   0.4263804
4.2094729    -1.0000017  -0.0090472   0.0000559   0.0051909  -0.0000130  -0.0000085  -0.8727399   0.4279787
4.2612209    -0.9999974  -0.0090452   0.0000909   0.0052691   0.0000049  -0.0000003  -0.8717528   0.4295703
4.3136051    -1.0001529  -0.0092520   0.0000924   0.0053114   0.0000094  -0.0000038  -0.8707551   0.4312195
4.3666333    -1.0000479  -0.0093167   0.0000548   0.0053737  -0.0000042  -0.0000094  -0.8698497   0.4329018
4.4203134    -1.0000417  -0.0095985   0.0000823   0.0054408  -0.0000094  -0.0000055  -0.8687537   0.4345216
4.4746534    -1.0001832  -0.0095772   0.0000643   0.0055189  -0.0000100  -0.0000040  -0.8676684   0.4362446
4.5296613    -1.0001220  -0.0096794   0.0001053   0.0055849  -0.0000140  -0.0000062  -0.8666960   0.4379928
4.5853455    -1.0001171  -0.0098106   0.0000495   0.0056789   0.0000126  -0.0000056  -0.8655878   0.4397037
4.6417143    -1.0000948  -0.0099820   0.0001044   0.0057353   0.0000038  -0.0000010  -0.8644354   0.4412928
4.6987760    -1.0000931  -0.0101758   0.0000891   0.0057907  -0.0000146  -0.0000077  -0.8633619   0.4429503
4.7565392    -0.9999917  -0.0101279   0.0000773   0.0058611  -0.0000048  -0.0000118  -0.8622112   0.4446939
4.8150125    -1.0001949  -0.0102564   0.0000923   0.0059340   0.0000012  -0.0000054  -0.8610678   0.4463435
4.8742045    -1.0000785  -0.0104710   0.0001128   0.0059940   0.0000013  -0.0000100  -0.8598778   0.4479819
4.9341243    -1.0001828  -0.0104833   0.0001018   0.0060591  -0.0000079  -0.0000109  -0.8588102   0.4494953
4.9947807    -1.0001337  -0.0106363   0.0001168   0.0061464  -0.0000006  -0.0000013  -0.8578174   0.4510817
5.0561827    -1.0001803  -0.0108023   0.0001220   0.0061967  -0.0000007  -0.0000055  -0.8568059   0.4527803
5.1183396    -1.0001265  -0.0108555   0.0001421   0.0062847   0.0000014  -0.0000067  -0.8558557   0.4544847
5.1812606    -1.0001916  -0.0111195   0.0001040   0.0063801   0.0000041   0.0000007  -0.8549632   0.4562606
5.2449550    -1.0002408  -0.0111152   0.0001033   0.0064417  -0.0000038  -0.0000165  -0.8540537   0.4582926
5.3094325    -1.0001675  -0.0112793   0.0001440   0.0065295  -0.0000002  -0.0000129  -0.8530595   0.4601084
5.3747026    -1.0002431  -0.0114842   0.0001191   0.0065973  -0.0000032  -0.0000010  -0.8520304   0.4623129
5.4407751    -1.0000855  -0.0116518   0.0001351   0.0066789   0.0000050  -0.0000045  -0.8508710   0.4642557
5.5076599    -1.0002042  -0.0117002   0.0001351   0.0067437  -0.0000117  -0.0000096  -0.8497691   0.4663224
5.5753669    -1.0001601  -0.0117480   0.0001448   0.0068596   0.0000046  -0.0000046  -0.8485973   0.4684798
5.6439062    -1.0001452  -0.0120082   0.0001537   0.0069185   0.0000020  -0.0000020  -0.8474325   0.4705647
5.7132881    -1.0001427  -0.0121590   0.0001472   0.0069991  -0.0000053  -0.0000021  -0.8461542   0.4727491
5.7835229    -1.0003001  -0.0122852   0.0001656   0.0070929   0.0000120  -0.0000015  -0.8448744   0.4749231
5.8546211    -1.0003260  -0.0124626   0.0001182   0.0071702   0.0000019  -0.0000059  -0.8436650   0.4771559
5.9265934    -1.0002670  -0.0124739   0.0001819   0.0072651   0.0000031  -0.0000032  -0.8422969   0.4793258
5.9994504    -1.0002611  -0.0127421   0.0001704   0.0073626  -0.0000047  -0.0000054  -0.8409209   0.4814409
6.0732031    -1.0002434  -0.0129152   0.0001842   0.0074238  -0.0000113  -0.0000100  -0.8395623   0.4836481
6.1478624    -1.0002992  -0.0130772   0.0001758   0.0075289   0.0000063  -0.0000045  -0.8381859   0.4858738
6.2234396    -1.0002418  -0.0131394   0.0001729   0.0076296  -0.0000013  -0.0000036  -0.8366054   0.4881844
6.2999458    -1.0003073  -0.0132145   0.0001984   0.0077113  -0.0000015  -0.0000074  -0.8352632   0.4904485
6.3773925    -1.0002509  -0.0135380   0.0001973   0.0077850  -0.0000065  -0.0000109  -0.8337530   0.4927246
6.4557914    -1.0002973  -0.0136517   0.0002040   0.0078983   0.0000019  -0.0000044  -0.8322471   0.4949631
6.5351539    -1.0004262  -0.0136913   0.0001929   0.0079785  -0.0000016   0.0000001  -0.8307492   0.4973691
6.6154922    -1.0004259  -0.0140128   0.0002353   0.0080883   0.0000017  -0.0000067  -0.8291662   0.4997310
6.6968180    -1.0003186  -0.0141038   0.0002226   0.0081725  -0.0000013  -0.0000054  -0.8275994   0.5021189
6.7791436    -1.0003113  -0.0142584   0.0002088   0.0082782  -0.0000036  -0.0000061  -0.8260330   0.5044637
6.8624812    -1.0003456  -0.0144787   0.0002041   0.0083936  -0.0000017  -0.0000108  -0.8244187   0.5069328
6.9468433    -1.0003055  -0.0145950   0.0002106   0.0084795  -0.0000075   0.0000006  -0.8228260   0.5093485
7.0322425    -1.0003068  -0.0148145   0.0002186   0.0085864  -0.0000001  -0.0000017  -0.8211146   0.5118158
7.1186916    -1.0003242  -0.0149759   0.0002278   0.0086992   0.0000055  -0.0000068  -0.8194095   0.5143454
7.2062034    -1.0002908  -0.0151250   0.0002340   0.0088190  -0.0000054  -0.0000028  -0.8176992   0.5169044
7.2947909    -1.0002714  -0.0153444   0.0002440   0.0089056  -0.0000060  -0.0000003  -0.8159561   0.5194736
7.3844675    -1.0003430  -0.0155819   0.0002636   0.0090077  -0.0000109  -0.0000018  -0.8142863   0.5220747
7.4752466    -1.0003565  -0.0156832   0.0002565   0.0091640   0.0000062  -0.0000064  -0.8124937   0.5246904
7.5671416    -1.0003236  -0.0158997   0.0002714   0.0092240  -0.0000101   0.0000033  -0.8107805   0.5273408
7.6601662    -1.0003123  -0.0160218   0.0002674   0.0093246  -0.0000032  -0.0000058  -0.8089321   0.5300260
7.7543345    -1.0004260  -0.0163041   0.0002695   0.0094288  -0.0000011  -0.0000027  -0.8070409   0.5328550
7.8496604    -1.0003736  -0.0163570   0.0002636   0.0095502  -0.0000081  -0.0000079  -0.8052010   0.5356596
7.9461581    -1.0004381  -0.0165778   0.0002716   0.0096714  -0.0000041  -0.0000001  -0.8031845   0.5385086
8.0438422    -1.0004129  -0.0168171   0.0002974   0.0097782  -0.0000019   0.0000034  -0.8012046   0.5413537
8.1427270    -1.0003993  -0.0169665   0.0002974   0.0099173   0.0000042   0.0000010  -0.7990345   0.5443276
8.2428275    -1.0004320  -0.0171819   0.0002919   0.0100220   0.0000016   0.0000028  -0.7968067   0.5471867
8.3441586    -1.0003649  -0.0174250   0.0003026   0.0101583  -0.0000017   0.0000017  -0.7946318   0.5499687
8.4467353    -1.0005158  -0.0176786   0.0002876   0.0102916   0.0000085  -0.0000037  -0.7923743   0.5529673
8.5505731    -1.0004326  -0.0177695   0.0002918   0.0104037   0.0000036  -0.0000037  -0.7900742   0.5557386
8.6556873    -1.0004305  -0.0181107   0.0003219   0.0105055   0.0000022  -0.0000069  -0.7877981   0.5586649
8.7620937    -1.0004818  -0.0183100   0.0003428   0.0106558  -0.0000146  -0.0000022  -0.7855033   0.5615264
8.8698082    -1.0004594  -0.0184543   0.0003466   0.0107626   0.0000006  -0.0000076  -0.7831491   0.5644380
8.9788469    -1.0004226  -0.0186920   0.0003475   0.0109023   0.0000057  -0.0000060  -0.7808526   0.5673655
9.0892260    -1.0005172  -0.0189575   0.0003393   0.0110403  -0.0000017  -0.0000065  -0.7784899   0.5703176
9.2009621    -1.0004548  -0.0190972   0.0003640   0.0111629  -0.0000012  -0.0000011  -0.7759998   0.5733714
9.3140717    -1.0004580  -0.0193404   0.0003955   0.0113014   0.0000038   0.0000058  -0.7735743   0.5763568
9.4285718    -1.0005150  -0.0196336   0.0003636   0.0114321  -0.0000053  -0.0000121  -0.7711036   0.5794398
9.5444795    -1.0005579  -0.0197663   0.0004318   0.0116001  -0.0000082   0.0000062  -0.7685506   0.5825374
9.6618121    -1.0005481  -0.0200676   0.0003923   0.0117194   0.0000018  -0.0000043  -0.7660223   0.5856292
9.7805870    -1.0005924  -0.0202135   0.0004152   0.0118562   0.0000009   0.0000032  -0.7634060   0.5888029
9.9008221    -1.0005730  -0.0205259   0.0003977   0.0119758   0.0000039  -0.0000012  -0.7607542   0.5920226
10.0225353   -1.0006172  -0.0208538   0.0004327   0.0121345  -0.0000049  -0.0000083  -0.7581033   0.5951324
10.1457447   -1.0005469  -0.0211025   0.0004538   0.0122978  -0.0000039  -0.0000058  -0.7553612   0.5984296
10.2704688   -1.0005055  -0.0213551   0.0004227   0.0124338  -0.0000041  -0.0000085  -0.7526769   0.6017045
10.3967261   -1.0005751  -0.0215257   0.0004336   0.0125687  -0.0000061  -0.0000066  -0.7498397   0.6050384
10.5245356   -1.0005876  -0.0218550   0.0004750   0.0127346  -0.0000079  -0.0000076  -0.7469667   0.6082174
10.6539162   -1.0005514  -0.0219942   0.0004742   0.0129049   0.0000029   0.0000029  -0.7440703   0.6115378
10.7848873   -1.0006465  -0.0222408   0.0004742   0.0130516   0.0000005  -0.0000063  -0.7411368   0.6149778
10.9174685   -1.0006295  -0.0225825   0.0004668   0.0132079  -0.0000070  -0.0000035  -0.7381281   0.6183689
11.0516796   -1.0007085  -0.0227930   0.0004908   0.0133893  -0.0000045   0.0000037  -0.7349763   0.6217995
11.1875405   -1.0005759  -0.0232160   0.0005048   0.0135661   0.0000009  -0.0000076  -0.7319551   0.6253218
11.3250716   -1.0005956  -0.0234387   0.0005347   0.0136926  -0.0000013  -0.0000002  -0.7288001   0.6287838
11.4642934   -1.0005863  -0.0236545   0.0005292   0.0138630  -0.0000070  -0.0000020  -0.7255736   0.6322627
11.6052267   -1.0006408  -0.0239914   0.0005304   0.0140175  -0.0000104  -0.0000051  -0.7223402   0.6358978
11.7478926   -1.0006110  -0.0242037   0.0005342   0.0141984  -0.0000036   0.0000009  -0.7190147   0.6394037
11.8923122   -1.0005785  -0.0245526   0.0005417   0.0143638   0.0000007   0.0000002  -0.7156511   0.6429700
12.0385073   -1.0006623  -0.0249853   0.0005596   0.0145318  -0.0000075  -0.0000003  -0.7121713   0.6466395
12.1864995   -1.0005931  -0.0250506   0.0005626   0.0147135  -0.0000044  -0.0000095  -0.7086981   0.6502674
12.3363111   -1.0005912  -0.0253970   0.0005753   0.0148749  -0.0000098  -0.0000015  -0.7052440   0.6539590
12.4879643   -1.0007099  -0.0257963   0.0005829   0.0150494  -0.0000047  -0.0000026  -0.7015574   0.6576797
12.6414818   -1.0006942  -0.0260379   0.0005845   0.0152281   0.0000050  -0.0000068  -0.6978449   0.6613944
12.7968866   -1.0006659  -0.0263499   0.0006154   0.0154220   0.0000019  -0.0000131  -0.6941116   0.6651428
12.9542018   -1.0006730  -0.0266473   0.0006261   0.0156062   0.0000027   0.0000004  -0.6903715   0.6689079
13.1134509   -1.0007439  -0.0269793   0.0006315   0.0158121  -0.0000100  -0.0000035  -0.6864955   0.6727020
13.2746577   -1.0007225  -0.0273608   0.0006374   0.0159848  -0.0000033  -0.0000037  -0.6825288   0.6765492
13.4378462   -1.0006040  -0.0275472   0.0006517   0.0161983   0.0000116  -0.0000093  -0.6785797   0.6805044
13.6030409   -1.0007138  -0.0278916   0.0006797   0.0163729   0.0000024  -0.0000091  -0.6744924   0.6843455
13.7702663   -1.0007411  -0.0283059   0.0006888   0.0165699  -0.0000078   0.0000053  -0.6703140   0.6882447
13.9395475   -1.0006574  -0.0285974   0.0007228   0.0167725  -0.0000009  -0.0000010  -0.6661352   0.6921232
14.1109097   -1.0006072  -0.0289346   0.0007166   0.0169770  -0.0000038  -0.0000051  -0.6618006   0.6961022
14.2843785   -1.0007420  -0.0292640   0.0007312   0.0171790   0.0000052   0.0000030  -0.6574447   0.7000021
14.4599797   -1.0007784  -0.0297102   0.0007319   0.0173912   0.0000036  -0.0000067  -0.6530176   0.7040575
14.6377397   -1.0008154  -0.0299270   0.0007659   0.0175847  -0.0000093  -0.0000076  -0.6485291   0.7080584
14.8176850   -1.0007493  -0.0303393   0.0007799   0.0178036  -0.0000131   0.0000027  -0.6439510   0.7120446
14.9998423   -1.0006960  -0.0306926   0.0008262   0.0180121  -0.0000022  -0.0000131  -0.6392536   0.7161155
15.1842390   -1.0008277  -0.0310411   0.0007870   0.0182443  -0.0000130   0.0000049  -0.6344815   0.7202062
15.3709024   -1.0007960  -0.0314433   0.0008083   0.0184651  -0.0000048   0.0000017  -0.6297241   0.7242485
15.5598606   -1.0008343  -0.0317587   0.0008417   0.0186528  -0.0000054  -0.0000108  -0.6248621   0.7283607
15.7511417   -1.0008692  -0.0322281   0.0008525   0.0189059   0.0000019  -0.0000063  -0.6198680   0.7325479
15.9447743   -1.0007398  -0.0325162   0.0008732   0.0191279   0.0000020  -0.0000005  -0.6148227   0.7366409
16.1407872   -1.0006783  -0.0329493   0.0008937   0.0193644  -0.0000153  -0.0000110  -0.6095775   0.7408179
16.3392097   -1.0007917  -0.0333099   0.0009092   0.0196108  -0.0000056   0.0000011  -0.6043237   0.7450111
16.5400716   -1.0007731  -0.0336901   0.0009357   0.0198340  -0.0000077   0.0000002  -0.5990279   0.7492048
16.7434026   -1.0008838  -0.0341077   0.0009652   0.0200490  -0.0000112  -0.0000024  -0.5935454   0.7533613
16.9492333   -1.0008481  -0.0344449   0.0009623   0.0203015   0.0000049   0.0000022  -0.5880423   0.7577115
17.1575942   -1.0008451  -0.0348977   0.0009888   0.0205400  -0.0000039   0.0000064  -0.5824226   0.7618352
17.3685166   -1.0007655  -0.0353718   0.0009901   0.0207833  -0.0000002   0.0000013  -0.5767305   0.7661086
17.5820320   -1.0008875  -0.0356941   0.0010030   0.0210587  -0.0000036  -0.0000010  -0.5708657   0.7702965
17.7981721   -1.0007842  -0.0362212   0.0010457   0.0212502  -0.0000008  -0.0000063  -0.5649477   0.7746078
18.0169693   -1.0008538  -0.0366518   0.0010364   0.0215627  -0.0000148   0.0000015  -0.5589829   0.7788677
18.2384562   -1.0007437  -0.0369431   0.0010618   0.0218168  -0.0000088  -0.0000066  -0.5528978   0.7832294
18.4626659   -1.0008151  -0.0375141   0.0010613   0.0220998   0.0000017  -0.0000043  -0.5466180   0.7874117
18.6896319   -1.0008796  -0.0379721   0.0010782   0.0223734  -0.0000066   0.0000047  -0.5403799   0.7916946
18.9193880   -1.0008021  -0.0384095   0.0011239   0.0226557  -0.0000040  -0.0000020  -0.5338648   0.7960754
19.1519686   -1.0008333  -0.0389049   0.0011453   0.0229164   0.0000009  -0.0000067  -0.5272533   0.8003731
19.3874083   -1.0008049  -0.0393694   0.0011754   0.0231834  -0.0000090  -0.0000072  -0.5205907   0.8046701
19.6257423   -1.0008560  -0.0398779   0.0011952   0.0234408  -0.0000034  -0.0000054  -0.5139282   0.8090026
19.8670063   -1.0008535  -0.0402824   0.0012224   0.0237528  -0.0000003  -0.0000053  -0.5070653   0.8132444
20.1112361   -1.0008416  -0.0406919   0.0012703   0.0240387   0.0000014   0.0000039  -0.5000667   0.8175503
20.3584684   -1.0008587  -0.0413318   0.0012732   0.0243399  -0.0000109  -0.0000031  -0.4928451   0.8218131
20.6087399   -1.0008553  -0.0417285   0.0012830   0.0245808   0.0000064  -0.0000074  -0.4856078   0.8260492
20.8620881   -1.0008147  -0.0422404   0.0013185   0.0248982  -0.0000070   0.0000015  -0.4781752   0.8303917
21.1185507   -1.0009277  -0.0428288   0.0013408   0.0252039  -0.0000055   0.0000029  -0.4706816   0.8346281
21.3781661   -1.0008567  -0.0432512   0.0013985   0.0254891  -0.0000035  -0.0000010  -0.4630449   0.8387695
21.6409730   -1.0009423  -0.0438125   0.0014043   0.0257934  -0.0000039  -0.0000078  -0.4552968   0.8429882
21.9070107   -1.0009041  -0.0442451   0.0014356   0.0261159  -0.0000070   0.0000040  -0.4474480   0.8472129
22.1763188   -1.0008740  -0.0448457   0.0014526   0.0264259  -0.0000040   0.0000040  -0.4393970   0.8514093
22.4489376   -1.0008403  -0.0453830   0.0014709   0.0267771  -0.0000043  -0.0000038  -0.4312338   0.8556008
22.7249077   -1.0008168  -0.0458856   0.0015041   0.0270734  -0.0000006  -0.0000028  -0.4229033   0.8597198
23.0042705   -1.0008426  -0.0464418   0.0015647   0.0274047  -0.0000025   0.0000032  -0.4144679   0.8638397
23.2870675   -1.0008137  -0.0469834   0.0015404   0.0277520  -0.0000063   0.0000051  -0.4059703   0.8679089
23.5733409   -1.0008289  -0.0475445   0.0016268   0.0280386  -0.0000101  -0.0000119  -0.3971808   0.8719871
23.8631337   -1.0008069  -0.0480738   0.0016549   0.0284206  -0.0000095   0.0000009  -0.3882574   0.8759217
24.1564889   -1.0008308  -0.0487219   0.0016611   0.0287398  -0.0000145   0.0000020  -0.3793041   0.8799030
24.4534504   -1.0008439  -0.0492940   0.0017145   0.0290565  -0.0000039  -0.0000033  -0.3701540   0.8837846
24.7540625   -1.0008122  -0.0498912   0.0017278   0.0294373  -0.0000011  -0.0000056  -0.3608652   0.8877116
25.0583701   -1.0008823  -0.0505215   0.0017611   0.0298134   0.0000015  -0.0000007  -0.3513553   0.8915770
25.3664186   -1.0007892  -0.0510931   0.0017861   0.0301518  -0.0000058  -0.0000061  -0.3416299   0.8953736
25.6782541   -1.0007658  -0.0516957   0.0018149   0.0305227   0.0000039  -0.0000031  -0.3318719   0.8991532
25.9939230   -1.0007510  -0.0523063   0.0018475   0.0308994  -0.0000041  -0.0000050  -0.3219447   0.9027781
26.3134725   -1.0007228  -0.0530222   0.0018734   0.0312712   0.0000036  -0.0000035  -0.3118192   0.9063520
26.6369503   -1.0008119  -0.0535576   0.0019393   0.0316663  -0.0000030  -0.0000139  -0.3015927   0.9099376
26.9644047   -1.0007949  -0.0541941   0.0019524   0.0320389   0.0000019   0.0000037  -0.2911556   0.9134289
27.2958846   -1.0008122  -0.0548489   0.0020036   0.0324313  -0.0000076   0.0000021  -0.2805167   0.9167797
27.6314394   -1.0008338  -0.0555637   0.0020416   0.0328339  -0.0000017  -0.0000051  -0.2698048   0.9201340
27.9711193   -1.0008070  -0.0561613   0.0020968   0.0332611   0.0000071  -0.0000031  -0.2588429   0.9232956
28.3149750   -1.0007402  -0.0568043   0.0021687   0.0336766   0.0000039  -0.0000051  -0.2477763   0.9264440
28.6630578   -1.0006853  -0.0575581   0.0022290   0.0340663  -0.0000087  -0.0000003  -0.2365017   0.9294491
29.0154196   -1.0007006  -0.0581909   0.0022669   0.0344546  -0.0000064  -0.0000030  -0.2250419   0.9323611
29.3721131   -1.0006981  -0.0589425   0.0023278   0.0348511   0.0000014  -0.0000039  -0.2134533   0.9351741
29.7331915   -1.0008126  -0.0594921   0.0023509   0.0352600  -0.0000054  -0.0000036  -0.2016027   0.9379710
30.0987087   -1.0006925  -0.0602779   0.0023928   0.0356786  -0.0000033   0.0000123  -0.1897006   0.9405994
30.4687194   -1.0007321  -0.0610640   0.0024544   0.0361548  -0.0000021  -0.0000058  -0.1775500   0.9431766
30.8432786   -1.0007070  -0.0616900   0.0024757   0.0365817  -0.0000102   0.0000030  -0.1652043   0.9454509
31.2224424   -1.0007063  -0.0624613   0.0025474   0.0370084   0.0000061   0.0000027  -0.1527992   0.9476807
31.6062674   -1.0005727  -0.0632107   0.0025975   0.0374708  -0.0000091  -0.0000072  -0.1400337   0.9498177
31.9948108   -1.0007050  -0.0640298   0.0026543   0.0378999   0.0000000   0.0000043  -0.1271896   0.9518871
32.3881306   -1.0006622  -0.0646891   0.0026995   0.0383507  -0.0000007  -0.0000042  -0.1141830   0.9537462
32.7862857   -1.0005848  -0.0655117   0.0026991   0.0387888  -0.0000070  -0.0000062  -0.1009629   0.9553778
33.1893353   -1.0006100  -0.0662498   0.0027751   0.0392944  -0.0000018  -0.0000006  -0.0875903   0.9570247
33.5973398   -1.0005314  -0.0670418   0.0027776   0.0397188   0.0000037  -0.0000116  -0.0740442   0.9583378
34.0103599   -1.0005767  -0.0678296   0.0027731   0.0402352  -0.0000011   0.0000036  -0.0602129   0.9594876
34.4284574   -1.0004133  -0.0685935   0.0027509   0.0408406  -0.0000075  -0.0000028  -0.0465159   0.9606917
34.8516946   -1.0004467  -0.0695512   0.0028695   0.0414437  -0.0000053   0.0000028  -0.0322434   0.9616950
35.2801349   -1.0004666  -0.0703159   0.0030851   0.0419718  -0.0000032  -0.0000036  -0.0177784   0.9624635
35.7138420   -1.0004403  -0.0712039   0.0031453   0.0424508  -0.0000069  -0.0000060  -0.0032039   0.9628964
36.1528808   -1.0003693  -0.0720346   0.0032423   0.0429763  -0.0000086  -0.0000063   0.0115347   0.9632563
36.5973168   -1.0002918  -0.0729839   0.0033316   0.0434783   0.0000000  -0.0000055   0.0264333   0.9633738
37.0472164   -1.0003081  -0.0737704   0.0033806   0.0440335  -0.0000010  -0.0000025   0.0415912   0.9631242
37.5026467   -1.0002533  -0.0746851   0.0035513   0.0445912   0.0000005  -0.0000051   0.0569194   0.9628974
37.9636757   -1.0002881  -0.0756199   0.0036954   0.0449945  -0.0000025  -0.0000048   0.0726387   0.9619464
38.4303722   -1.0002260  -0.0765215   0.0037630   0.0455283   0.0000012  -0.0000023   0.0881824   0.9611452
38.9028060   -1.0001423  -0.0774641   0.0038238   0.0460759   0.0000032   0.0000041   0.1040381   0.9599848
39.3810475   -1.0002409  -0.0782686   0.0039069   0.0466078  -0.0000019   0.0000034   0.1201362   0.9586652
39.8651681   -1.0001810  -0.0791762   0.0040045   0.0471613  -0.0000008   0.0000047   0.1362896   0.9569852
40.3552402   -1.0001115  -0.0800597   0.0040876   0.0477393   0.0000052   0.0000025   0.1527017   0.9550329
40.8513368   -1.0000083  -0.0810889   0.0041773   0.0483169  -0.0000009  -0.0000083   0.1693457   0.9526915
41.3535320   -1.0000191  -0.0821443   0.0042547   0.0488497  -0.0000069  -0.0000035   0.1860114   0.9501695
41.8619009   -0.9999518  -0.0831138   0.0043366   0.0494583  -0.0000012   0.0000013   0.2030277   0.9472720
42.3765193   -0.9998739  -0.0840454   0.0044147   0.0500383   0.0000010  -0.0000008   0.2201222   0.9440599
42.8974639   -0.9998792  -0.0850756   0.0045328   0.0506126  -0.0000026   0.0000052   0.2373514   0.9404513
43.4248127   -0.9998153  -0.0861190   0.0046300   0.0512248   0.0000010  -0.0000060   0.2547651   0.9366341
43.9586443   -0.9997484  -0.0871598   0.0046911   0.0518282   0.0000045  -0.0000092   0.2723270   0.9323410
44.4990385   -0.9997353  -0.0880759   0.0048027   0.0524272  -0.0000060   0.0000010   0.2900678   0.9276746
45.0460758   -0.9996146  -0.0891801   0.0048827   0.0530439   0.0000030   0.0000042   0.3079234   0.9226692
45.5998380   -0.9995322  -0.0902435   0.0049638   0.0536778  -0.0000014  -0.0000026   0.3258964   0.9172927
46.1604077   -0.9995807  -0.0913428   0.0050309   0.0542910  -0.0000057  -0.0000096   0.3439905   0.9114112
46.7278686   -0.9995770  -0.0923865   0.0051116   0.0549696  -0.0000078  -0.0000061   0.3622095   0.9051561
47.3023055   -0.9995184  -0.0936489   0.0051314   0.0556172  -0.0000035   0.0000063   0.3805383   0.8984954
47.8838040   -0.9994174  -0.0946873   0.0052044   0.0563623   0.0000035  -0.0000116   0.3990787   0.8913030
48.4724511   -0.9993346  -0.0958461   0.0052934   0.0571159  -0.0000043   0.0000037   0.4175483   0.8837820
49.0683345   -0.9992768  -0.0968902   0.0054637   0.0578776  -0.0000065   0.0000016   0.4362200   0.8757527
49.6715433   -0.9992054  -0.0980774   0.0056288   0.0585996  -0.0000056  -0.0000091   0.4548566   0.8672616
50.2821675   -0.9991460  -0.0991907   0.0058113   0.0593432  -0.0000049  -0.0000026   0.4737366   0.8581977
50.9002982   -0.9989336  -0.1003664   0.0059772   0.0599757  -0.0000001  -0.0000023   0.4925113   0.8486204
51.5260277   -0.9989839  -0.1015807   0.0061105   0.0607200   0.0000016  -0.0000145   0.5114078   0.8386844
52.1594495   -0.9988626  -0.1028285   0.0062598   0.0614248   0.0000007  -0.0000111   0.5302185   0.8281260
52.8006581   -0.9987769  -0.1040365   0.0063435   0.0620997   0.0000019  -0.0000070   0.5491565   0.8169084
53.4497492   -0.9986863  -0.1053841   0.0064285   0.0628243   0.0000038  -0.0000035   0.5682259   0.8053365
54.1068198   -0.9985659  -0.1066027   0.0065535   0.0636901   0.0000014  -0.0000070   0.5870810   0.7931806
54.7719678   -0.9985450  -0.1078376   0.0067693   0.0645827  -0.0000080  -0.0000108   0.6059003   0.7804755
55.4452927   -0.9984258  -0.1090478   0.0069264   0.0652658  -0.0000031   0.0000036   0.6248029   0.7668483
56.1268950   -0.9983508  -0.1105346   0.0070402   0.0660341  -0.0000012  -0.0000006   0.6436129   0.7528409
56.8168763   -0.9983252  -0.1116615   0.0072281   0.0668925  -0.0000113  -0.0000002   0.6623330   0.7382715
57.5153398   -0.9981594  -0.1130017   0.0073863   0.0675909  -0.0000006  -0.0000099   0.6809259   0.7230836
58.2223896   -0.9979886  -0.1143172   0.0075168   0.0684415   0.0000062  -0.0000063   0.6993919   0.7071741
58.9381314   -0.9979366  -0.1157547   0.0076801   0.0692172   0.0000077  -0.0000018   0.7177304   0.6906869
59.6626719   -0.9978629  -0.1170664   0.0077418   0.0700279   0.0000018  -0.0000044   0.7358872   0.6734457
60.3961194   -0.9976155  -0.1185162   0.0079359   0.0709443  -0.0000076  -0.0000076   0.7539451   0.6555725
61.1385834   -0.9976186  -0.1199768   0.0079951   0.0717693   0.0000077  -0.0000151   0.7717916   0.6369847
61.8901746   -0.9975068  -0.1213791   0.0081741   0.0727412  -0.0000007  -0.0000055   0.7892939   0.6177425
62.6510053   -0.9971934  -0.1228383   0.0082936   0.0735891  -0.0000042  -0.0000129   0.8065969   0.5978861
63.4211891   -0.9971898  -0.1241926   0.0083622   0.0745802  -0.0000005   0.0000010   0.8236544   0.5771804
64.2008409   -0.9970631  -0.1256280   0.0086086   0.0754827  -0.0000013  -0.0000071   0.8403290   0.5559154
64.9900772   -0.9968278  -0.1273076   0.0085096   0.0765077   0.0000060  -0.0000039   0.8567017   0.5338548
65.7890158   -0.9966479  -0.1286762   0.0088259   0.0776944   0.0000066  -0.0000067   0.8726612   0.5111127
66.5977759   -0.9965443  -0.1302621   0.0091120   0.0787791  -0.0000110   0.0000004   0.8881822   0.4875516
67.4164783   -0.9963854  -0.1317870   0.0093675   0.0798958   0.0000024  -0.0000098   0.9034119   0.4632958
68.2452452   -0.9962250  -0.1333478   0.0096840   0.0807364  -0.0000016  -0.0000030   0.9180764   0.4384124
69.0842003   -0.9960277  -0.1349070   0.0099292   0.0819394  -0.0000021  -0.0000152   0.9322427   0.4127304
69.9334689   -0.9958353  -0.1364738   0.0103593   0.0829800  -0.0000106  -0.0000085   0.9455765   0.3863505
70.7931778   -0.9956521  -0.1383664   0.0107771   0.0835750   0.0000082  -0.0000021   0.9591080   0.3591561
71.6634552   -0.9954553  -0.1399916   0.0108180   0.0848814  -0.0000035  -0.0000070   0.9716677   0.3310241
72.5444312   -0.9952852  -0.1415862   0.0109400   0.0856338   0.0000123   0.0000005   0.9836817   0.3023485
73.4362373   -0.9952045  -0.1433425   0.0108835   0.0869589  -0.0000012  -0.0000107   0.9948434   0.2729349
74.3390065   -0.9950449  -0.1448251   0.0113834   0.0882921   0.0000080  -0.0000129   1.0046945   0.2431284
75.2528737   -0.9947113  -0.1465911   0.0116601   0.0893520  -0.0000040  -0.0000102   1.0143737   0.2123149
76.1779753   -0.9945536  -0.1482401   0.0120522   0.0905787  -0.0000051  -0.0000124   1.0232854   0.1808396
77.1144493   -0.9943509  -0.1500415   0.0122627   0.0917750  -0.0000026  -0.0000045   1.0313023   0.1486103
78.0624357   -0.9940786  -0.1518064   0.0126787   0.0931053  -0.0000029  -0.0000080   1.0384154   0.1157628
79.0220759   -0.9939492  -0.1536419   0.0130307   0.0944491   0.0000002  -0.0000036   1.0445212   0.0821697
79.9935132   -0.9934904  -0.1556043   0.0135344   0.0958181   0.0000041  -0.0000131   1.0496229   0.0480313
80.9768926   -0.9934068  -0.1574178   0.0142492   0.0969432  -0.0000064  -0.0000116   1.0537186   0.0132410
81.9723609   -0.9930911  -0.1593258   0.0147303   0.0980727   0.0000053  -0.0000071   1.0567157  -0.0222640
82.9800667   -0.9928973  -0.1610655   0.0152355   0.0990367  -0.0000016  -0.0000180   1.0586042  -0.0582525
84.0001605   -0.9925676  -0.1630152   0.0154679   0.1002173   0.0000053  -0.0000160   1.0593000  -0.0947391
85.0327946   -0.9924373  -0.1649663   0.0157621   0.1016095   0.0000022  -0.0000081   1.0586965  -0.1319093
86.0781231   -0.9921418  -0.1669630   0.0163041   0.1029302   0.0000029  -0.0000101   1.0568105  -0.1694968
87.1363020   -0.9917212  -0.1690233   0.0166625   0.1041980   0.0000048  -0.0000041   1.0536046  -0.2074041
88.2074894   -0.9915155  -0.1708510   0.0172331   0.1057169  -0.0000051  -0.0000155   1.0489040  -0.2458368
89.2918452   -0.9911961  -0.1729240   0.0179609   0.1073948  -0.0000005  -0.0000021   1.0430306  -0.2849234
90.3895312   -0.9907956  -0.1749444   0.0186653   0.1084089  -0.0000024  -0.0000180   1.0355088  -0.3237174
91.5007114   -0.9906225  -0.1770811   0.0194154   0.1092965  -0.0000084  -0.0000163   1.0264270  -0.3630294
92.6255515   -0.9902598  -0.1791534   0.0198364   0.1106854  -0.0000034  -0.0000041   1.0155656  -0.4024850
93.7642195   -0.9900151  -0.1813077   0.0202736   0.1120245  -0.0000052  -0.0000188   1.0031624  -0.4420937
94.9168855   -0.9895842  -0.1834614   0.0210323   0.1133034  -0.0000125  -0.0000104   0.9892346  -0.4818269
96.0837215   -0.9892467  -0.1855502   0.0217004   0.1145082  -0.0000039  -0.0000178   0.9734644  -0.5215695
97.2649017   -0.9888523  -0.1877388   0.0222080   0.1157302  -0.0000004  -0.0000104   0.9559370  -0.5609835
98.4606024   -0.9885158  -0.1899934   0.0227912   0.1169974  -0.0000038  -0.0000064   0.9365502  -0.6005025
99.6710021   -0.9881483  -0.1922222   0.0232844   0.1181488  -0.0000145  -0.0000062   0.9153443  -0.6396754
100.8962816  -0.9876389  -0.1945619   0.0237852   0.1195435  -0.0000102  -0.0000124   0.8922365  -0.6784421
102.1366237  -0.9873804  -0.1967085   0.0243077   0.1209279   0.0000052  -0.0000179   0.8671283  -0.7166929
103.3922136  -0.9868278  -0.1991572   0.0248273   0.1222795  -0.0000096  -0.0000112   0.8401955  -0.7544722
104.6632389  -0.9863262  -0.2014714   0.0253615   0.1236277  -0.0000105  -0.0000055   0.8113415  -0.7912682
105.9498891  -0.9856101  -0.2037110   0.0251354   0.1243311  -0.0000069  -0.0000089   0.7803574  -0.8250929
107.2523564  -0.9860279  -0.2059473   0.0273381   0.1265203  -0.0000016  -0.0000085   0.7458400  -0.8653272
108.5708353  -0.9855474  -0.2084821   0.0276283   0.1287136  -0.0000106  -0.0000041   0.7121824  -0.8993932
109.9055225  -0.9833380  -0.2112436   0.0265772   0.1286506   0.0000076  -0.0000064   0.6774515  -0.9319120
111.2566174  -0.9840365  -0.2134950   0.0276742   0.1314981  -0.0000017  -0.0000120   0.6366632  -0.9623526
112.6243216  -0.9834963  -0.2159344   0.0287194   0.1334876   0.0000017  -0.0000150   0.5956314  -0.9930429
114.0088393  -0.9831408  -0.2185428   0.0296085   0.1351114  -0.0000127  -0.0000032   0.5528684  -1.0220177
115.4103773  -0.9826422  -0.2210906   0.0304944   0.1367724  -0.0000076  -0.0000214   0.5080600  -1.0493846
116.8291446  -0.9820787  -0.2235726   0.0312796   0.1384364   0.0000125  -0.0000049   0.4616156  -1.0748125
118.2653533  -0.9815815  -0.2261165   0.0323405   0.1403097  -0.0000004  -0.0000118   0.4131618  -1.0983546
119.7192175  -0.9809781  -0.2288220   0.0332659   0.1417115  -0.0000147  -0.0000006   0.3630310  -1.1198741
121.1909545  -0.9803872  -0.2314315   0.0340782   0.1432945  -0.0000096  -0.0000137   0.3112472  -1.1389094
122.6807839  -0.9799043  -0.2341853   0.0350381   0.1448904  -0.0000186  -0.0000183   0.2578829  -1.1556283
124.1889281  -0.9791605  -0.2369950   0.0357476   0.1464688   0.0000025  -0.0000021   0.2030196  -1.1697805
125.7156123  -0.9785650  -0.2396451   0.0364305   0.1478424  -0.0000108  -0.0000053   0.1468018  -1.1813263
127.2610644  -0.9779432  -0.2424537   0.0373486   0.1495742  -0.0000061  -0.0000096   0.0899457  -1.1898236
128.8255151  -0.9771838  -0.2452368   0.0379308   0.1511842  -0.0000125  -0.0000101   0.0310541  -1.1954536
130.4091980  -0.9764743  -0.2479398   0.0385543   0.1527011  -0.0000132  -0.0000125  -0.0282397  -1.1979713
132.0123495  -0.9758939  -0.2508135   0.0389254   0.1546707  -0.0000062  -0.0000027  -0.0885005  -1.1971293
133.6352088  -0.9749719  -0.2539265   0.0394722   0.1567496  -0.0000239  -0.0000059  -0.1491135  -1.1931309
135.2780184  -0.9743142  -0.2569455   0.0398966   0.1588684  -0.0000031  -0.0000057  -0.2103454  -1.1854267
136.9410235  -0.9733702  -0.2598782   0.0405177   0.1612670  -0.0000093  -0.0000137  -0.2717939  -1.1740384
138.6244722  -0.9725748  -0.2628653   0.0409765   0.1636157  -0.0000096  -0.0000023  -0.3330388  -1.1591738
140.3286160  -0.9717809  -0.2658232   0.0416682   0.1665010  -0.0000127  -0.0000127  -0.3943408  -1.1406394
142.0537093  -0.9708365  -0.2688252   0.0426469   0.1696139  -0.0000183  -0.0000196  -0.4577303  -1.1193078
143.8000095  -0.9702000  -0.2718624   0.0429343   0.1734645  -0.0000058   0.0000000  -0.5114804  -1.0920313
145.5677774  -0.9693942  -0.2753286   0.0449630   0.1769040   0.0000058  -0.0000122  -0.5686752  -1.0596310
147.3572769  -0.9682857  -0.2784088   0.0479925   0.1801514  -0.0000021  -0.0000169  -0.6296031  -1.0274029
149.1687752  -0.9674134  -0.2816895   0.0508027   0.1824883   0.0000015  -0.0000091  -0.6842854  -0.9897038
151.0025426  -0.9664275  -0.2847470   0.0531785   0.1848851  -0.0000053  -0.0000193  -0.7376444  -0.9478988
152.8588530  -0.9656244  -0.2881309   0.0558005   0.1870089  -0.0000013  -0.0000092  -0.7884430  -0.9023780
154.7379834  -0.9646025  -0.2915141   0.0579724   0.1887990  -0.0000086  -0.0000110  -0.8368112  -0.8532143
156.6402144  -0.9636280  -0.2948255   0.0605238   0.1908283  -0.0000084  -0.0000061  -0.8822036  -0.8005717
158.5658301  -0.9626630  -0.2983265   0.0624521   0.1924096  -0.0000037   0.0000147  -0.9241073  -0.7445390
160.5151177  -0.9616052  -0.3016582   0.0644993   0.1942222   0.0000014  -0.0000065  -0.9630209  -0.6849737
162.4883685  -0.9608425  -0.3052523   0.0668915   0.1963630   0.0000013  -0.0000028  -0.9967976  -0.6237559
164.4858769  -0.9592806  -0.3085098   0.0687367   0.1982912   0.0000046  -0.0000033  -1.0278789  -0.5582318
166.5079411  -0.9582658  -0.3120065   0.0708948   0.2000068  -0.0000070  -0.0000102  -1.0539276  -0.4910024
168.5548630  -0.9572630  -0.3156797   0.0729701   0.2020607  -0.0000107   0.0000016  -1.0755896  -0.4214285
170.6269483  -0.9560361  -0.3190830   0.0750263   0.2039533  -0.0000006  -0.0000172  -1.0920161  -0.3500769
172.7245062  -0.9546704  -0.3225815   0.0770282   0.2058377   0.0000046  -0.0000030  -1.1035268  -0.2774294
174.8478498  -0.9536864  -0.3263550   0.0790424   0.2080664   0.0000061  -0.0000036  -1.1094082  -0.2032648
176.9972963  -0.9522513  -0.3300538   0.0812586   0.2100547   0.0000235  -0.0000062  -1.1102204  -0.1277967
179.1731664  -0.9520212  -0.3364252   0.0835695   0.2136668  -0.0000187  -0.0000088  -1.1019377  -0.0580540
181.3757850  -0.9505882  -0.3373535   0.0848595   0.2141811  -0.0000020  -0.0000058  -1.0923748   0.0172629
183.6054809  -0.9482505  -0.3412470   0.0877350   0.2165968  -0.0000115  -0.0000014  -1.0773858   0.0954521
185.8625870  -0.9467706  -0.3449104   0.0900932   0.2185412  -0.0000271  -0.0000083  -1.0548059   0.1676861
188.1474402  -0.9454462  -0.3489801   0.0923273   0.2203982  -0.0000045  -0.0000041  -1.0266452   0.2388777
190.4603817  -0.9436765  -0.3528242   0.0942826   0.2222591  -0.0000241  -0.0000166  -0.9928692   0.3077410
192.8017567  -0.9424006  -0.3567356   0.0963840   0.2245060   0.0000113  -0.0000080  -0.9528826   0.3737659
195.1719148  -0.9406687  -0.3606540   0.0983046   0.2268214  -0.0000411   0.0000164  -0.9079903   0.4365081
197.5712099  -0.9393497  -0.3642134   0.1005951   0.2289277   0.0000064  -0.0000064  -0.8584258   0.4960860
200.0000000  -0.9383407  -0.3683542   0.1021508   0.2320521  -0.0000129  -0.0000066  -0.8026131   0.5505821
