! ListType=Log
# MHZ S RI R 50
0.0010000    -0.9969677  -0.0000303   0.0007114  -0.0000017   0.0000000   0.0000000   0.0000000   0.0000000
0.0010123    -0.9964749   0.0001842   0.0007194  -0.0000365   0.0000000   0.0000000   0.0000000   0.0000000
0.0010247    -0.9978518   0.0003317   0.0007123  -0.0000288   0.0000000   0.0000000   0.0000000   0.0000000
0.0010373    -0.9969708   0.0000278   0.0007200   0.0000140   0.0000000   0.0000000   0.0000000   0.0000000
0.0010501    -0.9969359  -0.0009676   0.0007225  -0.0000039   0.0000000   0.0000000   0.0000000   0.0000000
0.0010630    -0.9965815   0.0003642   0.0007332  -0.0000240   0.0000000   0.0000000   0.0000000   0.0000000
0.0010761    -0.9975277   0.0000157   0.0007370  -0.0000361   0.0000000   0.0000000   0.0000000   0.0000000
0.0010893    -0.9961551   0.0001019   0.0007161  -0.0000492   0.0000000   0.0000000   0.0000000   0.0000000
0.0011027    -0.9970874  -0.0000778   0.0007591  -0.0000128   0.0000000   0.0000000   0.0000000   0.0000000
0.0011162    -0.9975141   0.0006124   0.0006976  -0.0000382   0.0000000   0.0000000   0.0000000   0.0000000
0.0011300    -0.9972435  -0.0003355   0.0007426  -0.0000537   0.0000000   0.0000000   0.0000000   0.0000000
0.0011439    -0.9967439   0.0002130   0.0007502   0.0000073   0.0000000   0.0000000   0.0000000   0.0000000
0.0011579    -0.9978147  -0.0001060   0.0007477  -0.0000614   0.0000000   0.0000000   0.0000000   0.0000000
0.0011721    -0.9967969   0.0000565   0.0006992  -0.0000128   0.0000000   0.0000000   0.0000000   0.0000000
0.0011866    -0.9973273  -0.0005336   0.0007520  -0.0000405   0.0000000   0.0000000   0.0000000   0.0000000
0.0012011    -0.9967746  -0.0002109   0.0007342  -0.0000526   0.0000000   0.0000000   0.0000000   0.0000000
0.0012159    -0.9964132   0.0003263   0.0007187  -0.0000195   0.0000000   0.0000000   0.0000000   0.0000000
0.0012309    -0.9971105   0.0001472   0.0007173  -0.0000384   0.0000000   0.0000000   0.0000000   0.0000000
0.0012460    -0.9968228  -0.0006189   0.0007585  -0.0000263   0.0000000   0.0000000   0.0000000   0.0000000
0.0012613    -0.9968236   0.0004565   0.0007172  -0.0000308   0.0000000   0.0000000   0.0000000   0.0000000
0.0012768    -0.9973259  -0.0004886   0.0007328  -0.0000322   0.0000000   0.0000000   0.0000000   0.0000000
0.0012925    -0.9962614  -0.0000585   0.0007201  -0.0000269   0.0000000   0.0000000   0.0000000   0.0000000
0.0013084    -0.9971991  -0.0002341   0.0007457  -0.0000341   0.0000000   0.0000000   0.0000000   0.0000000
0.0013245    -0.9964398   0.0003488   0.0007250  -0.0000514   0.0000000   0.0000000   0.0000000   0.0000000
0.0013408    -0.9970354  -0.0004119   0.0007503  -0.0000268   0.0000000   0.0000000   0.0000000   0.0000000
0.0013572    -0.9967864   0.0003774   0.0007391  -0.0000268   0.0000000   0.0000000   0.0000000   0.0000000
0.0013739    -0.9971453  -0.0003183   0.0007101  -0.0000540   0.0000000   0.0000000   0.0000000   0.0000000
0.0013908    -0.9970315   0.0006425   0.0006982  -0.0000434   0.0000000   0.0000000   0.0000000   0.0000000
0.0014079    -0.9968296  -0.0001085   0.0007314  -0.0000637   0.0000000   0.0000000   0.0000000   0.0000000
0.0014252    -0.9968122   0.0003655   0.0007183  -0.0000401   0.0000000   0.0000000   0.0000000   0.0000000
0.0014427    -0.9969402  -0.0001686   0.0007458  -0.0000402   0.0000000   0.0000000   0.0000000   0.0000000
0.0014605    -0.9970535   0.0003311   0.0007433  -0.0000635   0.0000000   0.0000000   0.0000000   0.0000000
0.0014784    -0.9971162  -0.0002949   0.0007323  -0.0000440   0.0000000   0.0000000   0.0000000   0.0000000
0.0014966    -0.9966128  -0.0000405   0.0007458  -0.0000173   0.0000000   0.0000000   0.0000000   0.0000000
0.0015150    -0.9971823   0.0002735   0.0007397  -0.0000459   0.0000000   0.0000000   0.0000000   0.0000000
0.0015336    -0.9971309  -0.0003551   0.0007215  -0.0000247   0.0000000   0.0000000   0.0000000   0.0000000
0.0015525    -0.9970737  -0.0006081   0.0007478  -0.0000223   0.0000000   0.0000000   0.0000000   0.0000000
0.0015716    -0.9970921  -0.0000158   0.0007217  -0.0000684   0.0000000   0.0000000   0.0000000   0.0000000
0.0015909    -0.9963364  -0.0000007   0.0006883  -0.0000242   0.0000000   0.0000000   0.0000000   0.0000000
0.0016104    -0.9973718  -0.0001930   0.0007386  -0.0000624   0.0000000   0.0000000   0.0000000   0.0000000
0.0016302    -0.9965738  -0.0002887   0.0006938  -0.0000318   0.0000000   0.0000000   0.0000000   0.0000000
0.0016503    -0.9970023   0.0003322   0.0007332  -0.0000435   0.0000000   0.0000000   0.0000000   0.0000000
0.0016706    -0.9970336  -0.0000894   0.0007509  -0.0000704   0.0000000   0.0000000   0.0000000   0.0000000
0.0016911    -0.9974300   0.0003043   0.0007028  -0.0000837   0.0000000   0.0000000   0.0000000   0.0000000
0.0017119    -0.9969057  -0.0005158   0.0007443  -0.0000310   0.0000000   0.0000000   0.0000000   0.0000000
0.0017329    -0.9967920  -0.0000286   0.0007386  -0.0000407   0.0000000   0.0000000   0.0000000   0.0000000
0.0017542    -0.9976313  -0.0000041   0.0007522  -0.0000685   0.0000000   0.0000000   0.0000000   0.0000000
0.0017758    -0.9972968  -0.0001040   0.0007668  -0.0000714   0.0000000   0.0000000   0.0000000   0.0000000
0.0017976    -0.9972598   0.0001603   0.0007333  -0.0000441   0.0000000   0.0000000   0.0000000   0.0000000
0.0018197    -0.9974221  -0.0002732   0.0007213  -0.0000517   0.0000000   0.0000000   0.0000000   0.0000000
0.0018421    -0.9968818   0.0000272   0.0007391  -0.0000642   0.0000000   0.0000000   0.0000000   0.0000000
0.0018648    -0.9973461  -0.0001185   0.0007258  -0.0000516   0.0000000   0.0000000   0.0000000   0.0000000
0.0018877    -0.9969949  -0.0003006   0.0007559  -0.0000560   0.0000000   0.0000000   0.0000000   0.0000000
0.0019109    -0.9971961   0.0001523   0.0007323  -0.0000545   0.0000000   0.0000000   0.0000000   0.0000000
0.0019344    -0.9971898  -0.0003061   0.0007277  -0.0000545   0.0000000   0.0000000   0.0000000   0.0000000
0.0019582    -0.9972197  -0.0003976   0.0007267  -0.0000657   0.0000000   0.0000000   0.0000000   0.0000000
0.0019822    -0.9969005   0.0002801   0.0007371  -0.0000596   0.0000000   0.0000000   0.0000000   0.0000000
0.0020066    -0.9968753  -0.0000582   0.0007363  -0.0000501   0.0000000   0.0000000   0.0000000   0.0000000
0.0020313    -0.9972330  -0.0000450   0.0007204  -0.0000622   0.0000000   0.0000000   0.0000000   0.0000000
0.0020562    -0.9973286   0.0000278   0.0007247  -0.0000573   0.0000000   0.0000000   0.0000000   0.0000000
0.0020815    -0.9971271  -0.0003942   0.0007177  -0.0000633   0.0000000   0.0000000   0.0000000   0.0000000
0.0021071    -0.9969218  -0.0001765   0.0007076  -0.0000760   0.0000000   0.0000000   0.0000000   0.0000000
0.0021330    -0.9967575  -0.0000184   0.0007216  -0.0000351   0.0000000   0.0000000   0.0000000   0.0000000
0.0021592    -0.9968344   0.0000038   0.0007159  -0.0000671   0.0000000   0.0000000   0.0000000   0.0000000
0.0021858    -0.9973028  -0.0000011   0.0007223  -0.0000650   0.0000000   0.0000000   0.0000000   0.0000000
0.0022126    -0.9971545  -0.0001359   0.0007457  -0.0000425   0.0000000   0.0000000   0.0000000   0.0000000
0.0022398    -0.9969900  -0.0000926   0.0007147  -0.0000725   0.0000000   0.0000000   0.0000000   0.0000000
0.0022674    -0.9967531  -0.0000697   0.0007101  -0.0000661   0.0000000   0.0000000   0.0000000   0.0000000
0.0022953    -0.9969210  -0.0000436   0.0007386  -0.0000678   0.0000000   0.0000000   0.0000000   0.0000000
0.0023235    -0.9970976   0.0002509   0.0007182  -0.0000547   0.0000000   0.0000000   0.0000000   0.0000000
0.0023520    -0.9971214  -0.0004104   0.0007333  -0.0000507   0.0000000   0.0000000   0.0000000   0.0000000
0.0023809    -0.9967588  -0.0001842   0.0007190  -0.0000517   0.0000000   0.0000000   0.0000000   0.0000000
0.0024102    -0.9970538  -0.0002940   0.0007069  -0.0000749   0.0000000   0.0000000   0.0000000   0.0000000
0.0024398    -0.9970970  -0.0002439   0.0007209  -0.0000695   0.0000000   0.0000000   0.0000000   0.0000000
0.0024698    -0.9971791  -0.0001378   0.0007284  -0.0000622   0.0000000   0.0000000   0.0000000   0.0000000
0.0025002    -0.9969196  -0.0002178   0.0007215  -0.0000564   0.0000000   0.0000000   0.0000000   0.0000000
0.0025309    -0.9969398  -0.0000581   0.0007311  -0.0000483   0.0000000   0.0000000   0.0000000   0.0000000
0.0025621    -0.9968855   0.0002343   0.0007267  -0.0000553   0.0000000   0.0000000   0.0000000   0.0000000
0.0025935    -0.9970657   0.0003101   0.0007379  -0.0000670   0.0000000   0.0000000   0.0000000   0.0000000
0.0026254    -0.9972399  -0.0001111   0.0007148  -0.0000801   0.0000000   0.0000000   0.0000000   0.0000000
0.0026577    -0.9970089  -0.0001782   0.0007149  -0.0000690   0.0000000   0.0000000   0.0000000   0.0000000
0.0026904    -0.9968787  -0.0002394   0.0007328  -0.0000250   0.0000000   0.0000000   0.0000000   0.0000000
0.0027235    -0.9972541   0.0002335   0.0007366  -0.0000676   0.0000000   0.0000000   0.0000000   0.0000000
0.0027569    -0.9972113  -0.0002573   0.0007246  -0.0000994   0.0000000   0.0000000   0.0000000   0.0000000
0.0027908    -0.9968959  -0.0002421   0.0006943  -0.0000868   0.0000000   0.0000000   0.0000000   0.0000000
0.0028251    -0.9970687   0.0001255   0.0007237  -0.0000795   0.0000000   0.0000000   0.0000000   0.0000000
0.0028599    -0.9971479  -0.0000574   0.0007362  -0.0000607   0.0000000   0.0000000   0.0000000   0.0000000
0.0028950    -0.9973408   0.0000932   0.0007252  -0.0000805   0.0000000   0.0000000   0.0000000   0.0000000
0.0029306    -0.9972097  -0.0001664   0.0007236  -0.0000765   0.0000000   0.0000000   0.0000000   0.0000000
0.0029666    -0.9973420  -0.0000500   0.0007136  -0.0000804   0.0000000   0.0000000   0.0000000   0.0000000
0.0030031    -0.9971837  -0.0001421   0.0007133  -0.0000604   0.0000000   0.0000000   0.0000000   0.0000000
0.0030400    -0.9972501  -0.0000470   0.0007039  -0.0000743   0.0000000   0.0000000   0.0000000   0.0000000
0.0030774    -0.9969949  -0.0001726   0.0007075  -0.0000749   0.0000000   0.0000000   0.0000000   0.0000000
0.0031152    -0.9972927   0.0001504   0.0007102  -0.0000640   0.0000000   0.0000000   0.0000000   0.0000000
0.0031535    -0.9971337  -0.0001570   0.0006945  -0.0000555   0.0000000   0.0000000   0.0000000   0.0000000
0.0031923    -0.9971343  -0.0000295   0.0006780  -0.0000754   0.0000000   0.0000000   0.0000000   0.0000000
0.0032315    -0.9972419   0.0000854   0.0007236  -0.0000955   0.0000000   0.0000000   0.0000000   0.0000000
0.0032713    -0.9969720  -0.0000383   0.0006939  -0.0000679   0.0000000   0.0000000   0.0000000   0.0000000
0.0033115    -0.9972946   0.0000405   0.0007150  -0.0000848   0.0000000   0.0000000   0.0000000   0.0000000
0.0033522    -0.9968559  -0.0001963   0.0007270  -0.0000736   0.0000000   0.0000000   0.0000000   0.0000000
0.0033934    -0.9971589  -0.0000794   0.0007329  -0.0000801   0.0000000   0.0000000   0.0000000   0.0000000
0.0034351    -0.9970337  -0.0000323   0.0006881  -0.0000929   0.0000000   0.0000000   0.0000000   0.0000000
0.0034773    -0.9974444  -0.0000070   0.0006958  -0.0001132   0.0000000   0.0000000   0.0000000   0.0000000
0.0035201    -0.9972487   0.0001398   0.0007322  -0.0001316   0.0000000   0.0000000   0.0000000   0.0000000
0.0035634    -0.9973612  -0.0001228   0.0006802  -0.0000895   0.0000000   0.0000000   0.0000000   0.0000000
0.0036072    -0.9971264  -0.0001103   0.0007065  -0.0001081   0.0000000   0.0000000   0.0000000   0.0000000
0.0036515    -0.9970556  -0.0002897   0.0007023  -0.0001067   0.0000000   0.0000000   0.0000000   0.0000000
0.0036964    -0.9971334  -0.0003026   0.0006683  -0.0000757   0.0000000   0.0000000   0.0000000   0.0000000
0.0037418    -0.9971614  -0.0002160   0.0007080  -0.0000782   0.0000000   0.0000000   0.0000000   0.0000000
0.0037878    -0.9971466  -0.0001143   0.0007101  -0.0000644   0.0000000   0.0000000   0.0000000   0.0000000
0.0038344    -0.9971627  -0.0001215   0.0007016  -0.0000967   0.0000000   0.0000000   0.0000000   0.0000000
0.0038815    -0.9971905   0.0002015   0.0006869  -0.0000946   0.0000000   0.0000000   0.0000000   0.0000000
0.0039293    -0.9972033  -0.0000018   0.0006847  -0.0000838   0.0000000   0.0000000   0.0000000   0.0000000
0.0039776    -0.9971396  -0.0001102   0.0006965  -0.0001112   0.0000000   0.0000000   0.0000000   0.0000000
0.0040265    -0.9972876  -0.0000071   0.0006809  -0.0000872   0.0000000   0.0000000   0.0000000   0.0000000
0.0040759    -0.9969746  -0.0000736   0.0006914  -0.0001159   0.0000000   0.0000000   0.0000000   0.0000000
0.0041261    -0.9972342   0.0002169   0.0007009  -0.0000979   0.0000000   0.0000000   0.0000000   0.0000000
0.0041768    -0.9971993   0.0000945   0.0006990  -0.0001055   0.0000000   0.0000000   0.0000000   0.0000000
0.0042281    -0.9971609   0.0000681   0.0006994  -0.0001051   0.0000000   0.0000000   0.0000000   0.0000000
0.0042801    -0.9971219  -0.0000619   0.0006883  -0.0001051   0.0000000   0.0000000   0.0000000   0.0000000
0.0043327    -0.9969952  -0.0000789   0.0006922  -0.0001001   0.0000000   0.0000000   0.0000000   0.0000000
0.0043860    -0.9970289  -0.0000024   0.0006923  -0.0001207   0.0000000   0.0000000   0.0000000   0.0000000
0.0044399    -0.9971165  -0.0001079   0.0006962  -0.0000945   0.0000000   0.0000000   0.0000000   0.0000000
0.0044945    -0.9971568   0.0002233   0.0006999  -0.0000953   0.0000000   0.0000000   0.0000000   0.0000000
0.0045497    -0.9971925  -0.0000181   0.0006908  -0.0001167   0.0000000   0.0000000   0.0000000   0.0000000
0.0046057    -0.9970375  -0.0000072   0.0006906  -0.0001188   0.0000000   0.0000000   0.0000000   0.0000000
0.0046623    -0.9973786   0.0000379   0.0006857  -0.0001022   0.0000000   0.0000000   0.0000000   0.0000000
0.0047196    -0.9969999   0.0000677   0.0006790  -0.0001008   0.0000000   0.0000000   0.0000000   0.0000000
0.0047776    -0.9971388   0.0000604   0.0006872  -0.0001050   0.0000000   0.0000000   0.0000000   0.0000000
0.0048363    -0.9969125   0.0000439   0.0006799  -0.0001101   0.0000000   0.0000000   0.0000000   0.0000000
0.0048958    -0.9970169  -0.0000193   0.0006919  -0.0001260   0.0000000   0.0000000   0.0000000   0.0000000
0.0049560    -0.9971360   0.0001374   0.0006745  -0.0001118   0.0000000   0.0000000   0.0000000   0.0000000
0.0050169    -0.9970908   0.0000620   0.0006877  -0.0001054   0.0000000   0.0000000   0.0000000   0.0000000
0.0050786    -0.9971221  -0.0000233   0.0006569  -0.0001020   0.0000000   0.0000000   0.0000000   0.0000000
0.0051410    -0.9974663   0.0000846   0.0006618  -0.0001448   0.0000000   0.0000000   0.0000000   0.0000000
0.0052042    -0.9971422   0.0001230   0.0006854  -0.0001043   0.0000000   0.0000000   0.0000000   0.0000000
0.0052682    -0.9969682   0.0000262   0.0006809  -0.0001247   0.0000000   0.0000000   0.0000000   0.0000000
0.0053330    -0.9970257   0.0000753   0.0006659  -0.0001017   0.0000000   0.0000000   0.0000000   0.0000000
0.0053985    -0.9971145   0.0000671   0.0006811  -0.0001254   0.0000000   0.0000000   0.0000000   0.0000000
0.0054649    -0.9971001   0.0002049   0.0006867  -0.0001239   0.0000000   0.0000000   0.0000000   0.0000000
0.0055321    -0.9970859   0.0001387   0.0006720  -0.0001012   0.0000000   0.0000000   0.0000000   0.0000000
0.0056001    -0.9971440  -0.0000219   0.0006787  -0.0001379   0.0000000   0.0000000   0.0000000   0.0000000
0.0056689    -0.9970549   0.0001124   0.0006580  -0.0001134   0.0000000   0.0000000   0.0000000   0.0000000
0.0057386    -0.9969758   0.0001901   0.0006717  -0.0001384   0.0000000   0.0000000   0.0000000   0.0000000
0.0058091    -0.9971696   0.0000997   0.0006676  -0.0001063   0.0000000   0.0000000   0.0000000   0.0000000
0.0058806    -0.9973624  -0.0000944   0.0006523  -0.0001239   0.0000000   0.0000000   0.0000000   0.0000000
0.0059529    -0.9972792   0.0001433   0.0006682  -0.0001269   0.0000000   0.0000000   0.0000000   0.0000000
0.0060260    -0.9971374  -0.0000554   0.0006504  -0.0001159   0.0000000   0.0000000   0.0000000   0.0000000
0.0061001    -0.9970321   0.0000493   0.0006693  -0.0001291   0.0000000   0.0000000   0.0000000   0.0000000
0.0061751    -0.9971772   0.0000698   0.0006546  -0.0001396   0.0000000   0.0000000   0.0000000   0.0000000
0.0062510    -0.9972772   0.0001133   0.0006662  -0.0001391   0.0000000   0.0000000   0.0000000   0.0000000
0.0063279    -0.9970900   0.0000593   0.0006693  -0.0001319   0.0000000   0.0000000   0.0000000   0.0000000
0.0064056    -0.9970537   0.0000716   0.0006550  -0.0001232   0.0000000   0.0000000   0.0000000   0.0000000
0.0064844    -0.9971054  -0.0000152   0.0006345  -0.0001465   0.0000000   0.0000000   0.0000000   0.0000000
0.0065641    -0.9972490  -0.0001216   0.0006439  -0.0001232   0.0000000   0.0000000   0.0000000   0.0000000
0.0066448    -0.9973023  -0.0000495   0.0006443  -0.0001296   0.0000000   0.0000000   0.0000000   0.0000000
0.0067265    -0.9972103   0.0000358   0.0006617  -0.0001236   0.0000000   0.0000000   0.0000000   0.0000000
0.0068092    -0.9973432  -0.0000246   0.0006769  -0.0001469   0.0000000   0.0000000   0.0000000   0.0000000
0.0068929    -0.9972567   0.0000195   0.0006349  -0.0001390   0.0000000   0.0000000   0.0000000   0.0000000
0.0069776    -0.9972818   0.0001323   0.0006353  -0.0001267   0.0000000   0.0000000   0.0000000   0.0000000
0.0070634    -0.9971695   0.0000122   0.0006357  -0.0001312   0.0000000   0.0000000   0.0000000   0.0000000
0.0071502    -0.9970970   0.0000685   0.0006495  -0.0001432   0.0000000   0.0000000   0.0000000   0.0000000
0.0072381    -0.9972585  -0.0000323   0.0006323  -0.0001488   0.0000000   0.0000000   0.0000000   0.0000000
0.0073271    -0.9972712  -0.0000495   0.0006446  -0.0001217   0.0000000   0.0000000   0.0000000   0.0000000
0.0074172    -0.9972024   0.0000779   0.0006313  -0.0001281   0.0000000   0.0000000   0.0000000   0.0000000
0.0075084    -0.9971266   0.0002656   0.0006330  -0.0001485   0.0000000   0.0000000   0.0000000   0.0000000
0.0076007    -0.9971106   0.0001730   0.0006407  -0.0001360   0.0000000   0.0000000   0.0000000   0.0000000
0.0076941    -0.9971026   0.0001683   0.0006377  -0.0001246   0.0000000   0.0000000   0.0000000   0.0000000
0.0077887    -0.9971965  -0.0000981   0.0006234  -0.0001266   0.0000000   0.0000000   0.0000000   0.0000000
0.0078844    -0.9971114   0.0000317   0.0006231  -0.0001540   0.0000000   0.0000000   0.0000000   0.0000000
0.0079814    -0.9973247  -0.0000261   0.0006225  -0.0001455   0.0000000   0.0000000   0.0000000   0.0000000
0.0080795    -0.9971798   0.0002254   0.0006327  -0.0001452   0.0000000   0.0000000   0.0000000   0.0000000
0.0081788    -0.9969521   0.0000985   0.0006211  -0.0001504   0.0000000   0.0000000   0.0000000   0.0000000
0.0082793    -0.9972667   0.0000972   0.0006321  -0.0001303   0.0000000   0.0000000   0.0000000   0.0000000
0.0083811    -0.9972146   0.0001661   0.0006251  -0.0001505   0.0000000   0.0000000   0.0000000   0.0000000
0.0084842    -0.9970927  -0.0000288   0.0006205  -0.0001343   0.0000000   0.0000000   0.0000000   0.0000000
0.0085885    -0.9970444  -0.0000192   0.0006256  -0.0001424   0.0000000   0.0000000   0.0000000   0.0000000
0.0086940    -0.9970556  -0.0000476   0.0006061  -0.0001293   0.0000000   0.0000000   0.0000000   0.0000000
0.0088009    -0.9971446   0.0000548   0.0006140  -0.0001424   0.0000000   0.0000000   0.0000000   0.0000000
0.0089091    -0.9970303  -0.0000415   0.0006141  -0.0001577   0.0000000   0.0000000   0.0000000   0.0000000
0.0090186    -0.9971486   0.0001246   0.0006169  -0.0001603   0.0000000   0.0000000   0.0000000   0.0000000
0.0091295    -0.9971391   0.0000561   0.0005969  -0.0001485   0.0000000   0.0000000   0.0000000   0.0000000
0.0092417    -0.9971932   0.0001036   0.0006102  -0.0001584   0.0000000   0.0000000   0.0000000   0.0000000
0.0093553    -0.9971840  -0.0000225   0.0006179  -0.0001568   0.0000000   0.0000000   0.0000000   0.0000000
0.0094703    -0.9972765   0.0001232   0.0006091  -0.0001492   0.0000000   0.0000000   0.0000000   0.0000000
0.0095868    -0.9972751   0.0000758   0.0006079  -0.0001495   0.0000000   0.0000000   0.0000000   0.0000000
0.0097046    -0.9972446   0.0000732   0.0005939  -0.0001666   0.0000000   0.0000000   0.0000000   0.0000000
0.0098239    -0.9970890   0.0001180   0.0006079  -0.0001559   0.0000000   0.0000000   0.0000000   0.0000000
0.0099447    -0.9971433   0.0000633   0.0006102  -0.0001586   0.0000000   0.0000000   0.0000000   0.0000000
0.0100669    -0.9971739   0.0001881   0.0005999  -0.0001689   0.0000000   0.0000000   0.0000000   0.0000000
0.0101907    -0.9971085   0.0000867   0.0005840  -0.0001452   0.0000000   0.0000000   0.0000000   0.0000000
0.0103160    -0.9972632   0.0000146   0.0005999  -0.0001726   0.0000000   0.0000000   0.0000000   0.0000000
0.0104428    -0.9971418   0.0001632   0.0005763  -0.0001692   0.0000000   0.0000000   0.0000000   0.0000000
0.0105712    -0.9971521   0.0000454   0.0005721  -0.0001571   0.0000000   0.0000000   0.0000000   0.0000000
0.0107011    -0.9971970   0.0001028   0.0005789  -0.0001417   0.0000000   0.0000000   0.0000000   0.0000000
0.0108327    -0.9971331   0.0000743   0.0005759  -0.0001647   0.0000000   0.0000000   0.0000000   0.0000000
0.0109658    -0.9970561   0.0000958   0.0005896  -0.0001483   0.0000000   0.0000000   0.0000000   0.0000000
0.0111006    -0.9971119   0.0000677   0.0005774  -0.0001413   0.0000000   0.0000000   0.0000000   0.0000000
0.0112371    -0.9970338  -0.0000106   0.0005553  -0.0001659   0.0000000   0.0000000   0.0000000   0.0000000
0.0113752    -0.9972181  -0.0000073   0.0005891  -0.0001668   0.0000000   0.0000000   0.0000000   0.0000000
0.0115151    -0.9970869   0.0004438   0.0005657  -0.0001631   0.0000000   0.0000000   0.0000000   0.0000000
0.0116566    -0.9971454  -0.0000404   0.0005694  -0.0001664   0.0000000   0.0000000   0.0000000   0.0000000
0.0117999    -0.9970534   0.0002297   0.0005739  -0.0001632   0.0000000   0.0000000   0.0000000   0.0000000
0.0119450    -1.0004150  -0.0017867   0.0005783  -0.0001695   0.0000000   0.0000000   0.0000000   0.0000000
0.0120918    -0.9970469   0.0002208   0.0005639  -0.0001535   0.0000000   0.0000000   0.0000000   0.0000000
0.0122405    -0.9973143   0.0000206   0.0005508  -0.0001678   0.0000000   0.0000000   0.0000000   0.0000000
0.0123910    -0.9969373   0.0002186   0.0005474  -0.0001589   0.0000000   0.0000000   0.0000000   0.0000000
0.0125433    -0.9972110   0.0000084   0.0005630  -0.0001439   0.0000000   0.0000000   0.0000000   0.0000000
0.0126975    -0.9971842  -0.0000457   0.0005303  -0.0001443   0.0000000   0.0000000   0.0000000   0.0000000
0.0128536    -0.9971029   0.0002624   0.0005518  -0.0001467   0.0000000   0.0000000   0.0000000   0.0000000
0.0130116    -0.9971078   0.0001351   0.0005571  -0.0001668   0.0000000   0.0000000   0.0000000   0.0000000
0.0131716    -0.9971207   0.0000683   0.0005218  -0.0001638   0.0000000   0.0000000   0.0000000   0.0000000
0.0133335    -0.9970250   0.0001181   0.0005456  -0.0001504   0.0000000   0.0000000   0.0000000   0.0000000
0.0134974    -0.9971579   0.0001341   0.0005334  -0.0001708   0.0000000   0.0000000   0.0000000   0.0000000
0.0136633    -0.9969501   0.0001584   0.0005346  -0.0001438   0.0000000   0.0000000   0.0000000   0.0000000
0.0138313    -0.9969504   0.0001032   0.0005425  -0.0001482   0.0000000   0.0000000   0.0000000   0.0000000
0.0140013    -0.9969897   0.0001286   0.0005290  -0.0001489   0.0000000   0.0000000   0.0000000   0.0000000
0.0141734    -0.9970675   0.0000827   0.0005524  -0.0001556   0.0000000   0.0000000   0.0000000   0.0000000
0.0143477    -0.9969900   0.0001633   0.0005348  -0.0001405   0.0000000   0.0000000   0.0000000   0.0000000
0.0145240    -0.9970934   0.0000834   0.0005389  -0.0001479   0.0000000   0.0000000   0.0000000   0.0000000
0.0147026    -0.9969872   0.0001872   0.0005311  -0.0001328   0.0000000   0.0000000   0.0000000   0.0000000
0.0148833    -0.9970733   0.0000561   0.0005208  -0.0001487   0.0000000   0.0000000   0.0000000   0.0000000
0.0150663    -0.9971137   0.0001736   0.0005389  -0.0001621   0.0000000   0.0000000   0.0000000   0.0000000
0.0152515    -0.9970308   0.0001527   0.0005345  -0.0001243   0.0000000   0.0000000   0.0000000   0.0000000
0.0154390    -0.9971132   0.0000471   0.0005171  -0.0001586   0.0000000   0.0000000   0.0000000   0.0000000
0.0156288    -0.9969450   0.0000874   0.0005263  -0.0001337   0.0000000   0.0000000   0.0000000   0.0000000
0.0158209    -0.9971588   0.0001161   0.0005262  -0.0001472   0.0000000   0.0000000   0.0000000   0.0000000
0.0160154    -0.9970889   0.0002610   0.0005290  -0.0001443   0.0000000   0.0000000   0.0000000   0.0000000
0.0162123    -0.9969604   0.0000972   0.0005120  -0.0001419   0.0000000   0.0000000   0.0000000   0.0000000
0.0164116    -0.9970133   0.0002394   0.0005123  -0.0001624   0.0000000   0.0000000   0.0000000   0.0000000
0.0166134    -0.9971125   0.0000788   0.0005124  -0.0001401   0.0000000   0.0000000   0.0000000   0.0000000
0.0168176    -0.9970448   0.0001376   0.0004932  -0.0001537   0.0000000   0.0000000   0.0000000   0.0000000
0.0170243    -0.9971182   0.0002144   0.0005092  -0.0001496   0.0000000   0.0000000   0.0000000   0.0000000
0.0172336    -0.9969725   0.0001365   0.0005258  -0.0001461   0.0000000   0.0000000   0.0000000   0.0000000
0.0174455    -0.9971278   0.0000317   0.0005217  -0.0001476   0.0000000   0.0000000   0.0000000   0.0000000
0.0176599    -0.9971667   0.0001357   0.0005044  -0.0001388   0.0000000   0.0000000   0.0000000   0.0000000
0.0178770    -0.9971238   0.0002011   0.0004987  -0.0001226   0.0000000   0.0000000   0.0000000   0.0000000
0.0180968    -0.9970968   0.0001337   0.0004783  -0.0001273   0.0000000   0.0000000   0.0000000   0.0000000
0.0183193    -0.9970754   0.0001084   0.0004908  -0.0001317   0.0000000   0.0000000   0.0000000   0.0000000
0.0185445    -0.9970354   0.0001009   0.0005087  -0.0001412   0.0000000   0.0000000   0.0000000   0.0000000
0.0187724    -0.9969276   0.0000972   0.0005092  -0.0001352   0.0000000   0.0000000   0.0000000   0.0000000
0.0190032    -0.9969977   0.0001439   0.0004865  -0.0001258   0.0000000   0.0000000   0.0000000   0.0000000
0.0192368    -0.9969629   0.0001637   0.0004919  -0.0001270   0.0000000   0.0000000   0.0000000   0.0000000
0.0194733    -0.9970671   0.0001622   0.0004843  -0.0001290   0.0000000   0.0000000   0.0000000   0.0000000
0.0197127    -0.9970864   0.0000357   0.0004842  -0.0001308   0.0000000   0.0000000   0.0000000   0.0000000
0.0199550    -0.9970800   0.0000965   0.0005051  -0.0001227   0.0000000   0.0000000   0.0000000   0.0000000
0.0202003    -0.9971055   0.0001402   0.0004820  -0.0001345   0.0000000   0.0000000   0.0000000   0.0000000
0.0204487    -0.9970944   0.0000665   0.0004840  -0.0001224   0.0000000   0.0000000   0.0000000   0.0000000
0.0207001    -0.9970303   0.0002134   0.0004675  -0.0001271   0.0000000   0.0000000   0.0000000   0.0000000
0.0209545    -0.9969010   0.0001290   0.0004820  -0.0001218   0.0000000   0.0000000   0.0000000   0.0000000
0.0212121    -0.9970296   0.0001050   0.0004716  -0.0001377   0.0000000   0.0000000   0.0000000   0.0000000
0.0214729    -0.9970013   0.0000600   0.0004709  -0.0001464   0.0000000   0.0000000   0.0000000   0.0000000
0.0217369    -0.9970602   0.0002220   0.0004736  -0.0001227   0.0000000   0.0000000   0.0000000   0.0000000
0.0220041    -0.9970436   0.0000319   0.0004711  -0.0001217   0.0000000   0.0000000   0.0000000   0.0000000
0.0222746    -0.9971247  -0.0000257   0.0004375  -0.0001198   0.0000000   0.0000000   0.0000000   0.0000000
0.0225484    -0.9969196   0.0000030   0.0004775  -0.0001312   0.0000000   0.0000000   0.0000000   0.0000000
0.0228256    -0.9969799   0.0000253   0.0004744  -0.0001087   0.0000000   0.0000000   0.0000000   0.0000000
0.0231062    -0.9969303   0.0001273   0.0004645  -0.0001281   0.0000000   0.0000000   0.0000000   0.0000000
0.0233902    -0.9970172   0.0001765   0.0004682  -0.0001077   0.0000000   0.0000000   0.0000000   0.0000000
0.0236778    -0.9970162   0.0001034   0.0004633  -0.0001035   0.0000000   0.0000000   0.0000000   0.0000000
0.0239689    -0.9988441   0.0001505   0.0004650  -0.0001141   0.0000000   0.0000000   0.0000000   0.0000000
0.0242635    -0.9969010   0.0001061   0.0004780  -0.0001252   0.0000000   0.0000000   0.0000000   0.0000000
0.0245618    -0.9970114   0.0001724   0.0004797  -0.0000958   0.0000000   0.0000000   0.0000000   0.0000000
0.0248637    -0.9969384   0.0000998   0.0004647  -0.0001046   0.0000000   0.0000000   0.0000000   0.0000000
0.0251694    -0.9971134   0.0000899   0.0004735  -0.0001054   0.0000000   0.0000000   0.0000000   0.0000000
0.0254788    -0.9969573   0.0000677   0.0004599  -0.0001127   0.0000000   0.0000000   0.0000000   0.0000000
0.0257920    -0.9968701   0.0001729   0.0004606  -0.0001147   0.0000000   0.0000000   0.0000000   0.0000000
0.0261091    -0.9970761   0.0000514   0.0004632  -0.0000979   0.0000000   0.0000000   0.0000000   0.0000000
0.0264301    -0.9970748   0.0000252   0.0004497  -0.0001056   0.0000000   0.0000000   0.0000000   0.0000000
0.0267550    -0.9969925   0.0000292   0.0004489  -0.0001043   0.0000000   0.0000000   0.0000000   0.0000000
0.0270839    -0.9969755   0.0000591   0.0004478  -0.0000960   0.0000000   0.0000000   0.0000000   0.0000000
0.0274168    -0.9969751   0.0000480   0.0004530  -0.0000786   0.0000000   0.0000000   0.0000000   0.0000000
0.0277539    -0.9969897   0.0001051   0.0004323  -0.0000786   0.0000000   0.0000000   0.0000000   0.0000000
0.0280951    -0.9970358  -0.0000091   0.0004517  -0.0001198   0.0000000   0.0000000   0.0000000   0.0000000
0.0284404    -0.9968481   0.0001501   0.0004627  -0.0001096   0.0000000   0.0000000   0.0000000   0.0000000
0.0287901    -0.9970098  -0.0000318   0.0004506  -0.0000916   0.0000000   0.0000000   0.0000000   0.0000000
0.0291440    -0.9969194   0.0000295   0.0004319  -0.0001008   0.0000000   0.0000000   0.0000000   0.0000000
0.0295023    -0.9970474  -0.0000087   0.0004531  -0.0001146   0.0000000   0.0000000   0.0000000   0.0000000
0.0298649    -0.9969297   0.0001310   0.0004481  -0.0000948   0.0000000   0.0000000   0.0000000   0.0000000
0.0302321    -0.9968995   0.0001167   0.0004634  -0.0000914   0.0000000   0.0000000   0.0000000   0.0000000
0.0306037    -0.9971075   0.0000524   0.0004419  -0.0000826   0.0000000   0.0000000   0.0000000   0.0000000
0.0309799    -0.9970202   0.0000952   0.0004490  -0.0000983   0.0000000   0.0000000   0.0000000   0.0000000
0.0313608    -0.9970361   0.0000399   0.0004357  -0.0001177   0.0000000   0.0000000   0.0000000   0.0000000
0.0317463    -0.9969523   0.0000770   0.0004336  -0.0000861   0.0000000   0.0000000   0.0000000   0.0000000
0.0321366    -0.9970870   0.0000618   0.0004371  -0.0000916   0.0000000   0.0000000   0.0000000   0.0000000
0.0325316    -0.9970144   0.0000985   0.0004579  -0.0000715   0.0000000   0.0000000   0.0000000   0.0000000
0.0329316    -0.9968529   0.0000721   0.0004456  -0.0000876   0.0000000   0.0000000   0.0000000   0.0000000
0.0333364    -0.9970635   0.0001089   0.0004587  -0.0000907   0.0000000   0.0000000   0.0000000   0.0000000
0.0337462    -0.9970625   0.0000462   0.0004359  -0.0000771   0.0000000   0.0000000   0.0000000   0.0000000
0.0341610    -0.9970457  -0.0000331   0.0004308  -0.0000832   0.0000000   0.0000000   0.0000000   0.0000000
0.0345810    -0.9970335  -0.0000812   0.0004323  -0.0000914   0.0000000   0.0000000   0.0000000   0.0000000
0.0350061    -0.9969785   0.0000399   0.0004347  -0.0000862   0.0000000   0.0000000   0.0000000   0.0000000
0.0354365    -0.9969476   0.0000844   0.0004402  -0.0000809   0.0000000   0.0000000   0.0000000   0.0000000
0.0358721    -0.9968781   0.0000038   0.0004329  -0.0000813   0.0000000   0.0000000   0.0000000   0.0000000
0.0363131    -0.9970682  -0.0000081   0.0004329  -0.0000749   0.0000000   0.0000000   0.0000000   0.0000000
0.0367595    -0.9970084   0.0000409   0.0004402  -0.0000899   0.0000000   0.0000000   0.0000000   0.0000000
0.0372114    -0.9969327   0.0000570   0.0004374  -0.0000718   0.0000000   0.0000000   0.0000000   0.0000000
0.0376688    -0.9969474   0.0001552   0.0004270  -0.0000686   0.0000000   0.0000000   0.0000000   0.0000000
0.0381319    -0.9970652  -0.0001054   0.0004492  -0.0000653   0.0000000   0.0000000   0.0000000   0.0000000
0.0386006    -0.9969226   0.0001445   0.0004303  -0.0000711   0.0000000   0.0000000   0.0000000   0.0000000
0.0390752    -0.9970072   0.0002023   0.0004137  -0.0000698   0.0000000   0.0000000   0.0000000   0.0000000
0.0395555    -0.9970051   0.0001771   0.0004357  -0.0000612   0.0000000   0.0000000   0.0000000   0.0000000
0.0400418    -0.9969918   0.0000494   0.0004420  -0.0000578   0.0000000   0.0000000   0.0000000   0.0000000
0.0405340    -0.9970204   0.0000998   0.0004382  -0.0000763   0.0000000   0.0000000   0.0000000   0.0000000
0.0410323    -0.9970266   0.0000293   0.0004217  -0.0000681   0.0000000   0.0000000   0.0000000   0.0000000
0.0415368    -0.9969423  -0.0000089   0.0004273  -0.0000725   0.0000000   0.0000000   0.0000000   0.0000000
0.0420474    -0.9969800  -0.0001017   0.0004431  -0.0000648   0.0000000   0.0000000   0.0000000   0.0000000
0.0425643    -0.9969061   0.0000799   0.0004269  -0.0000635   0.0000000   0.0000000   0.0000000   0.0000000
0.0430875    -0.9969484   0.0000221   0.0004314  -0.0000497   0.0000000   0.0000000   0.0000000   0.0000000
0.0436172    -0.9969948   0.0000355   0.0004384  -0.0000706   0.0000000   0.0000000   0.0000000   0.0000000
0.0441534    -0.9970493  -0.0000185   0.0004250  -0.0000565   0.0000000   0.0000000   0.0000000   0.0000000
0.0446962    -0.9970099  -0.0000101   0.0004127  -0.0000705   0.0000000   0.0000000   0.0000000   0.0000000
0.0452457    -0.9969244   0.0000543   0.0004193  -0.0000540   0.0000000   0.0000000   0.0000000   0.0000000
0.0458019    -0.9969933   0.0000452   0.0004187  -0.0000548   0.0000000   0.0000000   0.0000000   0.0000000
0.0463649    -0.9970421   0.0000952   0.0004221  -0.0000611   0.0000000   0.0000000   0.0000000   0.0000000
0.0469349    -0.9969683   0.0000638   0.0004108  -0.0000520   0.0000000   0.0000000   0.0000000   0.0000000
0.0475119    -0.9968385   0.0000361   0.0004218  -0.0000609   0.0000000   0.0000000   0.0000000   0.0000000
0.0480960    -0.9970654   0.0001228   0.0004028  -0.0000424   0.0000000   0.0000000   0.0000000   0.0000000
0.0486872    -0.9969356   0.0000406   0.0004066  -0.0000512   0.0000000   0.0000000   0.0000000   0.0000000
0.0492857    -0.9969305   0.0000512   0.0004315  -0.0000506   0.0000000   0.0000000   0.0000000   0.0000000
0.0498916    -0.9969737   0.0001847   0.0004295  -0.0000602   0.0000000   0.0000000   0.0000000   0.0000000
0.0505050    -0.9969103   0.0000584   0.0004145  -0.0000465   0.0000000   0.0000000   0.0000000   0.0000000
0.0511258    -0.9969218   0.0000963   0.0004315  -0.0000515   0.0000000   0.0000000   0.0000000   0.0000000
0.0517543    -0.9969752   0.0000118   0.0004183  -0.0000635   0.0000000   0.0000000   0.0000000   0.0000000
0.0523906    -0.9969130   0.0000110   0.0004276  -0.0000413   0.0000000   0.0000000   0.0000000   0.0000000
0.0530346    -0.9968819   0.0000620   0.0004155  -0.0000503   0.0000000   0.0000000   0.0000000   0.0000000
0.0536866    -0.9969717  -0.0000456   0.0004192  -0.0000539   0.0000000   0.0000000   0.0000000   0.0000000
0.0543466    -0.9970337   0.0000141   0.0004217  -0.0000364   0.0000000   0.0000000   0.0000000   0.0000000
0.0550146    -0.9970048  -0.0000569   0.0004081  -0.0000449   0.0000000   0.0000000   0.0000000   0.0000000
0.0556910    -0.9969648   0.0000041   0.0004119  -0.0000467   0.0000000   0.0000000   0.0000000   0.0000000
0.0563756    -0.9970565   0.0000871   0.0004041  -0.0000327   0.0000000   0.0000000   0.0000000   0.0000000
0.0570686    -0.9968688  -0.0000591   0.0004207  -0.0000395   0.0000000   0.0000000   0.0000000   0.0000000
0.0577702    -0.9970128  -0.0000174   0.0004211  -0.0000394   0.0000000   0.0000000   0.0000000   0.0000000
0.0584804    -0.9969654   0.0000133   0.0004091  -0.0000505   0.0000000   0.0000000   0.0000000   0.0000000
0.0591993    -0.9970478   0.0000231   0.0004026  -0.0000433   0.0000000   0.0000000   0.0000000   0.0000000
0.0599270    -0.9970214   0.0000879   0.0004183  -0.0000277   0.0000000   0.0000000   0.0000000   0.0000000
0.0606637    -0.9968871   0.0000414   0.0004224  -0.0000460   0.0000000   0.0000000   0.0000000   0.0000000
0.0614095    -0.9970230   0.0000475   0.0004090  -0.0000469   0.0000000   0.0000000   0.0000000   0.0000000
0.0621644    -0.9969833   0.0000340   0.0004138  -0.0000463   0.0000000   0.0000000   0.0000000   0.0000000
0.0629286    -0.9969289   0.0000043   0.0004183  -0.0000371   0.0000000   0.0000000   0.0000000   0.0000000
0.0637022    -0.9970274  -0.0000613   0.0003984  -0.0000400   0.0000000   0.0000000   0.0000000   0.0000000
0.0644853    -0.9970144   0.0000045   0.0004019  -0.0000411   0.0000000   0.0000000   0.0000000   0.0000000
0.0652780    -0.9970415   0.0001802   0.0004094  -0.0000396   0.0000000   0.0000000   0.0000000   0.0000000
0.0660805    -0.9969985  -0.0000157   0.0004259  -0.0000267   0.0000000   0.0000000   0.0000000   0.0000000
0.0668928    -0.9969368  -0.0000077   0.0004309  -0.0000508   0.0000000   0.0000000   0.0000000   0.0000000
0.0677152    -0.9969392  -0.0000389   0.0004121  -0.0000215   0.0000000   0.0000000   0.0000000   0.0000000
0.0685476    -0.9970269   0.0000070   0.0004170  -0.0000220   0.0000000   0.0000000   0.0000000   0.0000000
0.0693903    -0.9969347  -0.0000443   0.0004258  -0.0000265   0.0000000   0.0000000   0.0000000   0.0000000
0.0702433    -0.9970420  -0.0000446   0.0004200  -0.0000344   0.0000000   0.0000000   0.0000000   0.0000000
0.0711068    -0.9969466  -0.0000053   0.0004077  -0.0000311   0.0000000   0.0000000   0.0000000   0.0000000
0.0719810    -0.9969925  -0.0000688   0.0004064  -0.0000326   0.0000000   0.0000000   0.0000000   0.0000000
0.0728659    -0.9969621  -0.0000688   0.0003970  -0.0000231   0.0000000   0.0000000   0.0000000   0.0000000
0.0737616    -0.9969623  -0.0000276   0.0004133  -0.0000364   0.0000000   0.0000000   0.0000000   0.0000000
0.0746684    -0.9970459  -0.0000208   0.0004096  -0.0000225   0.0000000   0.0000000   0.0000000   0.0000000
0.0755863    -0.9970166  -0.0001264   0.0004041  -0.0000316   0.0000000   0.0000000   0.0000000   0.0000000
0.0765155    -0.9969892   0.0000804   0.0004164  -0.0000267   0.0000000   0.0000000   0.0000000   0.0000000
0.0774561    -0.9968662  -0.0000959   0.0004202  -0.0000250   0.0000000   0.0000000   0.0000000   0.0000000
0.0784083    -0.9969000   0.0001141   0.0004174  -0.0000155   0.0000000   0.0000000   0.0000000   0.0000000
0.0793722    -0.9969950   0.0000169   0.0004014  -0.0000075   0.0000000   0.0000000   0.0000000   0.0000000
0.0803479    -0.9968991  -0.0000143   0.0004108  -0.0000237   0.0000000   0.0000000   0.0000000   0.0000000
0.0813357    -0.9970169  -0.0000143   0.0004189  -0.0000202   0.0000000   0.0000000   0.0000000   0.0000000
0.0823356    -0.9969287  -0.0000284   0.0004019  -0.0000125   0.0000000   0.0000000   0.0000000   0.0000000
0.0833477    -0.9970533  -0.0001736   0.0004082  -0.0000079   0.0000000   0.0000000   0.0000000   0.0000000
0.0843723    -0.9969560  -0.0000699   0.0004094  -0.0000112   0.0000000   0.0000000   0.0000000   0.0000000
0.0854095    -0.9969932  -0.0000494   0.0004178  -0.0000079   0.0000000   0.0000000   0.0000000   0.0000000
0.0864595    -0.9969071  -0.0001338   0.0004153  -0.0000136   0.0000000   0.0000000   0.0000000   0.0000000
0.0875224    -0.9968954  -0.0001084   0.0003859  -0.0000117   0.0000000   0.0000000   0.0000000   0.0000000
0.0885983    -0.9968751   0.0000063   0.0004062  -0.0000106   0.0000000   0.0000000   0.0000000   0.0000000
0.0896875    -0.9968376   0.0000171   0.0004184  -0.0000016   0.0000000   0.0000000   0.0000000   0.0000000
0.0907900    -0.9969280  -0.0000187   0.0003989  -0.0000158   0.0000000   0.0000000   0.0000000   0.0000000
0.0919061    -0.9968207  -0.0000868   0.0004304  -0.0000078   0.0000000   0.0000000   0.0000000   0.0000000
0.0930359    -0.9968141  -0.0000258   0.0004060  -0.0000117   0.0000000   0.0000000   0.0000000   0.0000000
0.0941797    -0.9968972  -0.0001835   0.0004257  -0.0000221   0.0000000   0.0000000   0.0000000   0.0000000
0.0953374    -0.9969698  -0.0001883   0.0004048  -0.0000117   0.0000000   0.0000000   0.0000000   0.0000000
0.0965094    -0.9969202  -0.0001148   0.0004095  -0.0000162   0.0000000   0.0000000   0.0000000   0.0000000
0.0976959    -0.9969607  -0.0001049   0.0004141  -0.0000030   0.0000000   0.0000000   0.0000000   0.0000000
0.0988969    -0.9970133  -0.0002969   0.0004108  -0.0000112   0.0000000   0.0000000   0.0000000   0.0000000
0.1001126    -0.9969175  -0.0001790   0.0004128  -0.0000121   0.0000000   0.0000000   0.0000000   0.0000000
0.1013433    -0.9969049  -0.0001723   0.0004238   0.0000159   0.0000000   0.0000000   0.0000000   0.0000000
0.1025892    -0.9969883  -0.0001592   0.0004104  -0.0000089   0.0000000   0.0000000   0.0000000   0.0000000
0.1038503    -0.9969545  -0.0001561   0.0004096  -0.0000062   0.0000000   0.0000000   0.0000000   0.0000000
0.1051270    -0.9969429  -0.0001261   0.0004285   0.0000008   0.0000000   0.0000000   0.0000000   0.0000000
0.1064193    -0.9969538  -0.0002903   0.0004185   0.0000047   0.0000000   0.0000000   0.0000000   0.0000000
0.1077276    -0.9969743  -0.0001993   0.0004210  -0.0000103   0.0000000   0.0000000   0.0000000   0.0000000
0.1090519    -0.9969175  -0.0002382   0.0003966  -0.0000135   0.0000000   0.0000000   0.0000000   0.0000000
0.1103925    -0.9969608  -0.0001640   0.0004136   0.0000232   0.0000000   0.0000000   0.0000000   0.0000000
0.1117496    -0.9969729  -0.0001215   0.0004188  -0.0000074   0.0000000   0.0000000   0.0000000   0.0000000
0.1131233    -0.9969807  -0.0001397   0.0004211   0.0000029   0.0000000   0.0000000   0.0000000   0.0000000
0.1145140    -0.9970444  -0.0002231   0.0004146   0.0000020   0.0000000   0.0000000   0.0000000   0.0000000
0.1159217    -0.9970984  -0.0001760   0.0004081  -0.0000038   0.0000000   0.0000000   0.0000000   0.0000000
0.1173468    -0.9970308  -0.0001294   0.0004098   0.0000016   0.0000000   0.0000000   0.0000000   0.0000000
0.1187893    -0.9969592  -0.0001873   0.0004231  -0.0000013   0.0000000   0.0000000   0.0000000   0.0000000
0.1202497    -0.9969981  -0.0001603   0.0004140   0.0000085   0.0000000   0.0000000   0.0000000   0.0000000
0.1217279    -0.9970365  -0.0000634   0.0004051   0.0000102   0.0000000   0.0000000   0.0000000   0.0000000
0.1232243    -0.9969936  -0.0001160   0.0004052   0.0000104   0.0000000   0.0000000   0.0000000   0.0000000
0.1247392    -0.9969562  -0.0001987   0.0004191   0.0000057   0.0000000   0.0000000   0.0000000   0.0000000
0.1262726    -0.9969937  -0.0001897   0.0004138   0.0000117   0.0000000   0.0000000   0.0000000   0.0000000
0.1278249    -0.9970014  -0.0000813   0.0004048   0.0000111   0.0000000   0.0000000   0.0000000   0.0000000
0.1293963    -0.9969886  -0.0001115   0.0004108   0.0000211   0.0000000   0.0000000   0.0000000   0.0000000
0.1309870    -0.9969308  -0.0001067   0.0004289   0.0000115   0.0000000   0.0000000   0.0000000   0.0000000
0.1325973    -0.9969768  -0.0001474   0.0004020   0.0000116   0.0000000   0.0000000   0.0000000   0.0000000
0.1342273    -0.9970565  -0.0000568   0.0004094   0.0000089   0.0000000   0.0000000   0.0000000   0.0000000
0.1358774    -0.9969670  -0.0000966   0.0004142   0.0000184   0.0000000   0.0000000   0.0000000   0.0000000
0.1375478    -0.9969250  -0.0002002   0.0004097   0.0000056   0.0000000   0.0000000   0.0000000   0.0000000
0.1392387    -0.9969708  -0.0001136   0.0004076   0.0000142   0.0000000   0.0000000   0.0000000   0.0000000
0.1409504    -0.9969771  -0.0001172   0.0004137   0.0000005   0.0000000   0.0000000   0.0000000   0.0000000
0.1426831    -0.9970414  -0.0001256   0.0004168   0.0000253   0.0000000   0.0000000   0.0000000   0.0000000
0.1444371    -0.9969096  -0.0002005   0.0004127  -0.0000032   0.0000000   0.0000000   0.0000000   0.0000000
0.1462127    -0.9969733  -0.0001952   0.0004144   0.0000225   0.0000000   0.0000000   0.0000000   0.0000000
0.1480102    -0.9969740  -0.0001833   0.0004164   0.0000235   0.0000000   0.0000000   0.0000000   0.0000000
0.1498297    -0.9969467  -0.0002200   0.0004241   0.0000172   0.0000000   0.0000000   0.0000000   0.0000000
0.1516716    -0.9969248  -0.0001504   0.0004018   0.0000253   0.0000000   0.0000000   0.0000000   0.0000000
0.1535361    -0.9969651  -0.0001973   0.0004189   0.0000272   0.0000000   0.0000000   0.0000000   0.0000000
0.1554236    -0.9969334  -0.0002538   0.0004194   0.0000246   0.0000000   0.0000000   0.0000000   0.0000000
0.1573342    -0.9970142  -0.0001146   0.0004239   0.0000035   0.0000000   0.0000000   0.0000000   0.0000000
0.1592684    -0.9969003  -0.0002366   0.0004190   0.0000209   0.0000000   0.0000000   0.0000000   0.0000000
0.1612263    -0.9970161  -0.0002373   0.0004113   0.0000031   0.0000000   0.0000000   0.0000000   0.0000000
0.1632083    -0.9969940  -0.0001731   0.0004165   0.0000182   0.0000000   0.0000000   0.0000000   0.0000000
0.1652147    -0.9969150  -0.0002504   0.0003925   0.0000327   0.0000000   0.0000000   0.0000000   0.0000000
0.1672457    -0.9970724  -0.0001579   0.0004263   0.0000262   0.0000000   0.0000000   0.0000000   0.0000000
0.1693017    -0.9969741  -0.0002728   0.0004143   0.0000068   0.0000000   0.0000000   0.0000000   0.0000000
0.1713829    -0.9969922  -0.0002913   0.0004061   0.0000287   0.0000000   0.0000000   0.0000000   0.0000000
0.1734898    -0.9970219  -0.0002290   0.0004165   0.0000128   0.0000000   0.0000000   0.0000000   0.0000000
0.1756225    -0.9969676  -0.0001852   0.0004023   0.0000236   0.0000000   0.0000000   0.0000000   0.0000000
0.1777815    -0.9970389  -0.0003417   0.0004175   0.0000226   0.0000000   0.0000000   0.0000000   0.0000000
0.1799670    -0.9969639  -0.0002134   0.0004251   0.0000300   0.0000000   0.0000000   0.0000000   0.0000000
0.1821794    -0.9969959  -0.0003142   0.0004216   0.0000199   0.0000000   0.0000000   0.0000000   0.0000000
0.1844190    -0.9969785  -0.0002510   0.0003926   0.0000292   0.0000000   0.0000000   0.0000000   0.0000000
0.1866861    -0.9969622  -0.0002467   0.0004053   0.0000207   0.0000000   0.0000000   0.0000000   0.0000000
0.1889811    -0.9968249  -0.0001763   0.0004242   0.0000282   0.0000000   0.0000000   0.0000000   0.0000000
0.1913043    -0.9969194  -0.0002178   0.0004247   0.0000365   0.0000000   0.0000000   0.0000000   0.0000000
0.1936560    -0.9970378  -0.0002642   0.0004002   0.0000243   0.0000000   0.0000000   0.0000000   0.0000000
0.1960367    -0.9969555  -0.0002885   0.0004144   0.0000355   0.0000000   0.0000000   0.0000000   0.0000000
0.1984466    -0.9969357  -0.0002347   0.0004120   0.0000225   0.0000000   0.0000000   0.0000000   0.0000000
0.2008861    -0.9968772  -0.0002823   0.0004151   0.0000301   0.0000000   0.0000000   0.0000000   0.0000000
0.2033557    -0.9969769  -0.0002961   0.0004057   0.0000382   0.0000000   0.0000000   0.0000000   0.0000000
0.2058556    -0.9969133  -0.0001905   0.0004242   0.0000454   0.0000000   0.0000000   0.0000000   0.0000000
0.2083862    -0.9969633  -0.0003326   0.0004284   0.0000358   0.0000000   0.0000000   0.0000000   0.0000000
0.2109480    -0.9969917  -0.0002165   0.0004199   0.0000394   0.0000000   0.0000000   0.0000000   0.0000000
0.2135412    -0.9969873  -0.0002477   0.0004060   0.0000408   0.0000000   0.0000000   0.0000000   0.0000000
0.2161663    -0.9969573  -0.0002597   0.0004050   0.0000416   0.0000000   0.0000000   0.0000000   0.0000000
0.2188237    -0.9969314  -0.0003490   0.0004150   0.0000399   0.0000000   0.0000000   0.0000000   0.0000000
0.2215137    -0.9969725  -0.0003757   0.0004016   0.0000350   0.0000000   0.0000000   0.0000000   0.0000000
0.2242369    -0.9968551  -0.0004052   0.0004136   0.0000370   0.0000000   0.0000000   0.0000000   0.0000000
0.2269935    -0.9968576  -0.0003087   0.0004133   0.0000343   0.0000000   0.0000000   0.0000000   0.0000000
0.2297839    -0.9970157  -0.0004767   0.0004032   0.0000516   0.0000000   0.0000000   0.0000000   0.0000000
0.2326087    -0.9969344  -0.0003975   0.0004224   0.0000497   0.0000000   0.0000000   0.0000000   0.0000000
0.2354682    -0.9969769  -0.0002000   0.0004100   0.0000444   0.0000000   0.0000000   0.0000000   0.0000000
0.2383629    -0.9969328  -0.0002531   0.0004020   0.0000435   0.0000000   0.0000000   0.0000000   0.0000000
0.2412932    -0.9968480  -0.0003162   0.0004222   0.0000495   0.0000000   0.0000000   0.0000000   0.0000000
0.2442594    -0.9970237  -0.0003203   0.0004045   0.0000526   0.0000000   0.0000000   0.0000000   0.0000000
0.2472622    -0.9969075  -0.0003041   0.0004230   0.0000427   0.0000000   0.0000000   0.0000000   0.0000000
0.2503018    -0.9968632  -0.0003486   0.0004054   0.0000503   0.0000000   0.0000000   0.0000000   0.0000000
0.2533788    -0.9969803  -0.0003801   0.0004117   0.0000440   0.0000000   0.0000000   0.0000000   0.0000000
0.2564937    -0.9968253  -0.0002842   0.0004225   0.0000438   0.0000000   0.0000000   0.0000000   0.0000000
0.2596468    -0.9968486  -0.0003366   0.0004022   0.0000434   0.0000000   0.0000000   0.0000000   0.0000000
0.2628387    -0.9969299  -0.0003620   0.0004140   0.0000382   0.0000000   0.0000000   0.0000000   0.0000000
0.2660699    -0.9968458  -0.0004696   0.0004105   0.0000471   0.0000000   0.0000000   0.0000000   0.0000000
0.2693407    -0.9969618  -0.0004156   0.0004014   0.0000580   0.0000000   0.0000000   0.0000000   0.0000000
0.2726518    -0.9969144  -0.0003539   0.0004205   0.0000546   0.0000000   0.0000000   0.0000000   0.0000000
0.2760036    -0.9969147  -0.0003735   0.0004047   0.0000598   0.0000000   0.0000000   0.0000000   0.0000000
0.2793966    -0.9969285  -0.0003002   0.0004194   0.0000494   0.0000000   0.0000000   0.0000000   0.0000000
0.2828312    -0.9968344  -0.0004376   0.0004161   0.0000567   0.0000000   0.0000000   0.0000000   0.0000000
0.2863082    -0.9969507  -0.0003826   0.0004184   0.0000562   0.0000000   0.0000000   0.0000000   0.0000000
0.2898278    -0.9970069  -0.0004403   0.0004202   0.0000693   0.0000000   0.0000000   0.0000000   0.0000000
0.2933907    -0.9969665  -0.0005447   0.0004230   0.0000487   0.0000000   0.0000000   0.0000000   0.0000000
0.2969975    -0.9969079  -0.0004784   0.0004238   0.0000619   0.0000000   0.0000000   0.0000000   0.0000000
0.3006485    -0.9968758  -0.0005291   0.0004152   0.0000638   0.0000000   0.0000000   0.0000000   0.0000000
0.3043445    -0.9968870  -0.0004698   0.0004169   0.0000559   0.0000000   0.0000000   0.0000000   0.0000000
0.3080858    -0.9969301  -0.0005521   0.0004283   0.0000717   0.0000000   0.0000000   0.0000000   0.0000000
0.3118732    -0.9968233  -0.0005104   0.0004290   0.0000597   0.0000000   0.0000000   0.0000000   0.0000000
0.3157071    -0.9969588  -0.0005494   0.0004228   0.0000575   0.0000000   0.0000000   0.0000000   0.0000000
0.3195882    -0.9969139  -0.0005089   0.0004244   0.0000673   0.0000000   0.0000000   0.0000000   0.0000000
0.3235170    -0.9969043  -0.0004937   0.0004214   0.0000616   0.0000000   0.0000000   0.0000000   0.0000000
0.3274941    -0.9968877  -0.0005037   0.0004131   0.0000495   0.0000000   0.0000000   0.0000000   0.0000000
0.3315200    -0.9969594  -0.0004919   0.0004123   0.0000689   0.0000000   0.0000000   0.0000000   0.0000000
0.3355955    -0.9968479  -0.0005169   0.0004342   0.0000763   0.0000000   0.0000000   0.0000000   0.0000000
0.3397210    -0.9968705  -0.0004967   0.0004215   0.0000667   0.0000000   0.0000000   0.0000000   0.0000000
0.3438973    -0.9969233  -0.0004776   0.0004232   0.0000579   0.0000000   0.0000000   0.0000000   0.0000000
0.3481249    -0.9969678  -0.0006147   0.0004207   0.0000612   0.0000000   0.0000000   0.0000000   0.0000000
0.3524045    -0.9969352  -0.0004915   0.0004244   0.0000680   0.0000000   0.0000000   0.0000000   0.0000000
0.3567367    -0.9968822  -0.0006084   0.0004189   0.0000760   0.0000000   0.0000000   0.0000000   0.0000000
0.3611221    -0.9969024  -0.0006460   0.0004168   0.0000583   0.0000000   0.0000000   0.0000000   0.0000000
0.3655615    -0.9968861  -0.0006716   0.0004271   0.0000728   0.0000000   0.0000000   0.0000000   0.0000000
0.3700554    -0.9969309  -0.0005493   0.0004201   0.0000717   0.0000000   0.0000000   0.0000000   0.0000000
0.3746046    -0.9969016  -0.0005507   0.0004123   0.0000516   0.0000000   0.0000000   0.0000000   0.0000000
0.3792097    -0.9968109  -0.0005221   0.0004280   0.0000714   0.0000000   0.0000000   0.0000000   0.0000000
0.3838714    -0.9968978  -0.0006420   0.0004154   0.0000771   0.0000000   0.0000000   0.0000000   0.0000000
0.3885905    -0.9968924  -0.0006679   0.0004290   0.0000685   0.0000000   0.0000000   0.0000000   0.0000000
0.3933675    -0.9968981  -0.0005513   0.0004193   0.0000675   0.0000000   0.0000000   0.0000000   0.0000000
0.3982033    -0.9968423  -0.0006242   0.0004259   0.0000876   0.0000000   0.0000000   0.0000000   0.0000000
0.4030985    -0.9968142  -0.0006608   0.0004252   0.0000825   0.0000000   0.0000000   0.0000000   0.0000000
0.4080538    -0.9968888  -0.0006603   0.0004197   0.0000895   0.0000000   0.0000000   0.0000000   0.0000000
0.4130701    -0.9969317  -0.0006051   0.0004201   0.0000777   0.0000000   0.0000000   0.0000000   0.0000000
0.4181481    -0.9969769  -0.0006234   0.0004211   0.0000753   0.0000000   0.0000000   0.0000000   0.0000000
0.4232885    -0.9970019  -0.0006943   0.0004212   0.0000739   0.0000000   0.0000000   0.0000000   0.0000000
0.4284921    -0.9969153  -0.0007506   0.0004354   0.0000787   0.0000000   0.0000000   0.0000000   0.0000000
0.4337597    -0.9968212  -0.0007031   0.0004282   0.0000937   0.0000000   0.0000000   0.0000000   0.0000000
0.4390920    -0.9969665  -0.0005987   0.0004357   0.0000845   0.0000000   0.0000000   0.0000000   0.0000000
0.4444898    -0.9969156  -0.0006005   0.0004310   0.0000629   0.0000000   0.0000000   0.0000000   0.0000000
0.4499541    -0.9968085  -0.0007473   0.0004268   0.0000823   0.0000000   0.0000000   0.0000000   0.0000000
0.4554854    -0.9969129  -0.0007411   0.0004314   0.0000798   0.0000000   0.0000000   0.0000000   0.0000000
0.4610848    -0.9969838  -0.0006815   0.0004380   0.0000811   0.0000000   0.0000000   0.0000000   0.0000000
0.4667531    -0.9969364  -0.0007349   0.0004315   0.0000955   0.0000000   0.0000000   0.0000000   0.0000000
0.4724910    -0.9968604  -0.0008235   0.0004245   0.0000833   0.0000000   0.0000000   0.0000000   0.0000000
0.4782994    -0.9968610  -0.0008719   0.0004209   0.0001028   0.0000000   0.0000000   0.0000000   0.0000000
0.4841793    -0.9969523  -0.0007383   0.0004211   0.0000857   0.0000000   0.0000000   0.0000000   0.0000000
0.4901314    -0.9969607  -0.0008042   0.0004364   0.0000967   0.0000000   0.0000000   0.0000000   0.0000000
0.4961567    -0.9968359  -0.0008071   0.0004229   0.0000840   0.0000000   0.0000000   0.0000000   0.0000000
0.5022561    -0.9968119  -0.0007430   0.0004106   0.0000908   0.0000000   0.0000000   0.0000000   0.0000000
0.5084304    -0.9969219  -0.0008537   0.0004243   0.0001011   0.0000000   0.0000000   0.0000000   0.0000000
0.5146807    -0.9969098  -0.0008270   0.0004357   0.0000941   0.0000000   0.0000000   0.0000000   0.0000000
0.5210078    -0.9968390  -0.0008634   0.0004337   0.0001115   0.0000000   0.0000000   0.0000000   0.0000000
0.5274126    -0.9969085  -0.0008150   0.0004243   0.0000828   0.0000000   0.0000000   0.0000000   0.0000000
0.5338963    -0.9969116  -0.0007960   0.0004227   0.0001002   0.0000000   0.0000000   0.0000000   0.0000000
0.5404596    -0.9969039  -0.0009703   0.0004239   0.0001043   0.0000000   0.0000000   0.0000000   0.0000000
0.5471036    -0.9969341  -0.0008523   0.0004342   0.0000908   0.0000000   0.0000000   0.0000000   0.0000000
0.5538292    -0.9968853  -0.0008958   0.0004264   0.0000900   0.0000000   0.0000000   0.0000000   0.0000000
0.5606376    -0.9968361  -0.0008735   0.0004294   0.0001079   0.0000000   0.0000000   0.0000000   0.0000000
0.5675297    -0.9969459  -0.0010450   0.0004223   0.0000928   0.0000000   0.0000000   0.0000000   0.0000000
0.5745064    -0.9969174  -0.0009548   0.0004312   0.0001044   0.0000000   0.0000000   0.0000000   0.0000000
0.5815690    -0.9968577  -0.0008469   0.0004333   0.0001089   0.0000000   0.0000000   0.0000000   0.0000000
0.5887183    -0.9969168  -0.0010037   0.0004270   0.0001030   0.0000000   0.0000000   0.0000000   0.0000000
0.5959556    -0.9968361  -0.0009409   0.0004295   0.0001064   0.0000000   0.0000000   0.0000000   0.0000000
0.6032818    -0.9968694  -0.0010922   0.0004282   0.0001076   0.0000000   0.0000000   0.0000000   0.0000000
0.6106981    -0.9968491  -0.0010449   0.0004222   0.0000985   0.0000000   0.0000000   0.0000000   0.0000000
0.6182056    -0.9967636  -0.0010244   0.0004341   0.0001083   0.0000000   0.0000000   0.0000000   0.0000000
0.6258053    -0.9968962  -0.0010192   0.0004187   0.0000998   0.0000000   0.0000000   0.0000000   0.0000000
0.6334985    -0.9967654  -0.0010555   0.0004163   0.0001155   0.0000000   0.0000000   0.0000000   0.0000000
0.6412862    -0.9969357  -0.0010583   0.0004267   0.0001056   0.0000000   0.0000000   0.0000000   0.0000000
0.6491697    -0.9968475  -0.0011333   0.0004310   0.0001152   0.0000000   0.0000000   0.0000000   0.0000000
0.6571501    -0.9968171  -0.0010572   0.0004327   0.0001180   0.0000000   0.0000000   0.0000000   0.0000000
0.6652286    -0.9967585  -0.0010758   0.0004300   0.0001206   0.0000000   0.0000000   0.0000000   0.0000000
0.6734064    -0.9968462  -0.0010566   0.0004285   0.0001191   0.0000000   0.0000000   0.0000000   0.0000000
0.6816848    -0.9969839  -0.0011123   0.0004339   0.0001342   0.0000000   0.0000000   0.0000000   0.0000000
0.6900649    -0.9969088  -0.0012443   0.0004319   0.0001200   0.0000000   0.0000000   0.0000000   0.0000000
0.6985480    -0.9969825  -0.0011874   0.0004322   0.0001223   0.0000000   0.0000000   0.0000000   0.0000000
0.7071355    -0.9968774  -0.0011450   0.0004359   0.0001246   0.0000000   0.0000000   0.0000000   0.0000000
0.7158284    -0.9970043  -0.0011630   0.0004400   0.0001292   0.0000000   0.0000000   0.0000000   0.0000000
0.7246283    -0.9968435  -0.0012463   0.0004177   0.0001244   0.0000000   0.0000000   0.0000000   0.0000000
0.7335363    -0.9968977  -0.0012592   0.0004309   0.0001217   0.0000000   0.0000000   0.0000000   0.0000000
0.7425539    -0.9969999  -0.0011990   0.0004487   0.0001329   0.0000000   0.0000000   0.0000000   0.0000000
0.7516822    -0.9969813  -0.0011696   0.0004116   0.0001384   0.0000000   0.0000000   0.0000000   0.0000000
0.7609229    -0.9969014  -0.0012375   0.0004304   0.0001251   0.0000000   0.0000000   0.0000000   0.0000000
0.7702771    -0.9968873  -0.0013086   0.0004459   0.0001372   0.0000000   0.0000000   0.0000000   0.0000000
0.7797463    -0.9968221  -0.0013430   0.0004265   0.0001457   0.0000000   0.0000000   0.0000000   0.0000000
0.7893319    -0.9969281  -0.0013182   0.0004369   0.0001467   0.0000000   0.0000000   0.0000000   0.0000000
0.7990353    -0.9968297  -0.0013885   0.0004358   0.0001457   0.0000000   0.0000000   0.0000000   0.0000000
0.8088580    -0.9968536  -0.0013384   0.0004503   0.0001281   0.0000000   0.0000000   0.0000000   0.0000000
0.8188015    -0.9969613  -0.0012865   0.0004364   0.0001352   0.0000000   0.0000000   0.0000000   0.0000000
0.8288673    -0.9968409  -0.0014281   0.0004372   0.0001351   0.0000000   0.0000000   0.0000000   0.0000000
0.8390567    -0.9969043  -0.0014441   0.0004423   0.0001596   0.0000000   0.0000000   0.0000000   0.0000000
0.8493714    -0.9968393  -0.0014237   0.0004336   0.0001339   0.0000000   0.0000000   0.0000000   0.0000000
0.8598130    -0.9968877  -0.0014556   0.0004300   0.0001363   0.0000000   0.0000000   0.0000000   0.0000000
0.8703829    -0.9969434  -0.0014770   0.0004446   0.0001605   0.0000000   0.0000000   0.0000000   0.0000000
0.8810827    -0.9969502  -0.0016183   0.0004399   0.0001504   0.0000000   0.0000000   0.0000000   0.0000000
0.8919140    -0.9968399  -0.0015378   0.0004415   0.0001560   0.0000000   0.0000000   0.0000000   0.0000000
0.9028786    -0.9968894  -0.0015459   0.0004478   0.0001493   0.0000000   0.0000000   0.0000000   0.0000000
0.9139779    -0.9968112  -0.0016151   0.0004421   0.0001376   0.0000000   0.0000000   0.0000000   0.0000000
0.9252136    -0.9968590  -0.0016352   0.0004411   0.0001635   0.0000000   0.0000000   0.0000000   0.0000000
0.9365875    -0.9969269  -0.0015533   0.0004578   0.0001563   0.0000000   0.0000000   0.0000000   0.0000000
0.9481012    -0.9969270  -0.0015242   0.0004355   0.0001613   0.0000000   0.0000000   0.0000000   0.0000000
0.9597564    -0.9968299  -0.0016760   0.0004294   0.0001574   0.0000000   0.0000000   0.0000000   0.0000000
0.9715549    -0.9968814  -0.0017614   0.0004277   0.0001690   0.0000000   0.0000000   0.0000000   0.0000000
0.9834985    -0.9968392  -0.0017290   0.0004504   0.0001785   0.0000000   0.0000000   0.0000000   0.0000000
0.9955889    -0.9968609  -0.0017029   0.0004362   0.0001765   0.0000000   0.0000000   0.0000000   0.0000000
1.0078279    -0.9968658  -0.0016731   0.0004483   0.0001760   0.0000000   0.0000000   0.0000000   0.0000000
1.0202173    -0.9968780  -0.0017943   0.0004352   0.0001735   0.0000000   0.0000000   0.0000000   0.0000000
1.0327591    -0.9969187  -0.0017544   0.0004445   0.0001669   0.0000000   0.0000000   0.0000000   0.0000000
1.0454551    -0.9969301  -0.0017633   0.0004611   0.0001873   0.0000000   0.0000000   0.0000000   0.0000000
1.0583071    -0.9968707  -0.0017634   0.0004411   0.0001685   0.0000000   0.0000000   0.0000000   0.0000000
1.0713171    -0.9969017  -0.0017671   0.0004448   0.0001888   0.0000000   0.0000000   0.0000000   0.0000000
1.0844871    -0.9968702  -0.0018518   0.0004471   0.0001699   0.0000000   0.0000000   0.0000000   0.0000000
1.0978189    -0.9969353  -0.0018797   0.0004381   0.0001957   0.0000000   0.0000000   0.0000000   0.0000000
1.1113147    -0.9970326  -0.0018258   0.0004324   0.0001722   0.0000000   0.0000000   0.0000000   0.0000000
1.1249763    -0.9970372  -0.0018671   0.0004498   0.0001801   0.0000000   0.0000000   0.0000000   0.0000000
1.1388059    -0.9968580  -0.0018676   0.0004541   0.0001930   0.0000000   0.0000000   0.0000000   0.0000000
1.1528056    -0.9968936  -0.0020024   0.0004407   0.0001860   0.0000000   0.0000000   0.0000000   0.0000000
1.1669773    -0.9969842  -0.0019056   0.0004528   0.0001978   0.0000000   0.0000000   0.0000000   0.0000000
1.1813232    -0.9969705  -0.0020477   0.0004562   0.0001990   0.0000000   0.0000000   0.0000000   0.0000000
1.1958455    -0.9968818  -0.0021439   0.0004499   0.0001920   0.0000000   0.0000000   0.0000000   0.0000000
1.2105463    -0.9968790  -0.0021457   0.0004333   0.0002078   0.0000000   0.0000000   0.0000000   0.0000000
1.2254278    -0.9968534  -0.0020491   0.0004485   0.0002051   0.0000000   0.0000000   0.0000000   0.0000000
1.2404923    -0.9969484  -0.0022010   0.0004387   0.0002196   0.0000000   0.0000000   0.0000000   0.0000000
1.2557420    -0.9968693  -0.0021148   0.0004410   0.0002018   0.0000000   0.0000000   0.0000000   0.0000000
1.2711791    -0.9969117  -0.0021506   0.0004374   0.0002225   0.0000000   0.0000000   0.0000000   0.0000000
1.2868060    -0.9968376  -0.0022487   0.0004454   0.0001959   0.0000000   0.0000000   0.0000000   0.0000000
1.3026251    -0.9969030  -0.0023240   0.0004301   0.0002009   0.0000000   0.0000000   0.0000000   0.0000000
1.3186385    -0.9968281  -0.0021745   0.0004460   0.0002228   0.0000000   0.0000000   0.0000000   0.0000000
1.3348489    -0.9969379  -0.0022904   0.0004451   0.0002178   0.0000000   0.0000000   0.0000000   0.0000000
1.3512585    -0.9968901  -0.0023230   0.0004488   0.0002169   0.0000000   0.0000000   0.0000000   0.0000000
1.3678698    -0.9968621  -0.0024005   0.0004404   0.0002233   0.0000000   0.0000000   0.0000000   0.0000000
1.3846854    -0.9969253  -0.0024261   0.0004387   0.0002193   0.0000000   0.0000000   0.0000000   0.0000000
1.4017077    -0.9968572  -0.0023896   0.0004273   0.0002315   0.0000000   0.0000000   0.0000000   0.0000000
1.4189392    -0.9969101  -0.0025258   0.0004476   0.0002313   0.0000000   0.0000000   0.0000000   0.0000000
1.4363825    -0.9969076  -0.0024638   0.0004420   0.0002276   0.0000000   0.0000000   0.0000000   0.0000000
1.4540403    -0.9968878  -0.0024924   0.0004463   0.0002341   0.0000000   0.0000000   0.0000000   0.0000000
1.4719152    -0.9969060  -0.0024956   0.0004490   0.0002461   0.0000000   0.0000000   0.0000000   0.0000000
1.4900098    -0.9969281  -0.0027285   0.0004423   0.0002300   0.0000000   0.0000000   0.0000000   0.0000000
1.5083269    -0.9969376  -0.0026867   0.0004446   0.0002460   0.0000000   0.0000000   0.0000000   0.0000000
1.5268691    -0.9968707  -0.0025340   0.0004442   0.0002516   0.0000000   0.0000000   0.0000000   0.0000000
1.5456392    -0.9968537  -0.0026392   0.0004426   0.0002468   0.0000000   0.0000000   0.0000000   0.0000000
1.5646402    -0.9968882  -0.0026963   0.0004494   0.0002450   0.0000000   0.0000000   0.0000000   0.0000000
1.5838747    -0.9969862  -0.0027306   0.0004386   0.0002480   0.0000000   0.0000000   0.0000000   0.0000000
1.6033456    -0.9968463  -0.0028119   0.0004400   0.0002606   0.0000000   0.0000000   0.0000000   0.0000000
1.6230559    -0.9969812  -0.0028339   0.0004513   0.0002366   0.0000000   0.0000000   0.0000000   0.0000000
1.6430085    -0.9969422  -0.0029445   0.0004500   0.0002399   0.0000000   0.0000000   0.0000000   0.0000000
1.6632064    -0.9969096  -0.0029753   0.0004399   0.0002586   0.0000000   0.0000000   0.0000000   0.0000000
1.6836526    -0.9969225  -0.0028925   0.0004551   0.0002573   0.0000000   0.0000000   0.0000000   0.0000000
1.7043502    -0.9968793  -0.0029141   0.0004365   0.0002686   0.0000000   0.0000000   0.0000000   0.0000000
1.7253021    -0.9968003  -0.0030400   0.0004457   0.0002668   0.0000000   0.0000000   0.0000000   0.0000000
1.7465117    -0.9968728  -0.0030911   0.0004425   0.0002733   0.0000000   0.0000000   0.0000000   0.0000000
1.7679820    -0.9969410  -0.0031537   0.0004512   0.0002742   0.0000000   0.0000000   0.0000000   0.0000000
1.7897162    -0.9969251  -0.0031499   0.0004666   0.0002659   0.0000000   0.0000000   0.0000000   0.0000000
1.8117176    -0.9969385  -0.0032326   0.0004494   0.0002745   0.0000000   0.0000000   0.0000000   0.0000000
1.8339895    -0.9968586  -0.0030993   0.0004482   0.0002869   0.0000000   0.0000000   0.0000000   0.0000000
1.8565352    -0.9969582  -0.0032416   0.0004499   0.0002846   0.0000000   0.0000000   0.0000000   0.0000000
1.8793580    -0.9969101  -0.0033023   0.0004579   0.0002936   0.0000000   0.0000000   0.0000000   0.0000000
1.9024614    -0.9969157  -0.0033646   0.0004440   0.0002818   0.0000000   0.0000000   0.0000000   0.0000000
1.9258488    -0.9968886  -0.0033764   0.0004534   0.0002946   0.0000000   0.0000000   0.0000000   0.0000000
1.9495237    -0.9968495  -0.0034256   0.0004526   0.0003123   0.0000000   0.0000000   0.0000000   0.0000000
1.9734897    -0.9969107  -0.0035103   0.0004516   0.0003198   0.0000000   0.0000000   0.0000000   0.0000000
1.9977503    -0.9968582  -0.0033716   0.0004516   0.0003130   0.0000000   0.0000000   0.0000000   0.0000000
2.0223091    -0.9969362  -0.0035412   0.0004525   0.0003147   0.0000000   0.0000000   0.0000000   0.0000000
2.0471698    -0.9969212  -0.0035277   0.0004505   0.0003241   0.0000000   0.0000000   0.0000000   0.0000000
2.0723362    -0.9968818  -0.0036451   0.0004431   0.0003283   0.0000000   0.0000000   0.0000000   0.0000000
2.0978119    -0.9970867  -0.0036053   0.0004523   0.0003229   0.0000000   0.0000000   0.0000000   0.0000000
2.1236008    -0.9969939  -0.0036620   0.0004549   0.0003286   0.0000000   0.0000000   0.0000000   0.0000000
2.1497067    -0.9969097  -0.0037129   0.0004492   0.0003289   0.0000000   0.0000000   0.0000000   0.0000000
2.1761336    -0.9969712  -0.0039774   0.0004664   0.0003338   0.0000000   0.0000000   0.0000000   0.0000000
2.2028853    -0.9968893  -0.0039164   0.0004554   0.0003453   0.0000000   0.0000000   0.0000000   0.0000000
2.2299659    -0.9969408  -0.0038912   0.0004622   0.0003216   0.0000000   0.0000000   0.0000000   0.0000000
2.2573794    -0.9969158  -0.0040125   0.0004460   0.0003373   0.0000000   0.0000000   0.0000000   0.0000000
2.2851299    -0.9968644  -0.0040881   0.0004597   0.0003533   0.0000000   0.0000000   0.0000000   0.0000000
2.3132216    -0.9969906  -0.0040907   0.0004509   0.0003562   0.0000000   0.0000000   0.0000000   0.0000000
2.3416586    -0.9970123  -0.0041107   0.0004665   0.0003571   0.0000000   0.0000000   0.0000000   0.0000000
2.3704451    -0.9969535  -0.0042108   0.0004501   0.0003704   0.0000000   0.0000000   0.0000000   0.0000000
2.3995856    -0.9970065  -0.0042107   0.0004547   0.0003700   0.0000000   0.0000000   0.0000000   0.0000000
2.4290843    -0.9970112  -0.0042415   0.0004372   0.0003706   0.0000000   0.0000000   0.0000000   0.0000000
2.4589456    -0.9969447  -0.0044004   0.0004541   0.0003826   0.0000000   0.0000000   0.0000000   0.0000000
2.4891740    -0.9969081  -0.0043459   0.0004538   0.0003716   0.0000000   0.0000000   0.0000000   0.0000000
2.5197740    -0.9970017  -0.0043627   0.0004447   0.0003825   0.0000000   0.0000000   0.0000000   0.0000000
2.5507502    -0.9969747  -0.0044404   0.0004529   0.0003764   0.0000000   0.0000000   0.0000000   0.0000000
2.5821072    -0.9969254  -0.0046001   0.0004536   0.0003922   0.0000000   0.0000000   0.0000000   0.0000000
2.6138496    -0.9969403  -0.0045623   0.0004594   0.0003941   0.0000000   0.0000000   0.0000000   0.0000000
2.6459823    -0.9970038  -0.0046586   0.0004539   0.0003884   0.0000000   0.0000000   0.0000000   0.0000000
2.6785100    -0.9969270  -0.0047276   0.0004512   0.0004059   0.0000000   0.0000000   0.0000000   0.0000000
2.7114376    -0.9970182  -0.0047769   0.0004664   0.0004069   0.0000000   0.0000000   0.0000000   0.0000000
2.7447699    -0.9968820  -0.0047845   0.0004528   0.0004217   0.0000000   0.0000000   0.0000000   0.0000000
2.7785120    -0.9970446  -0.0049556   0.0004604   0.0004238   0.0000000   0.0000000   0.0000000   0.0000000
2.8126689    -0.9969954  -0.0049566   0.0004577   0.0004370   0.0000000   0.0000000   0.0000000   0.0000000
2.8472457    -0.9969982  -0.0049995   0.0004588   0.0004303   0.0000000   0.0000000   0.0000000   0.0000000
2.8822476    -0.9970546  -0.0050805   0.0004592   0.0004528   0.0000000   0.0000000   0.0000000   0.0000000
2.9176798    -0.9970051  -0.0051666   0.0004562   0.0004339   0.0000000   0.0000000   0.0000000   0.0000000
2.9535475    -0.9970633  -0.0051559   0.0004583   0.0004387   0.0000000   0.0000000   0.0000000   0.0000000
2.9898562    -0.9969595  -0.0052986   0.0004548   0.0004473   0.0000000   0.0000000   0.0000000   0.0000000
3.0266112    -0.9969683  -0.0053122   0.0004617   0.0004636   0.0000000   0.0000000   0.0000000   0.0000000
3.0638180    -0.9970485  -0.0053811   0.0004634   0.0004724   0.0000000   0.0000000   0.0000000   0.0000000
3.1014823    -0.9970569  -0.0054270   0.0004499   0.0004712   0.0000000   0.0000000   0.0000000   0.0000000
3.1396096    -0.9969235  -0.0055200   0.0004636   0.0004727   0.0000000   0.0000000   0.0000000   0.0000000
3.1782055    -0.9969459  -0.0056449   0.0004585   0.0004716   0.0000000   0.0000000   0.0000000   0.0000000
3.2172760    -0.9970356  -0.0056049   0.0004533   0.0004768   0.0000000   0.0000000   0.0000000   0.0000000
3.2568267    -0.9970357  -0.0056513   0.0004534   0.0004914   0.0000000   0.0000000   0.0000000   0.0000000
3.2968637    -0.9970946  -0.0057868   0.0004664   0.0004942   0.0000000   0.0000000   0.0000000   0.0000000
3.3373928    -0.9970270  -0.0059056   0.0004616   0.0005238   0.0000000   0.0000000   0.0000000   0.0000000
3.3784202    -0.9969166  -0.0060266   0.0004451   0.0005008   0.0000000   0.0000000   0.0000000   0.0000000
3.4199519    -0.9969416  -0.0061284   0.0004623   0.0005123   0.0000000   0.0000000   0.0000000   0.0000000
3.4619942    -0.9969675  -0.0060511   0.0004654   0.0005199   0.0000000   0.0000000   0.0000000   0.0000000
3.5045533    -0.9969668  -0.0061740   0.0004485   0.0005232   0.0000000   0.0000000   0.0000000   0.0000000
3.5476356    -0.9970316  -0.0062283   0.0004547   0.0005274   0.0000000   0.0000000   0.0000000   0.0000000
3.5912475    -0.9970412  -0.0063451   0.0004497   0.0005405   0.0000000   0.0000000   0.0000000   0.0000000
3.6353956    -0.9970016  -0.0063803   0.0004598   0.0005354   0.0000000   0.0000000   0.0000000   0.0000000
3.6800864    -0.9970089  -0.0065235   0.0004646   0.0005400   0.0000000   0.0000000   0.0000000   0.0000000
3.7253266    -0.9969809  -0.0065937   0.0004717   0.0005648   0.0000000   0.0000000   0.0000000   0.0000000
3.7711229    -0.9970653  -0.0065368   0.0004693   0.0005594   0.0000000   0.0000000   0.0000000   0.0000000
3.8174822    -0.9970832  -0.0066968   0.0004582   0.0005759   0.0000000   0.0000000   0.0000000   0.0000000
3.8644115    -0.9970821  -0.0068898   0.0004656   0.0005790   0.0000000   0.0000000   0.0000000   0.0000000
3.9119176    -0.9971304  -0.0069617   0.0004669   0.0006010   0.0000000   0.0000000   0.0000000   0.0000000
3.9600077    -0.9970211  -0.0068899   0.0004547   0.0005925   0.0000000   0.0000000   0.0000000   0.0000000
4.0086890    -0.9970893  -0.0069897   0.0004692   0.0005975   0.0000000   0.0000000   0.0000000   0.0000000
4.0579688    -0.9969689  -0.0071595   0.0004581   0.0005918   0.0000000   0.0000000   0.0000000   0.0000000
4.1078544    -0.9970073  -0.0071376   0.0004777   0.0006087   0.0000000   0.0000000   0.0000000   0.0000000
4.1583532    -0.9970976  -0.0072460   0.0004693   0.0006027   0.0000000   0.0000000   0.0000000   0.0000000
4.2094729    -0.9970073  -0.0074305   0.0004615   0.0006304   0.0000000   0.0000000   0.0000000   0.0000000
4.2612209    -0.9970301  -0.0075083   0.0004666   0.0006284   0.0000000   0.0000000   0.0000000   0.0000000
4.3136051    -0.9970557  -0.0076372   0.0004712   0.0006420   0.0000000   0.0000000   0.0000000   0.0000000
4.3666333    -0.9970514  -0.0077384   0.0004637   0.0006508   0.0000000   0.0000000   0.0000000   0.0000000
4.4203134    -0.9970998  -0.0079105   0.0004595   0.0006559   0.0000000   0.0000000   0.0000000   0.0000000
4.4746534    -0.9970872  -0.0077814   0.0004579   0.0006648   0.0000000   0.0000000   0.0000000   0.0000000
4.5296613    -0.9971113  -0.0079000   0.0004716   0.0006661   0.0000000   0.0000000   0.0000000   0.0000000
4.5853455    -0.9971195  -0.0080043   0.0004702   0.0006824   0.0000000   0.0000000   0.0000000   0.0000000
4.6417143    -0.9970784  -0.0081846   0.0004639   0.0006715   0.0000000   0.0000000   0.0000000   0.0000000
4.6987760    -0.9971408  -0.0082285   0.0004598   0.0007054   0.0000000   0.0000000   0.0000000   0.0000000
4.7565392    -0.9971362  -0.0083669   0.0004772   0.0006896   0.0000000   0.0000000   0.0000000   0.0000000
4.8150125    -0.9971128  -0.0084421   0.0004672   0.0007194   0.0000000   0.0000000   0.0000000   0.0000000
4.8742045    -0.9970724  -0.0085979   0.0004646   0.0007064   0.0000000   0.0000000   0.0000000   0.0000000
4.9341243    -0.9970983  -0.0086769   0.0004615   0.0007303   0.0000000   0.0000000   0.0000000   0.0000000
4.9947807    -0.9971144  -0.0087018   0.0004684   0.0007302   0.0000000   0.0000000   0.0000000   0.0000000
5.0561827    -0.9971423  -0.0087441   0.0004638   0.0007545   0.0000000   0.0000000   0.0000000   0.0000000
5.1183396    -0.9971089  -0.0089598   0.0004770   0.0007534   0.0000000   0.0000000   0.0000000   0.0000000
5.1812606    -0.9971047  -0.0090778   0.0004568   0.0007714   0.0000000   0.0000000   0.0000000   0.0000000
5.2449550    -0.9972022  -0.0091982   0.0004648   0.0007722   0.0000000   0.0000000   0.0000000   0.0000000
5.3094325    -0.9971446  -0.0092755   0.0004709   0.0007635   0.0000000   0.0000000   0.0000000   0.0000000
5.3747026    -0.9970559  -0.0094152   0.0004719   0.0007876   0.0000000   0.0000000   0.0000000   0.0000000
5.4407751    -0.9970982  -0.0095742   0.0004712   0.0007934   0.0000000   0.0000000   0.0000000   0.0000000
5.5076599    -0.9971088  -0.0095851   0.0004803   0.0007878   0.0000000   0.0000000   0.0000000   0.0000000
5.5753669    -0.9971371  -0.0097544   0.0004686   0.0008043   0.0000000   0.0000000   0.0000000   0.0000000
5.6439062    -0.9971823  -0.0098869   0.0004620   0.0008301   0.0000000   0.0000000   0.0000000   0.0000000
5.7132881    -0.9971886  -0.0101144   0.0004852   0.0008395   0.0000000   0.0000000   0.0000000   0.0000000
5.7835229    -0.9971058  -0.0100839   0.0004757   0.0008533   0.0000000   0.0000000   0.0000000   0.0000000
5.8546211    -0.9972150  -0.0102750   0.0004803   0.0008500   0.0000000   0.0000000   0.0000000   0.0000000
5.9265934    -0.9970834  -0.0104309   0.0004754   0.0008636   0.0000000   0.0000000   0.0000000   0.0000000
5.9994504    -0.9972312  -0.0106077   0.0004817   0.0008808   0.0000000   0.0000000   0.0000000   0.0000000
6.0732031    -0.9971537  -0.0107133   0.0004714   0.0008827   0.0000000   0.0000000   0.0000000   0.0000000
6.1478624    -0.9971871  -0.0107555   0.0004659   0.0008999   0.0000000   0.0000000   0.0000000   0.0000000
6.2234396    -0.9971537  -0.0108534   0.0004889   0.0009044   0.0000000   0.0000000   0.0000000   0.0000000
6.2999458    -0.9971166  -0.0110046   0.0004853   0.0009263   0.0000000   0.0000000   0.0000000   0.0000000
6.3773925    -0.9972352  -0.0111930   0.0004852   0.0009296   0.0000000   0.0000000   0.0000000   0.0000000
6.4557914    -0.9972271  -0.0113071   0.0004743   0.0009263   0.0000000   0.0000000   0.0000000   0.0000000
6.5351539    -0.9972257  -0.0113994   0.0004827   0.0009580   0.0000000   0.0000000   0.0000000   0.0000000
6.6154922    -0.9971302  -0.0115755   0.0004761   0.0009590   0.0000000   0.0000000   0.0000000   0.0000000
6.6968180    -0.9971783  -0.0116932   0.0004696   0.0009734   0.0000000   0.0000000   0.0000000   0.0000000
6.7791436    -0.9971806  -0.0119006   0.0004662   0.0009943   0.0000000   0.0000000   0.0000000   0.0000000
6.8624812    -0.9972260  -0.0119625   0.0004772   0.0009898   0.0000000   0.0000000   0.0000000   0.0000000
6.9468433    -0.9972037  -0.0121111   0.0004872   0.0010180   0.0000000   0.0000000   0.0000000   0.0000000
7.0322425    -0.9972726  -0.0122536   0.0004807   0.0010248   0.0000000   0.0000000   0.0000000   0.0000000
7.1186916    -0.9972290  -0.0125089   0.0004798   0.0010324   0.0000000   0.0000000   0.0000000   0.0000000
7.2062034    -0.9973157  -0.0124661   0.0004879   0.0010569   0.0000000   0.0000000   0.0000000   0.0000000
7.2947909    -0.9971610  -0.0127080   0.0004844   0.0010546   0.0000000   0.0000000   0.0000000   0.0000000
7.3844675    -0.9973392  -0.0128459   0.0004911   0.0010594   0.0000000   0.0000000   0.0000000   0.0000000
7.4752466    -0.9971985  -0.0131022   0.0004847   0.0010789   0.0000000   0.0000000   0.0000000   0.0000000
7.5671416    -0.9971655  -0.0132069   0.0004737   0.0011049   0.0000000   0.0000000   0.0000000   0.0000000
7.6601662    -0.9972207  -0.0132957   0.0004740   0.0011222   0.0000000   0.0000000   0.0000000   0.0000000
7.7543345    -0.9971872  -0.0135956   0.0004810   0.0011203   0.0000000   0.0000000   0.0000000   0.0000000
7.8496604    -0.9971709  -0.0135491   0.0004951   0.0011361   0.0000000   0.0000000   0.0000000   0.0000000
7.9461581    -0.9973156  -0.0138847   0.0004865   0.0011613   0.0000000   0.0000000   0.0000000   0.0000000
8.0438422    -0.9973244  -0.0139795   0.0004821   0.0011611   0.0000000   0.0000000   0.0000000   0.0000000
8.1427270    -0.9972692  -0.0142997   0.0004905   0.0011769   0.0000000   0.0000000   0.0000000   0.0000000
8.2428275    -0.9973648  -0.0143713   0.0004881   0.0011888   0.0000000   0.0000000   0.0000000   0.0000000
8.3441586    -0.9971569  -0.0145643   0.0004863   0.0012100   0.0000000   0.0000000   0.0000000   0.0000000
8.4467353    -0.9972950  -0.0146490   0.0004874   0.0012231   0.0000000   0.0000000   0.0000000   0.0000000
8.5505731    -0.9973224  -0.0149072   0.0004863   0.0012424   0.0000000   0.0000000   0.0000000   0.0000000
8.6556873    -0.9972933  -0.0150123   0.0004786   0.0012536   0.0000000   0.0000000   0.0000000   0.0000000
8.7620937    -0.9973802  -0.0152002   0.0004850   0.0012667   0.0000000   0.0000000   0.0000000   0.0000000
8.8698082    -0.9973159  -0.0153562   0.0004892   0.0012894   0.0000000   0.0000000   0.0000000   0.0000000
8.9788469    -0.9972151  -0.0156362   0.0004868   0.0013003   0.0000000   0.0000000   0.0000000   0.0000000
9.0892260    -0.9972790  -0.0159354   0.0004977   0.0013077   0.0000000   0.0000000   0.0000000   0.0000000
9.2009621    -0.9972526  -0.0159595   0.0004893   0.0013255   0.0000000   0.0000000   0.0000000   0.0000000
9.3140717    -0.9972639  -0.0162293   0.0005006   0.0013327   0.0000000   0.0000000   0.0000000   0.0000000
9.4285718    -0.9973246  -0.0163996   0.0005025   0.0013462   0.0000000   0.0000000   0.0000000   0.0000000
9.5444795    -0.9972527  -0.0166246   0.0004824   0.0013757   0.0000000   0.0000000   0.0000000   0.0000000
9.6618121    -0.9972937  -0.0167975   0.0004839   0.0013921   0.0000000   0.0000000   0.0000000   0.0000000
9.7805870    -0.9972722  -0.0170387   0.0004918   0.0014032   0.0000000   0.0000000   0.0000000   0.0000000
9.9008221    -0.9972209  -0.0171381   0.0005020   0.0014049   0.0000000   0.0000000   0.0000000   0.0000000
10.0225353   -0.9972604  -0.0175406   0.0005036   0.0014249   0.0000000   0.0000000   0.0000000   0.0000000
10.1457447   -0.9972991  -0.0175837   0.0005084   0.0014575   0.0000000   0.0000000   0.0000000   0.0000000
10.2704688   -0.9973293  -0.0177881   0.0004974   0.0014768   0.0000000   0.0000000   0.0000000   0.0000000
10.3967261   -0.9973450  -0.0179689   0.0004942   0.0014887   0.0000000   0.0000000   0.0000000   0.0000000
10.5245356   -0.9973163  -0.0182631   0.0004987   0.0015081   0.0000000   0.0000000   0.0000000   0.0000000
10.6539162   -0.9973330  -0.0184918   0.0005102   0.0015323   0.0000000   0.0000000   0.0000000   0.0000000
10.7848873   -0.9973154  -0.0187448   0.0005085   0.0015286   0.0000000   0.0000000   0.0000000   0.0000000
10.9174685   -0.9972218  -0.0189491   0.0004978   0.0015516   0.0000000   0.0000000   0.0000000   0.0000000
11.0516796   -0.9974865  -0.0190788   0.0004997   0.0015688   0.0000000   0.0000000   0.0000000   0.0000000
11.1875405   -0.9973562  -0.0193954   0.0005095   0.0015904   0.0000000   0.0000000   0.0000000   0.0000000
11.3250716   -0.9974186  -0.0195863   0.0005067   0.0016197   0.0000000   0.0000000   0.0000000   0.0000000
11.4642934   -0.9973930  -0.0198578   0.0004966   0.0016262   0.0000000   0.0000000   0.0000000   0.0000000
11.6052267   -0.9973617  -0.0200523   0.0005015   0.0016541   0.0000000   0.0000000   0.0000000   0.0000000
11.7478926   -0.9973507  -0.0203849   0.0005045   0.0016719   0.0000000   0.0000000   0.0000000   0.0000000
11.8923122   -0.9973611  -0.0207212   0.0004893   0.0017172   0.0000000   0.0000000   0.0000000   0.0000000
12.0385073   -0.9973939  -0.0208145   0.0005127   0.0017057   0.0000000   0.0000000   0.0000000   0.0000000
12.1864995   -0.9973550  -0.0210423   0.0005070   0.0017372   0.0000000   0.0000000   0.0000000   0.0000000
12.3363111   -0.9973811  -0.0214740   0.0005044   0.0017514   0.0000000   0.0000000   0.0000000   0.0000000
12.4879643   -0.9973087  -0.0216222   0.0005160   0.0017736   0.0000000   0.0000000   0.0000000   0.0000000
12.6414818   -0.9972652  -0.0219113   0.0005031   0.0017949   0.0000000   0.0000000   0.0000000   0.0000000
12.7968866   -0.9974195  -0.0220922   0.0005097   0.0018024   0.0000000   0.0000000   0.0000000   0.0000000
12.9542018   -0.9973945  -0.0224183   0.0005167   0.0018360   0.0000000   0.0000000   0.0000000   0.0000000
13.1134509   -0.9974021  -0.0227212   0.0005146   0.0018433   0.0000000   0.0000000   0.0000000   0.0000000
13.2746577   -0.9974380  -0.0230012   0.0005092   0.0018820   0.0000000   0.0000000   0.0000000   0.0000000
13.4378462   -0.9973376  -0.0232102   0.0005217   0.0018988   0.0000000   0.0000000   0.0000000   0.0000000
13.6030409   -0.9974069  -0.0235624   0.0005086   0.0019326   0.0000000   0.0000000   0.0000000   0.0000000
13.7702663   -0.9973578  -0.0239533   0.0005130   0.0019639   0.0000000   0.0000000   0.0000000   0.0000000
13.9395475   -0.9974071  -0.0241569   0.0005154   0.0019710   0.0000000   0.0000000   0.0000000   0.0000000
14.1109097   -0.9973959  -0.0244661   0.0005173   0.0020026   0.0000000   0.0000000   0.0000000   0.0000000
14.2843785   -0.9973164  -0.0246561   0.0005091   0.0020352   0.0000000   0.0000000   0.0000000   0.0000000
14.4599797   -0.9974165  -0.0250765   0.0005302   0.0020470   0.0000000   0.0000000   0.0000000   0.0000000
14.6377397   -0.9973957  -0.0253167   0.0005210   0.0020636   0.0000000   0.0000000   0.0000000   0.0000000
14.8176850   -0.9974092  -0.0255448   0.0005153   0.0021225   0.0000000   0.0000000   0.0000000   0.0000000
14.9998423   -0.9974681  -0.0259764   0.0005319   0.0021299   0.0000000   0.0000000   0.0000000   0.0000000
15.1842390   -0.9974354  -0.0262015   0.0005052   0.0021374   0.0000000   0.0000000   0.0000000   0.0000000
15.3709024   -0.9975486  -0.0266062   0.0005260   0.0021762   0.0000000   0.0000000   0.0000000   0.0000000
15.5598606   -0.9974304  -0.0268781   0.0005194   0.0021927   0.0000000   0.0000000   0.0000000   0.0000000
15.7511417   -0.9973729  -0.0271599   0.0005365   0.0022214   0.0000000   0.0000000   0.0000000   0.0000000
15.9447743   -0.9973808  -0.0274938   0.0005184   0.0022466   0.0000000   0.0000000   0.0000000   0.0000000
16.1407872   -0.9974060  -0.0279649   0.0005118   0.0022871   0.0000000   0.0000000   0.0000000   0.0000000
16.3392097   -0.9974272  -0.0281996   0.0005244   0.0022945   0.0000000   0.0000000   0.0000000   0.0000000
16.5400716   -0.9973960  -0.0285574   0.0005184   0.0023252   0.0000000   0.0000000   0.0000000   0.0000000
16.7434026   -0.9975504  -0.0288985   0.0005269   0.0023697   0.0000000   0.0000000   0.0000000   0.0000000
16.9492333   -0.9974106  -0.0292446   0.0005144   0.0023905   0.0000000   0.0000000   0.0000000   0.0000000
17.1575942   -0.9974224  -0.0296071   0.0005182   0.0024110   0.0000000   0.0000000   0.0000000   0.0000000
17.3685166   -0.9974379  -0.0299906   0.0005170   0.0024555   0.0000000   0.0000000   0.0000000   0.0000000
17.5820320   -0.9974572  -0.0302534   0.0005325   0.0024827   0.0000000   0.0000000   0.0000000   0.0000000
17.7981721   -0.9973781  -0.0307399   0.0005296   0.0025133   0.0000000   0.0000000   0.0000000   0.0000000
18.0169693   -0.9975206  -0.0310861   0.0005259   0.0025172   0.0000000   0.0000000   0.0000000   0.0000000
18.2384562   -0.9974182  -0.0314581   0.0005326   0.0025551   0.0000000   0.0000000   0.0000000   0.0000000
18.4626659   -0.9974404  -0.0318027   0.0005284   0.0025890   0.0000000   0.0000000   0.0000000   0.0000000
18.6896319   -0.9974150  -0.0323236   0.0005138   0.0026259   0.0000000   0.0000000   0.0000000   0.0000000
18.9193880   -0.9974329  -0.0325306   0.0005317   0.0026433   0.0000000   0.0000000   0.0000000   0.0000000
19.1519686   -0.9973820  -0.0329923   0.0005322   0.0026794   0.0000000   0.0000000   0.0000000   0.0000000
19.3874083   -0.9973998  -0.0333867   0.0005331   0.0027060   0.0000000   0.0000000   0.0000000   0.0000000
19.6257423   -0.9974606  -0.0338791   0.0005267   0.0027488   0.0000000   0.0000000   0.0000000   0.0000000
19.8670063   -0.9975390  -0.0343321   0.0005445   0.0027762   0.0000000   0.0000000   0.0000000   0.0000000
20.1112361   -0.9974445  -0.0346008   0.0005369   0.0028060   0.0000000   0.0000000   0.0000000   0.0000000
20.3584684   -0.9973881  -0.0350304   0.0005372   0.0028475   0.0000000   0.0000000   0.0000000   0.0000000
20.6087399   -0.9974835  -0.0354615   0.0005390   0.0028836   0.0000000   0.0000000   0.0000000   0.0000000
20.8620881   -0.9975094  -0.0358041   0.0005322   0.0028899   0.0000000   0.0000000   0.0000000   0.0000000
21.1185507   -0.9973774  -0.0363628   0.0005335   0.0029553   0.0000000   0.0000000   0.0000000   0.0000000
21.3781661   -0.9973777  -0.0368197   0.0005401   0.0029794   0.0000000   0.0000000   0.0000000   0.0000000
21.6409730   -0.9974436  -0.0372381   0.0005471   0.0030205   0.0000000   0.0000000   0.0000000   0.0000000
21.9070107   -0.9975509  -0.0377915   0.0005537   0.0030709   0.0000000   0.0000000   0.0000000   0.0000000
22.1763188   -0.9973736  -0.0381296   0.0005349   0.0030986   0.0000000   0.0000000   0.0000000   0.0000000
22.4489376   -0.9974999  -0.0386085   0.0005225   0.0031438   0.0000000   0.0000000   0.0000000   0.0000000
22.7249077   -0.9974940  -0.0389816   0.0005388   0.0031644   0.0000000   0.0000000   0.0000000   0.0000000
23.0042705   -0.9975073  -0.0395501   0.0005287   0.0032154   0.0000000   0.0000000   0.0000000   0.0000000
23.2870675   -0.9974904  -0.0399819   0.0005240   0.0032338   0.0000000   0.0000000   0.0000000   0.0000000
23.5733409   -0.9974317  -0.0404932   0.0005335   0.0032635   0.0000000   0.0000000   0.0000000   0.0000000
23.8631337   -0.9974965  -0.0409697   0.0005344   0.0033339   0.0000000   0.0000000   0.0000000   0.0000000
24.1564889   -0.9974349  -0.0414733   0.0005318   0.0033649   0.0000000   0.0000000   0.0000000   0.0000000
24.4534504   -0.9974205  -0.0419516   0.0005347   0.0033842   0.0000000   0.0000000   0.0000000   0.0000000
24.7540625   -0.9973624  -0.0425656   0.0005388   0.0034392   0.0000000   0.0000000   0.0000000   0.0000000
25.0583701   -0.9974228  -0.0430418   0.0005347   0.0034646   0.0000000   0.0000000   0.0000000   0.0000000
25.3664186   -0.9974706  -0.0435220   0.0005415   0.0035293   0.0000000   0.0000000   0.0000000   0.0000000
25.6782541   -0.9975298  -0.0441593   0.0005292   0.0035631   0.0000000   0.0000000   0.0000000   0.0000000
25.9939230   -0.9974465  -0.0446367   0.0005352   0.0036079   0.0000000   0.0000000   0.0000000   0.0000000
26.3134725   -0.9974172  -0.0451930   0.0005497   0.0036533   0.0000000   0.0000000   0.0000000   0.0000000
26.6369503   -0.9975679  -0.0456676   0.0005391   0.0036986   0.0000000   0.0000000   0.0000000   0.0000000
26.9644047   -0.9975538  -0.0462021   0.0005310   0.0037433   0.0000000   0.0000000   0.0000000   0.0000000
27.2958846   -0.9974694  -0.0468539   0.0005276   0.0037773   0.0000000   0.0000000   0.0000000   0.0000000
27.6314394   -0.9975134  -0.0474352   0.0005364   0.0038337   0.0000000   0.0000000   0.0000000   0.0000000
27.9711193   -0.9975010  -0.0479979   0.0005457   0.0038748   0.0000000   0.0000000   0.0000000   0.0000000
28.3149750   -0.9975570  -0.0485573   0.0005355   0.0039164   0.0000000   0.0000000   0.0000000   0.0000000
28.6630578   -0.9975716  -0.0491459   0.0005450   0.0039700   0.0000000   0.0000000   0.0000000   0.0000000
29.0154196   -0.9974559  -0.0497666   0.0005365   0.0040284   0.0000000   0.0000000   0.0000000   0.0000000
29.3721131   -0.9975167  -0.0503502   0.0005436   0.0040564   0.0000000   0.0000000   0.0000000   0.0000000
29.7331915   -0.9975336  -0.0510572   0.0005509   0.0041143   0.0000000   0.0000000   0.0000000   0.0000000
30.0987087   -0.9974602  -0.0516211   0.0005415   0.0041673   0.0000000   0.0000000   0.0000000   0.0000000
30.4687194   -0.9974112  -0.0522323   0.0005268   0.0042076   0.0000000   0.0000000   0.0000000   0.0000000
30.8432786   -0.9975244  -0.0528713   0.0005439   0.0042762   0.0000000   0.0000000   0.0000000   0.0000000
31.2224424   -0.9974088  -0.0534885   0.0005435   0.0043184   0.0000000   0.0000000   0.0000000   0.0000000
31.6062674   -0.9975028  -0.0541502   0.0005314   0.0043691   0.0000000   0.0000000   0.0000000   0.0000000
31.9948108   -0.9975594  -0.0548479   0.0005328   0.0044173   0.0000000   0.0000000   0.0000000   0.0000000
32.3881306   -0.9974887  -0.0555001   0.0005463   0.0044652   0.0000000   0.0000000   0.0000000   0.0000000
32.7862857   -0.9975438  -0.0561173   0.0005480   0.0045213   0.0000000   0.0000000   0.0000000   0.0000000
33.1893353   -0.9975752  -0.0568726   0.0005492   0.0045802   0.0000000   0.0000000   0.0000000   0.0000000
33.5973398   -0.9974769  -0.0574944   0.0005336   0.0046409   0.0000000   0.0000000   0.0000000   0.0000000
34.0103599   -0.9975444  -0.0582701   0.0005312   0.0046811   0.0000000   0.0000000   0.0000000   0.0000000
34.4284574   -0.9973918  -0.0588877   0.0005360   0.0047337   0.0000000   0.0000000   0.0000000   0.0000000
34.8516946   -0.9973447  -0.0596395   0.0005273   0.0048098   0.0000000   0.0000000   0.0000000   0.0000000
35.2801349   -0.9974764  -0.0604795   0.0005192   0.0048468   0.0000000   0.0000000   0.0000000   0.0000000
35.7138420   -0.9975106  -0.0611282   0.0005284   0.0049193   0.0000000   0.0000000   0.0000000   0.0000000
36.1528808   -0.9974549  -0.0619003   0.0005358   0.0049835   0.0000000   0.0000000   0.0000000   0.0000000
36.5973168   -0.9974446  -0.0625947   0.0005302   0.0050330   0.0000000   0.0000000   0.0000000   0.0000000
37.0472164   -0.9973921  -0.0633939   0.0005270   0.0051026   0.0000000   0.0000000   0.0000000   0.0000000
37.5026467   -0.9973339  -0.0642214   0.0005306   0.0051657   0.0000000   0.0000000   0.0000000   0.0000000
37.9636757   -0.9975473  -0.0649116   0.0005318   0.0052216   0.0000000   0.0000000   0.0000000   0.0000000
38.4303722   -0.9974412  -0.0655849   0.0005254   0.0052978   0.0000000   0.0000000   0.0000000   0.0000000
38.9028060   -0.9974049  -0.0663924   0.0005162   0.0053456   0.0000000   0.0000000   0.0000000   0.0000000
39.3810475   -0.9973731  -0.0672727   0.0005144   0.0054172   0.0000000   0.0000000   0.0000000   0.0000000
39.8651681   -0.9973400  -0.0680511   0.0005442   0.0054672   0.0000000   0.0000000   0.0000000   0.0000000
40.3552402   -0.9973817  -0.0689063   0.0005439   0.0055423   0.0000000   0.0000000   0.0000000   0.0000000
40.8513368   -0.9974240  -0.0697408   0.0005368   0.0056168   0.0000000   0.0000000   0.0000000   0.0000000
41.3535320   -0.9972840  -0.0704866   0.0005234   0.0056890   0.0000000   0.0000000   0.0000000   0.0000000
41.8619009   -0.9972723  -0.0714837   0.0005196   0.0057570   0.0000000   0.0000000   0.0000000   0.0000000
42.3765193   -0.9973029  -0.0723147   0.0005323   0.0058132   0.0000000   0.0000000   0.0000000   0.0000000
42.8974639   -0.9972570  -0.0732419   0.0005147   0.0058947   0.0000000   0.0000000   0.0000000   0.0000000
43.4248127   -0.9971669  -0.0741500   0.0005187   0.0059652   0.0000000   0.0000000   0.0000000   0.0000000
43.9586443   -0.9970658  -0.0749795   0.0005284   0.0060418   0.0000000   0.0000000   0.0000000   0.0000000
44.4990385   -0.9971352  -0.0759046   0.0005181   0.0060994   0.0000000   0.0000000   0.0000000   0.0000000
45.0460758   -0.9971199  -0.0768454   0.0005277   0.0061917   0.0000000   0.0000000   0.0000000   0.0000000
45.5998380   -0.9971395  -0.0776872   0.0005299   0.0062663   0.0000000   0.0000000   0.0000000   0.0000000
46.1604077   -0.9970931  -0.0787100   0.0005221   0.0063537   0.0000000   0.0000000   0.0000000   0.0000000
46.7278686   -0.9970680  -0.0796393   0.0005116   0.0064145   0.0000000   0.0000000   0.0000000   0.0000000
47.3023055   -0.9970722  -0.0806395   0.0005024   0.0064974   0.0000000   0.0000000   0.0000000   0.0000000
47.8838040   -0.9970099  -0.0815803   0.0005211   0.0065703   0.0000000   0.0000000   0.0000000   0.0000000
48.4724511   -0.9969536  -0.0825235   0.0005145   0.0066539   0.0000000   0.0000000   0.0000000   0.0000000
49.0683345   -0.9968850  -0.0835880   0.0004966   0.0067316   0.0000000   0.0000000   0.0000000   0.0000000
49.6715433   -0.9970281  -0.0845794   0.0005024   0.0068235   0.0000000   0.0000000   0.0000000   0.0000000
50.2821675   -0.9969518  -0.0856048   0.0005042   0.0068867   0.0000000   0.0000000   0.0000000   0.0000000
50.9002982   -0.9968840  -0.0867216   0.0004934   0.0069812   0.0000000   0.0000000   0.0000000   0.0000000
51.5260277   -0.9969060  -0.0876976   0.0005009   0.0070694   0.0000000   0.0000000   0.0000000   0.0000000
52.1594495   -0.9969183  -0.0887789   0.0004846   0.0071707   0.0000000   0.0000000   0.0000000   0.0000000
52.8006581   -0.9967103  -0.0898121   0.0004955   0.0072523   0.0000000   0.0000000   0.0000000   0.0000000
53.4497492   -0.9967102  -0.0908898   0.0005043   0.0073445   0.0000000   0.0000000   0.0000000   0.0000000
54.1068198   -0.9966962  -0.0919948   0.0005018   0.0074228   0.0000000   0.0000000   0.0000000   0.0000000
54.7719678   -0.9965914  -0.0931961   0.0004827   0.0075438   0.0000000   0.0000000   0.0000000   0.0000000
55.4452927   -0.9965139  -0.0943029   0.0005021   0.0076093   0.0000000   0.0000000   0.0000000   0.0000000
56.1268950   -0.9965596  -0.0954391   0.0004886   0.0077238   0.0000000   0.0000000   0.0000000   0.0000000
56.8168763   -0.9964458  -0.0965361   0.0004857   0.0078180   0.0000000   0.0000000   0.0000000   0.0000000
57.5153398   -0.9964164  -0.0976912   0.0004799   0.0078925   0.0000000   0.0000000   0.0000000   0.0000000
58.2223896   -0.9963200  -0.0988292   0.0004796   0.0080067   0.0000000   0.0000000   0.0000000   0.0000000
58.9381314   -0.9962166  -0.1001510   0.0004821   0.0080899   0.0000000   0.0000000   0.0000000   0.0000000
59.6626719   -0.9961266  -0.1012410   0.0004881   0.0082113   0.0000000   0.0000000   0.0000000   0.0000000
60.3961194   -0.9961973  -0.1025368   0.0004723   0.0082972   0.0000000   0.0000000   0.0000000   0.0000000
61.1385834   -0.9960730  -0.1037412   0.0004605   0.0084119   0.0000000   0.0000000   0.0000000   0.0000000
61.8901746   -0.9959625  -0.1050574   0.0004672   0.0085174   0.0000000   0.0000000   0.0000000   0.0000000
62.6510053   -0.9958220  -0.1063114   0.0004570   0.0086176   0.0000000   0.0000000   0.0000000   0.0000000
63.4211891   -0.9956843  -0.1076510   0.0004660   0.0087273   0.0000000   0.0000000   0.0000000   0.0000000
64.2008409   -0.9956936  -0.1088170   0.0004597   0.0088234   0.0000000   0.0000000   0.0000000   0.0000000
64.9900772   -0.9955875  -0.1102856   0.0004555   0.0089441   0.0000000   0.0000000   0.0000000   0.0000000
65.7890158   -0.9953893  -0.1115641   0.0004601   0.0090399   0.0000000   0.0000000   0.0000000   0.0000000
66.5977759   -0.9952346  -0.1128583   0.0004515   0.0091550   0.0000000   0.0000000   0.0000000   0.0000000
67.4164783   -0.9952427  -0.1144085   0.0004364   0.0092784   0.0000000   0.0000000   0.0000000   0.0000000
68.2452452   -0.9949975  -0.1156586   0.0004562   0.0093971   0.0000000   0.0000000   0.0000000   0.0000000
69.0842003   -0.9949126  -0.1171291   0.0004597   0.0095341   0.0000000   0.0000000   0.0000000   0.0000000
69.9334689   -0.9949113  -0.1185761   0.0004741   0.0096503   0.0000000   0.0000000   0.0000000   0.0000000
70.7931778   -0.9948570  -0.1198667   0.0004175   0.0097459   0.0000000   0.0000000   0.0000000   0.0000000
71.6634552   -0.9946248  -0.1213996   0.0004332   0.0098770   0.0000000   0.0000000   0.0000000   0.0000000
72.5444312   -0.9944652  -0.1228281   0.0004277   0.0100028   0.0000000   0.0000000   0.0000000   0.0000000
73.4362373   -0.9942715  -0.1243542   0.0004136   0.0101098   0.0000000   0.0000000   0.0000000   0.0000000
74.3390065   -0.9940079  -0.1260308   0.0004358   0.0102696   0.0000000   0.0000000   0.0000000   0.0000000
75.2528737   -0.9938234  -0.1275981   0.0004336   0.0104090   0.0000000   0.0000000   0.0000000   0.0000000
76.1779753   -0.9937091  -0.1291311   0.0004334   0.0105200   0.0000000   0.0000000   0.0000000   0.0000000
77.1144493   -0.9935554  -0.1307779   0.0004238   0.0106518   0.0000000   0.0000000   0.0000000   0.0000000
78.0624357   -0.9933964  -0.1323268   0.0004239   0.0107982   0.0000000   0.0000000   0.0000000   0.0000000
79.0220759   -0.9932678  -0.1339580   0.0004261   0.0109323   0.0000000   0.0000000   0.0000000   0.0000000
79.9935132   -0.9929235  -0.1355821   0.0004169   0.0110524   0.0000000   0.0000000   0.0000000   0.0000000
80.9768926   -0.9928699  -0.1371848   0.0004253   0.0111933   0.0000000   0.0000000   0.0000000   0.0000000
81.9723609   -0.9926326  -0.1388673   0.0004073   0.0113433   0.0000000   0.0000000   0.0000000   0.0000000
82.9800667   -0.9923574  -0.1406150   0.0004060   0.0114925   0.0000000   0.0000000   0.0000000   0.0000000
84.0001605   -0.9921125  -0.1424367   0.0004066   0.0116224   0.0000000   0.0000000   0.0000000   0.0000000
85.0327946   -0.9919598  -0.1442201   0.0004055   0.0117781   0.0000000   0.0000000   0.0000000   0.0000000
86.0781231   -0.9916661  -0.1458062   0.0004147   0.0119062   0.0000000   0.0000000   0.0000000   0.0000000
87.1363020   -0.9912886  -0.1476823   0.0004057   0.0120827   0.0000000   0.0000000   0.0000000   0.0000000
88.2074894   -0.9910421  -0.1495522   0.0004048   0.0122355   0.0000000   0.0000000   0.0000000   0.0000000
89.2918452   -0.9908387  -0.1515439   0.0004288   0.0123665   0.0000000   0.0000000   0.0000000   0.0000000
90.3895312   -0.9905021  -0.1533740   0.0004050   0.0125515   0.0000000   0.0000000   0.0000000   0.0000000
91.5007114   -0.9901042  -0.1553345   0.0004074   0.0126956   0.0000000   0.0000000   0.0000000   0.0000000
92.6255515   -0.9897739  -0.1571962   0.0004225   0.0128715   0.0000000   0.0000000   0.0000000   0.0000000
93.7642195   -0.9896054  -0.1592678   0.0004154   0.0130123   0.0000000   0.0000000   0.0000000   0.0000000
94.9168855   -0.9891446  -0.1612543   0.0004141   0.0131968   0.0000000   0.0000000   0.0000000   0.0000000
96.0837215   -0.9887670  -0.1633946   0.0004068   0.0133684   0.0000000   0.0000000   0.0000000   0.0000000
97.2649017   -0.9884961  -0.1652444   0.0004049   0.0135190   0.0000000   0.0000000   0.0000000   0.0000000
98.4606024   -0.9880889  -0.1675170   0.0004179   0.0136897   0.0000000   0.0000000   0.0000000   0.0000000
99.6710021   -0.9877442  -0.1696459   0.0004302   0.0138901   0.0000000   0.0000000   0.0000000   0.0000000
100.8962816  -0.9873515  -0.1717704   0.0004054   0.0140436   0.0000000   0.0000000   0.0000000   0.0000000
102.1366237  -0.9870165  -0.1740031   0.0004433   0.0142241   0.0000000   0.0000000   0.0000000   0.0000000
103.3922136  -0.9865377  -0.1762479   0.0004485   0.0144227   0.0000000   0.0000000   0.0000000   0.0000000
104.6632389  -0.9862069  -0.1786829   0.0004338   0.0145989   0.0000000   0.0000000   0.0000000   0.0000000
105.9498891  -0.9851271  -0.1807076   0.0005187   0.0148083   0.0000000   0.0000000   0.0000000   0.0000000
107.2523564  -0.9857252  -0.1828760   0.0003964   0.0149910   0.0000000   0.0000000   0.0000000   0.0000000
108.5708353  -0.9852826  -0.1855052   0.0004096   0.0151128   0.0000000   0.0000000   0.0000000   0.0000000
109.9055225  -0.9841771  -0.1880171   0.0004262   0.0152351   0.0000000   0.0000000   0.0000000   0.0000000
111.2566174  -0.9837538  -0.1902680   0.0004409   0.0155506   0.0000000   0.0000000   0.0000000   0.0000000
112.6243216  -0.9834045  -0.1927467   0.0004587   0.0157460   0.0000000   0.0000000   0.0000000   0.0000000
114.0088393  -0.9828555  -0.1952039   0.0004569   0.0159375   0.0000000   0.0000000   0.0000000   0.0000000
115.4103773  -0.9825091  -0.1977420   0.0004857   0.0161633   0.0000000   0.0000000   0.0000000   0.0000000
116.8291446  -0.9818550  -0.2002532   0.0004637   0.0163324   0.0000000   0.0000000   0.0000000   0.0000000
118.2653533  -0.9813020  -0.2029289   0.0004852   0.0165524   0.0000000   0.0000000   0.0000000   0.0000000
119.7192175  -0.9808788  -0.2055830   0.0004988   0.0167562   0.0000000   0.0000000   0.0000000   0.0000000
121.1909545  -0.9803182  -0.2081446   0.0005189   0.0169892   0.0000000   0.0000000   0.0000000   0.0000000
122.6807839  -0.9798067  -0.2110133   0.0004951   0.0171850   0.0000000   0.0000000   0.0000000   0.0000000
124.1889281  -0.9791219  -0.2135193   0.0005425   0.0174349   0.0000000   0.0000000   0.0000000   0.0000000
125.7156123  -0.9784777  -0.2163748   0.0005367   0.0176302   0.0000000   0.0000000   0.0000000   0.0000000
127.2610644  -0.9779232  -0.2192868   0.0005590   0.0178544   0.0000000   0.0000000   0.0000000   0.0000000
128.8255151  -0.9771861  -0.2222697   0.0005661   0.0180818   0.0000000   0.0000000   0.0000000   0.0000000
130.4091980  -0.9764238  -0.2252064   0.0005729   0.0183056   0.0000000   0.0000000   0.0000000   0.0000000
132.0123495  -0.9760418  -0.2282308   0.0006128   0.0185608   0.0000000   0.0000000   0.0000000   0.0000000
133.6352088  -0.9754123  -0.2314931   0.0005885   0.0187840   0.0000000   0.0000000   0.0000000   0.0000000
135.2780184  -0.9746869  -0.2347687   0.0006154   0.0190317   0.0000000   0.0000000   0.0000000   0.0000000
136.9410235  -0.9746263  -0.2383215   0.0006146   0.0192642   0.0000000   0.0000000   0.0000000   0.0000000
138.6244722  -0.9765745  -0.2414951   0.0006073   0.0194829   0.0000000   0.0000000   0.0000000   0.0000000
140.3286160  -0.9746458  -0.2413734   0.0006211   0.0197823   0.0000000   0.0000000   0.0000000   0.0000000
142.0537093  -0.9725412  -0.2448590   0.0006682   0.0200139   0.0000000   0.0000000   0.0000000   0.0000000
143.8000095  -0.9715630  -0.2480932   0.0007211   0.0202960   0.0000000   0.0000000   0.0000000   0.0000000
145.5677774  -0.9710290  -0.2517453   0.0007377   0.0206453   0.0000000   0.0000000   0.0000000   0.0000000
147.3572769  -0.9698805  -0.2546948   0.0007664   0.0207893   0.0000000   0.0000000   0.0000000   0.0000000
149.1687752  -0.9689335  -0.2579443   0.0007818   0.0210554   0.0000000   0.0000000   0.0000000   0.0000000
151.0025426  -0.9679760  -0.2613506   0.0008190   0.0213592   0.0000000   0.0000000   0.0000000   0.0000000
152.8588530  -0.9671085  -0.2647021   0.0008750   0.0215987   0.0000000   0.0000000   0.0000000   0.0000000
154.7379834  -0.9662523  -0.2681000   0.0009021   0.0218657   0.0000000   0.0000000   0.0000000   0.0000000
156.6402144  -0.9654309  -0.2715365   0.0009518   0.0221713   0.0000000   0.0000000   0.0000000   0.0000000
158.5658301  -0.9644033  -0.2747676   0.0010101   0.0223946   0.0000000   0.0000000   0.0000000   0.0000000
160.5151177  -0.9635146  -0.2780659   0.0010514   0.0227023   0.0000000   0.0000000   0.0000000   0.0000000
162.4883685  -0.9620030  -0.2818662   0.0010972   0.0229906   0.0000000   0.0000000   0.0000000   0.0000000
164.4858769  -0.9613258  -0.2853120   0.0011584   0.0232913   0.0000000   0.0000000   0.0000000   0.0000000
166.5079411  -0.9601816  -0.2891441   0.0012309   0.0235848   0.0000000   0.0000000   0.0000000   0.0000000
168.5548630  -0.9590239  -0.2921932   0.0012935   0.0238535   0.0000000   0.0000000   0.0000000   0.0000000
170.6269483  -0.9580495  -0.2960665   0.0013750   0.0241646   0.0000000   0.0000000   0.0000000   0.0000000
172.7245062  -0.9568003  -0.2996888   0.0014693   0.0243658   0.0000000   0.0000000   0.0000000   0.0000000
174.8478498  -0.9556931  -0.3033067   0.0015404   0.0246383   0.0000000   0.0000000   0.0000000   0.0000000
176.9972963  -0.9544521  -0.3075361   0.0015958   0.0249076   0.0000000   0.0000000   0.0000000   0.0000000
179.1731664  -0.9501982  -0.3096406   0.0014561   0.0252254   0.0000000   0.0000000   0.0000000   0.0000000
181.3757850  -0.9514628  -0.3154350   0.0017868   0.0255549   0.0000000   0.0000000   0.0000000   0.0000000
183.6054809  -0.9506476  -0.3182217   0.0018267   0.0257309   0.0000000   0.0000000   0.0000000   0.0000000
185.8625870  -0.9486145  -0.3221104   0.0019477   0.0259413   0.0000000   0.0000000   0.0000000   0.0000000
188.1474402  -0.9475779  -0.3262169   0.0019761   0.0262220   0.0000000   0.0000000   0.0000000   0.0000000
190.4603817  -0.9462689  -0.3297212   0.0020672   0.0265254   0.0000000   0.0000000   0.0000000   0.0000000
192.8017567  -0.9445621  -0.3336241   0.0021177   0.0267225   0.0000000   0.0000000   0.0000000   0.0000000
195.1719148  -0.9429552  -0.3375920   0.0022282   0.0269664   0.0000000   0.0000000   0.0000000   0.0000000
197.5712099  -0.9411570  -0.3423751   0.0022022   0.0272651   0.0000000   0.0000000   0.0000000   0.0000000
200.0000000  -0.9389465  -0.3461788   0.0023303   0.0275451   0.0000000   0.0000000   0.0000000   0.0000000
