! ListType=Log
# MHZ S RI R 50
0.0010000    -0.9968440   0.0001261   0.0003344  -0.0000137   0.0000000   0.0000000   0.0000000   0.0000000
0.0010123    -0.9971580  -0.0003940   0.0002935  -0.0000545   0.0000000   0.0000000   0.0000000   0.0000000
0.0010247    -0.9963604   0.0004949   0.0004122  -0.0000173   0.0000000   0.0000000   0.0000000   0.0000000
0.0010373    -0.9970057   0.0000164   0.0003413  -0.0000212   0.0000000   0.0000000   0.0000000   0.0000000
0.0010501    -0.9971830   0.0002438   0.0003070   0.0000047   0.0000000   0.0000000   0.0000000   0.0000000
0.0010630    -0.9970618  -0.0001531   0.0002938  -0.0000491   0.0000000   0.0000000   0.0000000   0.0000000
0.0010761    -0.9965316   0.0001514   0.0003983  -0.0000071   0.0000000   0.0000000   0.0000000   0.0000000
0.0010893    -0.9971646  -0.0003255   0.0002606  -0.0000513   0.0000000   0.0000000   0.0000000   0.0000000
0.0011027    -0.9969858   0.0000241   0.0003794  -0.0000315   0.0000000   0.0000000   0.0000000   0.0000000
0.0011162    -0.9964311  -0.0002035   0.0003598  -0.0000760   0.0000000   0.0000000   0.0000000   0.0000000
0.0011300    -0.9967212   0.0003069   0.0003571   0.0000009   0.0000000   0.0000000   0.0000000   0.0000000
0.0011439    -0.9971805  -0.0003724   0.0003297  -0.0000273   0.0000000   0.0000000   0.0000000   0.0000000
0.0011579    -0.9965685   0.0000908   0.0003863  -0.0000128   0.0000000   0.0000000   0.0000000   0.0000000
0.0011721    -0.9970483  -0.0001670   0.0003333  -0.0000702   0.0000000   0.0000000   0.0000000   0.0000000
0.0011866    -0.9973113   0.0004284   0.0003298  -0.0000006   0.0000000   0.0000000   0.0000000   0.0000000
0.0012011    -0.9969017  -0.0000103   0.0003207  -0.0000619   0.0000000   0.0000000   0.0000000   0.0000000
0.0012159    -0.9972229  -0.0005302   0.0003141  -0.0000881   0.0000000   0.0000000   0.0000000   0.0000000
0.0012309    -0.9968632  -0.0000197   0.0003668  -0.0000592   0.0000000   0.0000000   0.0000000   0.0000000
0.0012460    -0.9971674   0.0000400   0.0003345  -0.0000049   0.0000000   0.0000000   0.0000000   0.0000000
0.0012613    -0.9968300  -0.0000786   0.0003522  -0.0000538   0.0000000   0.0000000   0.0000000   0.0000000
0.0012768    -0.9969782   0.0000470   0.0003753  -0.0000203   0.0000000   0.0000000   0.0000000   0.0000000
0.0012925    -0.9969674  -0.0004254   0.0003172  -0.0000452   0.0000000   0.0000000   0.0000000   0.0000000
0.0013084    -0.9968242   0.0002003   0.0003762  -0.0000193   0.0000000   0.0000000   0.0000000   0.0000000
0.0013245    -0.9970252  -0.0003636   0.0003066  -0.0000536   0.0000000   0.0000000   0.0000000   0.0000000
0.0013408    -0.9968523  -0.0000322   0.0003507  -0.0000086   0.0000000   0.0000000   0.0000000   0.0000000
0.0013572    -0.9969037  -0.0002291   0.0003126  -0.0000855   0.0000000   0.0000000   0.0000000   0.0000000
0.0013739    -0.9969705   0.0000294   0.0003625  -0.0000195   0.0000000   0.0000000   0.0000000   0.0000000
0.0013908    -0.9967780  -0.0000807   0.0003321  -0.0000803   0.0000000   0.0000000   0.0000000   0.0000000
0.0014079    -0.9968946   0.0000721   0.0003409  -0.0000081   0.0000000   0.0000000   0.0000000   0.0000000
0.0014252    -0.9966777  -0.0003506   0.0003385  -0.0000889   0.0000000   0.0000000   0.0000000   0.0000000
0.0014427    -0.9971032   0.0000185   0.0003639  -0.0000166   0.0000000   0.0000000   0.0000000   0.0000000
0.0014605    -0.9968529  -0.0004769   0.0003245  -0.0000628   0.0000000   0.0000000   0.0000000   0.0000000
0.0014784    -0.9968933   0.0000753   0.0003733  -0.0000343   0.0000000   0.0000000   0.0000000   0.0000000
0.0014966    -0.9969990  -0.0001702   0.0003441  -0.0000405   0.0000000   0.0000000   0.0000000   0.0000000
0.0015150    -0.9965031  -0.0004457   0.0003646  -0.0000651   0.0000000   0.0000000   0.0000000   0.0000000
0.0015336    -0.9967908  -0.0001265   0.0003431  -0.0000449   0.0000000   0.0000000   0.0000000   0.0000000
0.0015525    -0.9972579   0.0000080   0.0003382  -0.0000055   0.0000000   0.0000000   0.0000000   0.0000000
0.0015716    -0.9969479  -0.0001058   0.0003337  -0.0000569   0.0000000   0.0000000   0.0000000   0.0000000
0.0015909    -0.9967867  -0.0002010   0.0003000  -0.0000401   0.0000000   0.0000000   0.0000000   0.0000000
0.0016104    -0.9969803   0.0000590   0.0003516  -0.0000268   0.0000000   0.0000000   0.0000000   0.0000000
0.0016302    -0.9971501   0.0000693   0.0003162  -0.0000496   0.0000000   0.0000000   0.0000000   0.0000000
0.0016503    -0.9968167  -0.0002459   0.0003603  -0.0000546   0.0000000   0.0000000   0.0000000   0.0000000
0.0016706    -0.9968242  -0.0003452   0.0003667  -0.0000638   0.0000000   0.0000000   0.0000000   0.0000000
0.0016911    -0.9967271  -0.0002848   0.0003569  -0.0000549   0.0000000   0.0000000   0.0000000   0.0000000
0.0017119    -0.9971949  -0.0000800   0.0003133  -0.0000691   0.0000000   0.0000000   0.0000000   0.0000000
0.0017329    -0.9970080  -0.0001225   0.0003848  -0.0000711   0.0000000   0.0000000   0.0000000   0.0000000
0.0017542    -0.9968389  -0.0001319   0.0003526  -0.0000493   0.0000000   0.0000000   0.0000000   0.0000000
0.0017758    -0.9972651   0.0000117   0.0003545  -0.0000288   0.0000000   0.0000000   0.0000000   0.0000000
0.0017976    -0.9969132   0.0000196   0.0003267  -0.0000400   0.0000000   0.0000000   0.0000000   0.0000000
0.0018197    -0.9970650   0.0000425   0.0003749  -0.0000419   0.0000000   0.0000000   0.0000000   0.0000000
0.0018421    -0.9968187  -0.0001262   0.0003459  -0.0000723   0.0000000   0.0000000   0.0000000   0.0000000
0.0018648    -0.9969065  -0.0001232   0.0003504  -0.0000534   0.0000000   0.0000000   0.0000000   0.0000000
0.0018877    -0.9971327  -0.0000472   0.0003532  -0.0000422   0.0000000   0.0000000   0.0000000   0.0000000
0.0019109    -0.9968848  -0.0003879   0.0003675  -0.0000425   0.0000000   0.0000000   0.0000000   0.0000000
0.0019344    -0.9971039   0.0000328   0.0003538  -0.0000617   0.0000000   0.0000000   0.0000000   0.0000000
0.0019582    -0.9972198  -0.0000012   0.0003477  -0.0000432   0.0000000   0.0000000   0.0000000   0.0000000
0.0019822    -0.9968584  -0.0000681   0.0003445  -0.0000733   0.0000000   0.0000000   0.0000000   0.0000000
0.0020066    -0.9969858  -0.0001941   0.0003496  -0.0000658   0.0000000   0.0000000   0.0000000   0.0000000
0.0020313    -0.9969285  -0.0001258   0.0003540  -0.0000563   0.0000000   0.0000000   0.0000000   0.0000000
0.0020562    -0.9969172  -0.0000328   0.0003572  -0.0000513   0.0000000   0.0000000   0.0000000   0.0000000
0.0020815    -0.9972345  -0.0002188   0.0003188  -0.0000519   0.0000000   0.0000000   0.0000000   0.0000000
0.0021071    -0.9969097  -0.0000505   0.0003202  -0.0000759   0.0000000   0.0000000   0.0000000   0.0000000
0.0021330    -0.9970364  -0.0000517   0.0003331  -0.0000547   0.0000000   0.0000000   0.0000000   0.0000000
0.0021592    -0.9969770  -0.0001850   0.0003109  -0.0000600   0.0000000   0.0000000   0.0000000   0.0000000
0.0021858    -0.9968692  -0.0002959   0.0003527  -0.0000715   0.0000000   0.0000000   0.0000000   0.0000000
0.0022126    -0.9971116  -0.0001091   0.0003327  -0.0000455   0.0000000   0.0000000   0.0000000   0.0000000
0.0022398    -0.9968704  -0.0001198   0.0003462  -0.0000739   0.0000000   0.0000000   0.0000000   0.0000000
0.0022674    -0.9968285  -0.0001970   0.0003299  -0.0000667   0.0000000   0.0000000   0.0000000   0.0000000
0.0022953    -0.9970974  -0.0002574   0.0003369  -0.0000781   0.0000000   0.0000000   0.0000000   0.0000000
0.0023235    -0.9967599  -0.0000855   0.0003517  -0.0000610   0.0000000   0.0000000   0.0000000   0.0000000
0.0023520    -0.9971503  -0.0000903   0.0003584  -0.0000410   0.0000000   0.0000000   0.0000000   0.0000000
0.0023809    -0.9966933  -0.0002893   0.0003365  -0.0000571   0.0000000   0.0000000   0.0000000   0.0000000
0.0024102    -0.9970582  -0.0001612   0.0003143  -0.0000629   0.0000000   0.0000000   0.0000000   0.0000000
0.0024398    -0.9971959  -0.0001384   0.0003174  -0.0000652   0.0000000   0.0000000   0.0000000   0.0000000
0.0024698    -0.9971028  -0.0002552   0.0003398  -0.0000705   0.0000000   0.0000000   0.0000000   0.0000000
0.0025002    -0.9971248  -0.0002002   0.0003252  -0.0000760   0.0000000   0.0000000   0.0000000   0.0000000
0.0025309    -0.9972183  -0.0001041   0.0003428  -0.0000704   0.0000000   0.0000000   0.0000000   0.0000000
0.0025621    -0.9970889  -0.0000507   0.0003170  -0.0000578   0.0000000   0.0000000   0.0000000   0.0000000
0.0025935    -0.9969009   0.0000758   0.0003664  -0.0000925   0.0000000   0.0000000   0.0000000   0.0000000
0.0026254    -0.9969523   0.0000101   0.0003364  -0.0000772   0.0000000   0.0000000   0.0000000   0.0000000
0.0026577    -0.9969897   0.0001639   0.0003356  -0.0000335   0.0000000   0.0000000   0.0000000   0.0000000
0.0026904    -0.9970642  -0.0004138   0.0003331  -0.0000653   0.0000000   0.0000000   0.0000000   0.0000000
0.0027235    -0.9970257  -0.0000563   0.0003278  -0.0000651   0.0000000   0.0000000   0.0000000   0.0000000
0.0027569    -0.9969655  -0.0001944   0.0003556  -0.0000693   0.0000000   0.0000000   0.0000000   0.0000000
0.0027908    -0.9970789  -0.0001988   0.0003201  -0.0000651   0.0000000   0.0000000   0.0000000   0.0000000
0.0028251    -0.9971746  -0.0002669   0.0003385  -0.0000870   0.0000000   0.0000000   0.0000000   0.0000000
0.0028599    -0.9970246  -0.0001990   0.0003508  -0.0000837   0.0000000   0.0000000   0.0000000   0.0000000
0.0028950    -0.9970928   0.0001025   0.0003526  -0.0000659   0.0000000   0.0000000   0.0000000   0.0000000
0.0029306    -0.9969879   0.0001799   0.0003390  -0.0000657   0.0000000   0.0000000   0.0000000   0.0000000
0.0029666    -0.9970672   0.0000706   0.0003104  -0.0000640   0.0000000   0.0000000   0.0000000   0.0000000
0.0030031    -0.9971083  -0.0000912   0.0003299  -0.0000723   0.0000000   0.0000000   0.0000000   0.0000000
0.0030400    -0.9971012  -0.0000898   0.0003339  -0.0000783   0.0000000   0.0000000   0.0000000   0.0000000
0.0030774    -0.9970469  -0.0001920   0.0003043  -0.0001019   0.0000000   0.0000000   0.0000000   0.0000000
0.0031152    -0.9970825   0.0000026   0.0003440  -0.0000687   0.0000000   0.0000000   0.0000000   0.0000000
0.0031535    -0.9971460  -0.0001774   0.0003285  -0.0000685   0.0000000   0.0000000   0.0000000   0.0000000
0.0031923    -0.9972020  -0.0002642   0.0003198  -0.0000812   0.0000000   0.0000000   0.0000000   0.0000000
0.0032315    -0.9971680  -0.0000606   0.0003380  -0.0000852   0.0000000   0.0000000   0.0000000   0.0000000
0.0032713    -0.9970121  -0.0001165   0.0003263  -0.0000818   0.0000000   0.0000000   0.0000000   0.0000000
0.0033115    -0.9971374   0.0000131   0.0003298  -0.0000811   0.0000000   0.0000000   0.0000000   0.0000000
0.0033522    -0.9970012  -0.0003687   0.0003450  -0.0001151   0.0000000   0.0000000   0.0000000   0.0000000
0.0033934    -0.9968851  -0.0001335   0.0003280  -0.0000623   0.0000000   0.0000000   0.0000000   0.0000000
0.0034351    -0.9970528  -0.0001006   0.0002871  -0.0001051   0.0000000   0.0000000   0.0000000   0.0000000
0.0034773    -0.9970686  -0.0000225   0.0003343  -0.0000454   0.0000000   0.0000000   0.0000000   0.0000000
0.0035201    -0.9971456   0.0000194   0.0003037  -0.0001147   0.0000000   0.0000000   0.0000000   0.0000000
0.0035634    -0.9972598   0.0000244   0.0003152  -0.0000661   0.0000000   0.0000000   0.0000000   0.0000000
0.0036072    -0.9970369  -0.0001928   0.0003250  -0.0000942   0.0000000   0.0000000   0.0000000   0.0000000
0.0036515    -0.9969591  -0.0001424   0.0003256  -0.0000875   0.0000000   0.0000000   0.0000000   0.0000000
0.0036964    -0.9972098  -0.0003069   0.0003005  -0.0000526   0.0000000   0.0000000   0.0000000   0.0000000
0.0037418    -0.9970411  -0.0000554   0.0003289  -0.0000862   0.0000000   0.0000000   0.0000000   0.0000000
0.0037878    -0.9971471  -0.0001200   0.0003169  -0.0000801   0.0000000   0.0000000   0.0000000   0.0000000
0.0038344    -0.9971252  -0.0001837   0.0003116  -0.0000899   0.0000000   0.0000000   0.0000000   0.0000000
0.0038815    -0.9970908  -0.0000149   0.0003152  -0.0000953   0.0000000   0.0000000   0.0000000   0.0000000
0.0039293    -0.9970784   0.0000781   0.0003215  -0.0000741   0.0000000   0.0000000   0.0000000   0.0000000
0.0039776    -0.9970670  -0.0000803   0.0003172  -0.0001076   0.0000000   0.0000000   0.0000000   0.0000000
0.0040265    -0.9971445   0.0000212   0.0003047  -0.0001115   0.0000000   0.0000000   0.0000000   0.0000000
0.0040759    -0.9970931  -0.0000684   0.0003080  -0.0001157   0.0000000   0.0000000   0.0000000   0.0000000
0.0041261    -0.9971625   0.0001485   0.0003101  -0.0000849   0.0000000   0.0000000   0.0000000   0.0000000
0.0041768    -0.9971654  -0.0000706   0.0003135  -0.0001076   0.0000000   0.0000000   0.0000000   0.0000000
0.0042281    -0.9971758  -0.0000557   0.0003140  -0.0001022   0.0000000   0.0000000   0.0000000   0.0000000
0.0042801    -0.9971894  -0.0000903   0.0003123  -0.0000982   0.0000000   0.0000000   0.0000000   0.0000000
0.0043327    -0.9971844  -0.0001377   0.0003089  -0.0000989   0.0000000   0.0000000   0.0000000   0.0000000
0.0043860    -0.9972066  -0.0001757   0.0003192  -0.0001200   0.0000000   0.0000000   0.0000000   0.0000000
0.0044399    -0.9971934  -0.0000227   0.0003158  -0.0001042   0.0000000   0.0000000   0.0000000   0.0000000
0.0044945    -0.9972813  -0.0000173   0.0003222  -0.0001055   0.0000000   0.0000000   0.0000000   0.0000000
0.0045497    -0.9971805   0.0000038   0.0003011  -0.0001380   0.0000000   0.0000000   0.0000000   0.0000000
0.0046057    -0.9971363   0.0000234   0.0003033  -0.0001184   0.0000000   0.0000000   0.0000000   0.0000000
0.0046623    -0.9974193  -0.0000655   0.0003020  -0.0000984   0.0000000   0.0000000   0.0000000   0.0000000
0.0047196    -0.9970388  -0.0000737   0.0002860  -0.0001157   0.0000000   0.0000000   0.0000000   0.0000000
0.0047776    -0.9971848  -0.0000499   0.0002845  -0.0000951   0.0000000   0.0000000   0.0000000   0.0000000
0.0048363    -0.9971797   0.0000077   0.0002801  -0.0001104   0.0000000   0.0000000   0.0000000   0.0000000
0.0048958    -0.9971953  -0.0000055   0.0002938  -0.0001306   0.0000000   0.0000000   0.0000000   0.0000000
0.0049560    -0.9969954   0.0000642   0.0003019  -0.0001112   0.0000000   0.0000000   0.0000000   0.0000000
0.0050169    -0.9970469   0.0000307   0.0002908  -0.0001365   0.0000000   0.0000000   0.0000000   0.0000000
0.0050786    -0.9969909  -0.0000780   0.0002743  -0.0000835   0.0000000   0.0000000   0.0000000   0.0000000
0.0051410    -0.9971176   0.0000597   0.0002714  -0.0000844   0.0000000   0.0000000   0.0000000   0.0000000
0.0052042    -0.9969497   0.0001069   0.0002736  -0.0001072   0.0000000   0.0000000   0.0000000   0.0000000
0.0052682    -0.9971475  -0.0000560   0.0002890  -0.0001189   0.0000000   0.0000000   0.0000000   0.0000000
0.0053330    -0.9971457  -0.0000156   0.0002840  -0.0001101   0.0000000   0.0000000   0.0000000   0.0000000
0.0053985    -0.9971601  -0.0000551   0.0002981  -0.0001200   0.0000000   0.0000000   0.0000000   0.0000000
0.0054649    -0.9971559   0.0000142   0.0003084  -0.0001049   0.0000000   0.0000000   0.0000000   0.0000000
0.0055321    -0.9969860  -0.0000539   0.0002964  -0.0001101   0.0000000   0.0000000   0.0000000   0.0000000
0.0056001    -0.9969882  -0.0001111   0.0002802  -0.0001193   0.0000000   0.0000000   0.0000000   0.0000000
0.0056689    -0.9970006   0.0000309   0.0002813  -0.0001265   0.0000000   0.0000000   0.0000000   0.0000000
0.0057386    -0.9970428   0.0001068   0.0002773  -0.0001208   0.0000000   0.0000000   0.0000000   0.0000000
0.0058091    -0.9971618  -0.0000456   0.0003017  -0.0001203   0.0000000   0.0000000   0.0000000   0.0000000
0.0058806    -0.9971702  -0.0000842   0.0002833  -0.0001290   0.0000000   0.0000000   0.0000000   0.0000000
0.0059529    -0.9972366   0.0000769   0.0002794  -0.0001160   0.0000000   0.0000000   0.0000000   0.0000000
0.0060260    -0.9972107  -0.0000588   0.0002700  -0.0001291   0.0000000   0.0000000   0.0000000   0.0000000
0.0061001    -0.9972454   0.0000005   0.0002827  -0.0001267   0.0000000   0.0000000   0.0000000   0.0000000
0.0061751    -0.9972947  -0.0000446   0.0002774  -0.0001407   0.0000000   0.0000000   0.0000000   0.0000000
0.0062510    -0.9972343  -0.0000281   0.0002804  -0.0001227   0.0000000   0.0000000   0.0000000   0.0000000
0.0063279    -0.9970862  -0.0001243   0.0002892  -0.0001344   0.0000000   0.0000000   0.0000000   0.0000000
0.0064056    -0.9969791  -0.0000203   0.0002788  -0.0001273   0.0000000   0.0000000   0.0000000   0.0000000
0.0064844    -0.9970990  -0.0000798   0.0002644  -0.0001480   0.0000000   0.0000000   0.0000000   0.0000000
0.0065641    -0.9971843  -0.0000052   0.0002856  -0.0001253   0.0000000   0.0000000   0.0000000   0.0000000
0.0066448    -0.9971926   0.0000417   0.0002752  -0.0001199   0.0000000   0.0000000   0.0000000   0.0000000
0.0067265    -0.9971221   0.0000291   0.0002743  -0.0001289   0.0000000   0.0000000   0.0000000   0.0000000
0.0068092    -0.9971235  -0.0000570   0.0002681  -0.0001209   0.0000000   0.0000000   0.0000000   0.0000000
0.0068929    -0.9971167   0.0001544   0.0002656  -0.0001353   0.0000000   0.0000000   0.0000000   0.0000000
0.0069776    -0.9970456   0.0000880   0.0002542  -0.0001310   0.0000000   0.0000000   0.0000000   0.0000000
0.0070634    -0.9970708   0.0001466   0.0002653  -0.0001186   0.0000000   0.0000000   0.0000000   0.0000000
0.0071502    -0.9971562   0.0000228   0.0002501  -0.0001310   0.0000000   0.0000000   0.0000000   0.0000000
0.0072381    -0.9972740  -0.0000119   0.0002566  -0.0001476   0.0000000   0.0000000   0.0000000   0.0000000
0.0073271    -0.9971588   0.0000289   0.0002579  -0.0001130   0.0000000   0.0000000   0.0000000   0.0000000
0.0074172    -0.9971154  -0.0000178   0.0002538  -0.0001339   0.0000000   0.0000000   0.0000000   0.0000000
0.0075084    -0.9970629   0.0000724   0.0002581  -0.0001404   0.0000000   0.0000000   0.0000000   0.0000000
0.0076007    -0.9971917   0.0001642   0.0002531  -0.0001309   0.0000000   0.0000000   0.0000000   0.0000000
0.0076941    -0.9971457   0.0000859   0.0002530  -0.0001426   0.0000000   0.0000000   0.0000000   0.0000000
0.0077887    -0.9970720  -0.0001159   0.0002452  -0.0001362   0.0000000   0.0000000   0.0000000   0.0000000
0.0078844    -0.9971282   0.0000360   0.0002429  -0.0001485   0.0000000   0.0000000   0.0000000   0.0000000
0.0079814    -0.9974160   0.0001029   0.0002209  -0.0001550   0.0000000   0.0000000   0.0000000   0.0000000
0.0080795    -0.9971264   0.0001453   0.0002658  -0.0001390   0.0000000   0.0000000   0.0000000   0.0000000
0.0081788    -0.9971061  -0.0000848   0.0002440  -0.0001490   0.0000000   0.0000000   0.0000000   0.0000000
0.0082793    -0.9972779   0.0001050   0.0002513  -0.0001333   0.0000000   0.0000000   0.0000000   0.0000000
0.0083811    -0.9972002   0.0000584   0.0002427  -0.0001657   0.0000000   0.0000000   0.0000000   0.0000000
0.0084842    -0.9969759   0.0000408   0.0002429  -0.0001340   0.0000000   0.0000000   0.0000000   0.0000000
0.0085885    -0.9971693  -0.0000869   0.0002637  -0.0001794   0.0000000   0.0000000   0.0000000   0.0000000
0.0086940    -0.9970857  -0.0000863   0.0002386  -0.0001611   0.0000000   0.0000000   0.0000000   0.0000000
0.0088009    -0.9970356  -0.0000921   0.0002374  -0.0001497   0.0000000   0.0000000   0.0000000   0.0000000
0.0089091    -0.9970921   0.0000437   0.0002271  -0.0001570   0.0000000   0.0000000   0.0000000   0.0000000
0.0090186    -0.9971532   0.0000912   0.0002383  -0.0001591   0.0000000   0.0000000   0.0000000   0.0000000
0.0091295    -0.9972034   0.0000381   0.0002123  -0.0001539   0.0000000   0.0000000   0.0000000   0.0000000
0.0092417    -0.9972452   0.0000497   0.0002270  -0.0001552   0.0000000   0.0000000   0.0000000   0.0000000
0.0093553    -0.9972900   0.0000434   0.0002223  -0.0001528   0.0000000   0.0000000   0.0000000   0.0000000
0.0094703    -0.9971713   0.0000134   0.0002219  -0.0001576   0.0000000   0.0000000   0.0000000   0.0000000
0.0095868    -0.9971777  -0.0001258   0.0002348  -0.0001700   0.0000000   0.0000000   0.0000000   0.0000000
0.0097046    -0.9970761   0.0001698   0.0002034  -0.0001524   0.0000000   0.0000000   0.0000000   0.0000000
0.0098239    -0.9970656   0.0000705   0.0002217  -0.0001631   0.0000000   0.0000000   0.0000000   0.0000000
0.0099447    -0.9970570   0.0000220   0.0002121  -0.0001522   0.0000000   0.0000000   0.0000000   0.0000000
0.0100669    -0.9971764   0.0002732   0.0002082  -0.0001687   0.0000000   0.0000000   0.0000000   0.0000000
0.0101907    -0.9970103   0.0000223   0.0002061  -0.0001669   0.0000000   0.0000000   0.0000000   0.0000000
0.0103160    -0.9971082   0.0001318   0.0002125  -0.0001594   0.0000000   0.0000000   0.0000000   0.0000000
0.0104428    -0.9969928   0.0000756   0.0001890  -0.0001574   0.0000000   0.0000000   0.0000000   0.0000000
0.0105712    -0.9971869   0.0000966   0.0002085  -0.0001598   0.0000000   0.0000000   0.0000000   0.0000000
0.0107011    -0.9971495   0.0001360   0.0001981  -0.0001527   0.0000000   0.0000000   0.0000000   0.0000000
0.0108327    -0.9970619   0.0000853   0.0001984  -0.0001629   0.0000000   0.0000000   0.0000000   0.0000000
0.0109658    -0.9970594   0.0000905   0.0001994  -0.0001716   0.0000000   0.0000000   0.0000000   0.0000000
0.0111006    -0.9969729   0.0000121   0.0002042  -0.0001462   0.0000000   0.0000000   0.0000000   0.0000000
0.0112371    -0.9971158   0.0000236   0.0001929  -0.0001737   0.0000000   0.0000000   0.0000000   0.0000000
0.0113752    -0.9971965   0.0001292   0.0001973  -0.0001750   0.0000000   0.0000000   0.0000000   0.0000000
0.0115151    -0.9969427   0.0002372   0.0001866  -0.0001684   0.0000000   0.0000000   0.0000000   0.0000000
0.0116566    -0.9972861   0.0001635   0.0001935  -0.0001565   0.0000000   0.0000000   0.0000000   0.0000000
0.0117999    -0.9970871   0.0001713   0.0001863  -0.0001620   0.0000000   0.0000000   0.0000000   0.0000000
0.0119450    -0.9993216   0.0014147   0.0001957  -0.0001780   0.0000000   0.0000000   0.0000000   0.0000000
0.0120918    -0.9969907   0.0000917   0.0001856  -0.0001406   0.0000000   0.0000000   0.0000000   0.0000000
0.0122405    -0.9971502   0.0002084   0.0001872  -0.0001655   0.0000000   0.0000000   0.0000000   0.0000000
0.0123910    -0.9969735  -0.0000090   0.0001701  -0.0001592   0.0000000   0.0000000   0.0000000   0.0000000
0.0125433    -0.9971120   0.0000681   0.0001811  -0.0001543   0.0000000   0.0000000   0.0000000   0.0000000
0.0126975    -0.9970734  -0.0000729   0.0001562  -0.0001678   0.0000000   0.0000000   0.0000000   0.0000000
0.0128536    -0.9969776   0.0001663   0.0001819  -0.0001697   0.0000000   0.0000000   0.0000000   0.0000000
0.0130116    -0.9971572   0.0001416   0.0001742  -0.0001634   0.0000000   0.0000000   0.0000000   0.0000000
0.0131716    -0.9970612   0.0001313   0.0001523  -0.0001440   0.0000000   0.0000000   0.0000000   0.0000000
0.0133335    -0.9970398   0.0001303   0.0001790  -0.0001648   0.0000000   0.0000000   0.0000000   0.0000000
0.0134974    -0.9971085   0.0001314   0.0001594  -0.0001739   0.0000000   0.0000000   0.0000000   0.0000000
0.0136633    -0.9970369   0.0002959   0.0001638  -0.0001641   0.0000000   0.0000000   0.0000000   0.0000000
0.0138313    -0.9969880  -0.0000276   0.0001546  -0.0001510   0.0000000   0.0000000   0.0000000   0.0000000
0.0140013    -0.9970676   0.0000829   0.0001650  -0.0001522   0.0000000   0.0000000   0.0000000   0.0000000
0.0141734    -0.9970324   0.0002025   0.0001647  -0.0001630   0.0000000   0.0000000   0.0000000   0.0000000
0.0143477    -0.9969237   0.0001281   0.0001672  -0.0001523   0.0000000   0.0000000   0.0000000   0.0000000
0.0145240    -0.9970748   0.0000213   0.0001794  -0.0001569   0.0000000   0.0000000   0.0000000   0.0000000
0.0147026    -0.9971145   0.0002084   0.0001469  -0.0001475   0.0000000   0.0000000   0.0000000   0.0000000
0.0148833    -0.9971363   0.0000485   0.0001252  -0.0001732   0.0000000   0.0000000   0.0000000   0.0000000
0.0150663    -0.9970728   0.0001529   0.0001536  -0.0001654   0.0000000   0.0000000   0.0000000   0.0000000
0.0152515    -0.9969753   0.0000839   0.0001550  -0.0001372   0.0000000   0.0000000   0.0000000   0.0000000
0.0154390    -0.9970911   0.0001448   0.0001541  -0.0001443   0.0000000   0.0000000   0.0000000   0.0000000
0.0156288    -0.9969479   0.0000100   0.0001385  -0.0001548   0.0000000   0.0000000   0.0000000   0.0000000
0.0158209    -0.9970684   0.0000198   0.0001492  -0.0001536   0.0000000   0.0000000   0.0000000   0.0000000
0.0160154    -0.9970324   0.0001873   0.0001655  -0.0001594   0.0000000   0.0000000   0.0000000   0.0000000
0.0162123    -0.9969618   0.0000399   0.0001396  -0.0001582   0.0000000   0.0000000   0.0000000   0.0000000
0.0164116    -0.9970784   0.0002850   0.0001360  -0.0001610   0.0000000   0.0000000   0.0000000   0.0000000
0.0166134    -0.9969910   0.0000955   0.0001325  -0.0001476   0.0000000   0.0000000   0.0000000   0.0000000
0.0168176    -0.9970966   0.0000895   0.0001123  -0.0001523   0.0000000   0.0000000   0.0000000   0.0000000
0.0170243    -0.9970352   0.0001669   0.0001404  -0.0001537   0.0000000   0.0000000   0.0000000   0.0000000
0.0172336    -0.9969905   0.0001268   0.0001420  -0.0001450   0.0000000   0.0000000   0.0000000   0.0000000
0.0174455    -0.9971055   0.0000030   0.0001294  -0.0001576   0.0000000   0.0000000   0.0000000   0.0000000
0.0176599    -0.9970589   0.0000469   0.0001270  -0.0001412   0.0000000   0.0000000   0.0000000   0.0000000
0.0178770    -0.9971372   0.0001757   0.0001276  -0.0001436   0.0000000   0.0000000   0.0000000   0.0000000
0.0180968    -0.9970715   0.0000671   0.0000997  -0.0001490   0.0000000   0.0000000   0.0000000   0.0000000
0.0183193    -0.9969360   0.0000390   0.0001103  -0.0001433   0.0000000   0.0000000   0.0000000   0.0000000
0.0185445    -0.9970524   0.0000358   0.0001229  -0.0001488   0.0000000   0.0000000   0.0000000   0.0000000
0.0187724    -0.9969391   0.0001358   0.0001321  -0.0001328   0.0000000   0.0000000   0.0000000   0.0000000
0.0190032    -0.9970112   0.0001424   0.0001022  -0.0001461   0.0000000   0.0000000   0.0000000   0.0000000
0.0192368    -0.9970864   0.0002507   0.0001025  -0.0001354   0.0000000   0.0000000   0.0000000   0.0000000
0.0194733    -0.9969759   0.0000856   0.0001040  -0.0001421   0.0000000   0.0000000   0.0000000   0.0000000
0.0197127    -0.9970109  -0.0000223   0.0001181  -0.0001440   0.0000000   0.0000000   0.0000000   0.0000000
0.0199550    -0.9970420   0.0001428   0.0001233  -0.0001364   0.0000000   0.0000000   0.0000000   0.0000000
0.0202003    -0.9969883  -0.0000322   0.0001076  -0.0001554   0.0000000   0.0000000   0.0000000   0.0000000
0.0204487    -0.9969936   0.0000705   0.0001007  -0.0001548   0.0000000   0.0000000   0.0000000   0.0000000
0.0207001    -0.9969300   0.0002085   0.0000809  -0.0001456   0.0000000   0.0000000   0.0000000   0.0000000
0.0209545    -0.9969245   0.0001274   0.0000938  -0.0001385   0.0000000   0.0000000   0.0000000   0.0000000
0.0212121    -0.9969906   0.0002383   0.0000826  -0.0001401   0.0000000   0.0000000   0.0000000   0.0000000
0.0214729    -0.9971342   0.0002121   0.0000969  -0.0001587   0.0000000   0.0000000   0.0000000   0.0000000
0.0217369    -0.9969691   0.0001608   0.0000920  -0.0001365   0.0000000   0.0000000   0.0000000   0.0000000
0.0220041    -0.9970185   0.0000884   0.0000829  -0.0001290   0.0000000   0.0000000   0.0000000   0.0000000
0.0222746    -0.9970899   0.0000394   0.0000856  -0.0001329   0.0000000   0.0000000   0.0000000   0.0000000
0.0225484    -0.9968934   0.0000216   0.0000877  -0.0001347   0.0000000   0.0000000   0.0000000   0.0000000
0.0228256    -0.9970262   0.0000687   0.0000944  -0.0001276   0.0000000   0.0000000   0.0000000   0.0000000
0.0231062    -0.9969676   0.0001373   0.0000740  -0.0001466   0.0000000   0.0000000   0.0000000   0.0000000
0.0233902    -0.9970411   0.0001760   0.0000808  -0.0001202   0.0000000   0.0000000   0.0000000   0.0000000
0.0236778    -0.9969131   0.0000166   0.0000826  -0.0001321   0.0000000   0.0000000   0.0000000   0.0000000
0.0239689    -0.9990447  -0.0004407   0.0000961  -0.0001338   0.0000000   0.0000000   0.0000000   0.0000000
0.0242635    -0.9970218   0.0001015   0.0000942  -0.0001238   0.0000000   0.0000000   0.0000000   0.0000000
0.0245618    -0.9969676   0.0001571   0.0000898  -0.0001178   0.0000000   0.0000000   0.0000000   0.0000000
0.0248637    -0.9970044   0.0001113   0.0000886  -0.0001197   0.0000000   0.0000000   0.0000000   0.0000000
0.0251694    -0.9970838   0.0001091   0.0000947  -0.0001171   0.0000000   0.0000000   0.0000000   0.0000000
0.0254788    -0.9968667   0.0001652   0.0000829  -0.0001465   0.0000000   0.0000000   0.0000000   0.0000000
0.0257920    -0.9968927   0.0001690   0.0000797  -0.0001247   0.0000000   0.0000000   0.0000000   0.0000000
0.0261091    -0.9970135   0.0000473   0.0000815  -0.0001124   0.0000000   0.0000000   0.0000000   0.0000000
0.0264301    -0.9969481   0.0000719   0.0000620  -0.0001187   0.0000000   0.0000000   0.0000000   0.0000000
0.0267550    -0.9969305   0.0000073   0.0000542  -0.0001263   0.0000000   0.0000000   0.0000000   0.0000000
0.0270839    -0.9969271   0.0001053   0.0000662  -0.0001212   0.0000000   0.0000000   0.0000000   0.0000000
0.0274168    -0.9969165   0.0000339   0.0000854  -0.0000958   0.0000000   0.0000000   0.0000000   0.0000000
0.0277539    -0.9970208   0.0001691   0.0000743  -0.0001039   0.0000000   0.0000000   0.0000000   0.0000000
0.0280951    -0.9969840  -0.0000168   0.0000834  -0.0001368   0.0000000   0.0000000   0.0000000   0.0000000
0.0284404    -0.9968585   0.0000687   0.0000751  -0.0001377   0.0000000   0.0000000   0.0000000   0.0000000
0.0287901    -0.9969377   0.0000421   0.0000823  -0.0001092   0.0000000   0.0000000   0.0000000   0.0000000
0.0291440    -0.9968880   0.0001635   0.0000624  -0.0001131   0.0000000   0.0000000   0.0000000   0.0000000
0.0295023    -0.9968980   0.0001179   0.0000653  -0.0001260   0.0000000   0.0000000   0.0000000   0.0000000
0.0298649    -0.9969606   0.0001271   0.0000623  -0.0001038   0.0000000   0.0000000   0.0000000   0.0000000
0.0302321    -0.9970045   0.0002041   0.0000738  -0.0001093   0.0000000   0.0000000   0.0000000   0.0000000
0.0306037    -0.9970265   0.0000852   0.0000585  -0.0001069   0.0000000   0.0000000   0.0000000   0.0000000
0.0309799    -0.9969468   0.0000227   0.0000557  -0.0001327   0.0000000   0.0000000   0.0000000   0.0000000
0.0313608    -0.9969696   0.0000933   0.0000640  -0.0001197   0.0000000   0.0000000   0.0000000   0.0000000
0.0317463    -0.9969120   0.0000867   0.0000576  -0.0000979   0.0000000   0.0000000   0.0000000   0.0000000
0.0321366    -0.9969267   0.0001282   0.0000583  -0.0001194   0.0000000   0.0000000   0.0000000   0.0000000
0.0325316    -0.9970494   0.0001368   0.0000603  -0.0000922   0.0000000   0.0000000   0.0000000   0.0000000
0.0329316    -0.9968826   0.0001106   0.0000609  -0.0000946   0.0000000   0.0000000   0.0000000   0.0000000
0.0333364    -0.9969830   0.0000809   0.0000664  -0.0001065   0.0000000   0.0000000   0.0000000   0.0000000
0.0337462    -0.9969937  -0.0000013   0.0000531  -0.0000890   0.0000000   0.0000000   0.0000000   0.0000000
0.0341610    -0.9969769   0.0001228   0.0000563  -0.0001117   0.0000000   0.0000000   0.0000000   0.0000000
0.0345810    -0.9970499  -0.0000758   0.0000521  -0.0001075   0.0000000   0.0000000   0.0000000   0.0000000
0.0350061    -0.9968908   0.0001647   0.0000329  -0.0000912   0.0000000   0.0000000   0.0000000   0.0000000
0.0354365    -0.9969907   0.0000575   0.0000500  -0.0000974   0.0000000   0.0000000   0.0000000   0.0000000
0.0358721    -0.9968475   0.0000438   0.0000352  -0.0001087   0.0000000   0.0000000   0.0000000   0.0000000
0.0363131    -0.9969107  -0.0000454   0.0000745  -0.0001008   0.0000000   0.0000000   0.0000000   0.0000000
0.0367595    -0.9968339   0.0000483   0.0000374  -0.0001009   0.0000000   0.0000000   0.0000000   0.0000000
0.0372114    -0.9968989   0.0000883   0.0000542  -0.0000966   0.0000000   0.0000000   0.0000000   0.0000000
0.0376688    -0.9969792   0.0001995   0.0000443  -0.0001081   0.0000000   0.0000000   0.0000000   0.0000000
0.0381319    -0.9969777   0.0000063   0.0000508  -0.0000806   0.0000000   0.0000000   0.0000000   0.0000000
0.0386006    -0.9969527  -0.0000331   0.0000497  -0.0000898   0.0000000   0.0000000   0.0000000   0.0000000
0.0390752    -0.9969460   0.0002129   0.0000499  -0.0000917   0.0000000   0.0000000   0.0000000   0.0000000
0.0395555    -0.9969118   0.0001697   0.0000517  -0.0000774   0.0000000   0.0000000   0.0000000   0.0000000
0.0400418    -0.9969614  -0.0000305   0.0000632  -0.0000773   0.0000000   0.0000000   0.0000000   0.0000000
0.0405340    -0.9969640   0.0000692   0.0000439  -0.0000862   0.0000000   0.0000000   0.0000000   0.0000000
0.0410323    -0.9969081  -0.0000012   0.0000499  -0.0000813   0.0000000   0.0000000   0.0000000   0.0000000
0.0415368    -0.9969558  -0.0000159   0.0000318  -0.0001028   0.0000000   0.0000000   0.0000000   0.0000000
0.0420474    -0.9969214  -0.0000058   0.0000476  -0.0000925   0.0000000   0.0000000   0.0000000   0.0000000
0.0425643    -0.9968853   0.0000287   0.0000491  -0.0000909   0.0000000   0.0000000   0.0000000   0.0000000
0.0430875    -0.9968879   0.0000047   0.0000363  -0.0000820   0.0000000   0.0000000   0.0000000   0.0000000
0.0436172    -0.9969101  -0.0000625   0.0000519  -0.0000834   0.0000000   0.0000000   0.0000000   0.0000000
0.0441534    -0.9970133   0.0000801   0.0000466  -0.0000717   0.0000000   0.0000000   0.0000000   0.0000000
0.0446962    -0.9970378   0.0000320   0.0000246  -0.0000717   0.0000000   0.0000000   0.0000000   0.0000000
0.0452457    -0.9969940   0.0000568   0.0000320  -0.0000607   0.0000000   0.0000000   0.0000000   0.0000000
0.0458019    -0.9968870  -0.0000494   0.0000441  -0.0000844   0.0000000   0.0000000   0.0000000   0.0000000
0.0463649    -0.9970062   0.0000741   0.0000363  -0.0000883   0.0000000   0.0000000   0.0000000   0.0000000
0.0469349    -0.9969654   0.0000745   0.0000407  -0.0000753   0.0000000   0.0000000   0.0000000   0.0000000
0.0475119    -0.9968226  -0.0000159   0.0000174  -0.0000794   0.0000000   0.0000000   0.0000000   0.0000000
0.0480960    -0.9970308   0.0000800   0.0000240  -0.0000681   0.0000000   0.0000000   0.0000000   0.0000000
0.0486872    -0.9969171   0.0000631   0.0000404  -0.0000858   0.0000000   0.0000000   0.0000000   0.0000000
0.0492857    -0.9968425   0.0000229   0.0000364  -0.0000750   0.0000000   0.0000000   0.0000000   0.0000000
0.0498916    -0.9969463   0.0001026   0.0000416  -0.0000753   0.0000000   0.0000000   0.0000000   0.0000000
0.0505050    -0.9968851   0.0000055   0.0000347  -0.0000736   0.0000000   0.0000000   0.0000000   0.0000000
0.0511258    -0.9969082   0.0000762   0.0000416  -0.0000846   0.0000000   0.0000000   0.0000000   0.0000000
0.0517543    -0.9968858  -0.0000645   0.0000213  -0.0000689   0.0000000   0.0000000   0.0000000   0.0000000
0.0523906    -0.9969890   0.0000635   0.0000303  -0.0000807   0.0000000   0.0000000   0.0000000   0.0000000
0.0530346    -0.9968849  -0.0000075   0.0000339  -0.0000733   0.0000000   0.0000000   0.0000000   0.0000000
0.0536866    -0.9969020   0.0000318   0.0000247  -0.0000762   0.0000000   0.0000000   0.0000000   0.0000000
0.0543466    -0.9969056  -0.0000392   0.0000357  -0.0000729   0.0000000   0.0000000   0.0000000   0.0000000
0.0550146    -0.9969868  -0.0000651   0.0000318  -0.0000707   0.0000000   0.0000000   0.0000000   0.0000000
0.0556910    -0.9969397  -0.0000540   0.0000374  -0.0000736   0.0000000   0.0000000   0.0000000   0.0000000
0.0563756    -0.9970349  -0.0000592   0.0000324  -0.0000755   0.0000000   0.0000000   0.0000000   0.0000000
0.0570686    -0.9968609  -0.0000061   0.0000434  -0.0000705   0.0000000   0.0000000   0.0000000   0.0000000
0.0577702    -0.9968724  -0.0000653   0.0000350  -0.0000755   0.0000000   0.0000000   0.0000000   0.0000000
0.0584804    -0.9969963  -0.0000556   0.0000348  -0.0000632   0.0000000   0.0000000   0.0000000   0.0000000
0.0591993    -0.9969998   0.0000144   0.0000198  -0.0000689   0.0000000   0.0000000   0.0000000   0.0000000
0.0599270    -0.9970160  -0.0000036   0.0000299  -0.0000595   0.0000000   0.0000000   0.0000000   0.0000000
0.0606637    -0.9968840  -0.0000423   0.0000196  -0.0000732   0.0000000   0.0000000   0.0000000   0.0000000
0.0614095    -0.9970278  -0.0000035   0.0000364  -0.0000722   0.0000000   0.0000000   0.0000000   0.0000000
0.0621644    -0.9969219  -0.0000454   0.0000206  -0.0000578   0.0000000   0.0000000   0.0000000   0.0000000
0.0629286    -0.9969546   0.0000104   0.0000304  -0.0000652   0.0000000   0.0000000   0.0000000   0.0000000
0.0637022    -0.9969372  -0.0000752   0.0000057  -0.0000717   0.0000000   0.0000000   0.0000000   0.0000000
0.0644853    -0.9969666  -0.0001118   0.0000150  -0.0000619   0.0000000   0.0000000   0.0000000   0.0000000
0.0652780    -0.9969956   0.0000562   0.0000129  -0.0000703   0.0000000   0.0000000   0.0000000   0.0000000
0.0660805    -0.9969836   0.0000210   0.0000261  -0.0000638   0.0000000   0.0000000   0.0000000   0.0000000
0.0668928    -0.9969341   0.0000015   0.0000295  -0.0000642   0.0000000   0.0000000   0.0000000   0.0000000
0.0677152    -0.9968920  -0.0000524   0.0000344  -0.0000665   0.0000000   0.0000000   0.0000000   0.0000000
0.0685476    -0.9969786  -0.0000495   0.0000321  -0.0000498   0.0000000   0.0000000   0.0000000   0.0000000
0.0693903    -0.9969244   0.0000232   0.0000298  -0.0000389   0.0000000   0.0000000   0.0000000   0.0000000
0.0702433    -0.9969388  -0.0000064   0.0000387  -0.0000634   0.0000000   0.0000000   0.0000000   0.0000000
0.0711068    -0.9969598  -0.0000540   0.0000162  -0.0000563   0.0000000   0.0000000   0.0000000   0.0000000
0.0719810    -0.9969062  -0.0000629   0.0000274  -0.0000597   0.0000000   0.0000000   0.0000000   0.0000000
0.0728659    -0.9969680  -0.0000812   0.0000133  -0.0000498   0.0000000   0.0000000   0.0000000   0.0000000
0.0737616    -0.9970146  -0.0000184   0.0000128  -0.0000427   0.0000000   0.0000000   0.0000000   0.0000000
0.0746684    -0.9969757  -0.0000847   0.0000234  -0.0000422   0.0000000   0.0000000   0.0000000   0.0000000
0.0755863    -0.9969008  -0.0001196   0.0000123  -0.0000467   0.0000000   0.0000000   0.0000000   0.0000000
0.0765155    -0.9969381   0.0000441   0.0000192  -0.0000464   0.0000000   0.0000000   0.0000000   0.0000000
0.0774561    -0.9968788  -0.0000090   0.0000273  -0.0000568   0.0000000   0.0000000   0.0000000   0.0000000
0.0784083    -0.9968921  -0.0000017   0.0000268  -0.0000548   0.0000000   0.0000000   0.0000000   0.0000000
0.0793722    -0.9969626   0.0000002   0.0000201  -0.0000531   0.0000000   0.0000000   0.0000000   0.0000000
0.0803479    -0.9968630  -0.0000258   0.0000108  -0.0000551   0.0000000   0.0000000   0.0000000   0.0000000
0.0813357    -0.9968533  -0.0000345   0.0000289  -0.0000532   0.0000000   0.0000000   0.0000000   0.0000000
0.0823356    -0.9968375  -0.0000831   0.0000222  -0.0000443   0.0000000   0.0000000   0.0000000   0.0000000
0.0833477    -0.9968333  -0.0001025   0.0000063  -0.0000386   0.0000000   0.0000000   0.0000000   0.0000000
0.0843723    -0.9969746  -0.0000469   0.0000300  -0.0000342   0.0000000   0.0000000   0.0000000   0.0000000
0.0854095    -0.9967821  -0.0000437   0.0000217  -0.0000480   0.0000000   0.0000000   0.0000000   0.0000000
0.0864595    -0.9967841  -0.0000570   0.0000197  -0.0000356   0.0000000   0.0000000   0.0000000   0.0000000
0.0875224    -0.9968280  -0.0000594   0.0000112  -0.0000451   0.0000000   0.0000000   0.0000000   0.0000000
0.0885983    -0.9968887  -0.0000240   0.0000322  -0.0000398   0.0000000   0.0000000   0.0000000   0.0000000
0.0896875    -0.9968341  -0.0000672   0.0000307  -0.0000253   0.0000000   0.0000000   0.0000000   0.0000000
0.0907900    -0.9968816   0.0000259   0.0000030  -0.0000427   0.0000000   0.0000000   0.0000000   0.0000000
0.0919061    -0.9968395  -0.0001644   0.0000376  -0.0000272   0.0000000   0.0000000   0.0000000   0.0000000
0.0930359    -0.9967066  -0.0000171   0.0000202  -0.0000606   0.0000000   0.0000000   0.0000000   0.0000000
0.0941797    -0.9968335  -0.0000940   0.0000302  -0.0000510   0.0000000   0.0000000   0.0000000   0.0000000
0.0953374    -0.9969017  -0.0000807   0.0000181  -0.0000456   0.0000000   0.0000000   0.0000000   0.0000000
0.0965094    -0.9968209  -0.0001224   0.0000167  -0.0000442   0.0000000   0.0000000   0.0000000   0.0000000
0.0976959    -0.9969524  -0.0001249   0.0000196  -0.0000348   0.0000000   0.0000000   0.0000000   0.0000000
0.0988969    -0.9969558  -0.0002385   0.0000176  -0.0000451   0.0000000   0.0000000   0.0000000   0.0000000
0.1001126    -0.9968618  -0.0001874   0.0000228  -0.0000261   0.0000000   0.0000000   0.0000000   0.0000000
0.1013433    -0.9968662  -0.0002062   0.0000322  -0.0000225   0.0000000   0.0000000   0.0000000   0.0000000
0.1025892    -0.9968868  -0.0002644   0.0000348  -0.0000430   0.0000000   0.0000000   0.0000000   0.0000000
0.1038503    -0.9969000  -0.0002467   0.0000033  -0.0000374   0.0000000   0.0000000   0.0000000   0.0000000
0.1051270    -0.9969451  -0.0000958   0.0000204  -0.0000361   0.0000000   0.0000000   0.0000000   0.0000000
0.1064193    -0.9969666  -0.0003483   0.0000293  -0.0000332   0.0000000   0.0000000   0.0000000   0.0000000
0.1077276    -0.9968997  -0.0002586   0.0000189  -0.0000459   0.0000000   0.0000000   0.0000000   0.0000000
0.1090519    -0.9969224  -0.0001511   0.0000060  -0.0000424   0.0000000   0.0000000   0.0000000   0.0000000
0.1103925    -0.9969487  -0.0002622   0.0000236  -0.0000203   0.0000000   0.0000000   0.0000000   0.0000000
0.1117496    -0.9969796  -0.0002652   0.0000110  -0.0000385   0.0000000   0.0000000   0.0000000   0.0000000
0.1131233    -0.9969835  -0.0001866   0.0000201  -0.0000406   0.0000000   0.0000000   0.0000000   0.0000000
0.1145140    -0.9969267  -0.0002526   0.0000215  -0.0000503   0.0000000   0.0000000   0.0000000   0.0000000
0.1159217    -0.9969449  -0.0001799   0.0000171  -0.0000409   0.0000000   0.0000000   0.0000000   0.0000000
0.1173468    -0.9970098  -0.0001563   0.0000129  -0.0000386   0.0000000   0.0000000   0.0000000   0.0000000
0.1187893    -0.9969691  -0.0001536   0.0000177  -0.0000466   0.0000000   0.0000000   0.0000000   0.0000000
0.1202497    -0.9970744  -0.0002176   0.0000144  -0.0000264   0.0000000   0.0000000   0.0000000   0.0000000
0.1217279    -0.9969744  -0.0001848   0.0000049  -0.0000256   0.0000000   0.0000000   0.0000000   0.0000000
0.1232243    -0.9969408  -0.0002071   0.0000099  -0.0000276   0.0000000   0.0000000   0.0000000   0.0000000
0.1247392    -0.9969099  -0.0002289   0.0000146  -0.0000248   0.0000000   0.0000000   0.0000000   0.0000000
0.1262726    -0.9970070  -0.0001999   0.0000102  -0.0000367   0.0000000   0.0000000   0.0000000   0.0000000
0.1278249    -0.9969198  -0.0001582   0.0000202  -0.0000399   0.0000000   0.0000000   0.0000000   0.0000000
0.1293963    -0.9969037  -0.0002631   0.0000195  -0.0000214   0.0000000   0.0000000   0.0000000   0.0000000
0.1309870    -0.9969379  -0.0002427   0.0000284  -0.0000199   0.0000000   0.0000000   0.0000000   0.0000000
0.1325973    -0.9969665  -0.0002762   0.0000084  -0.0000331   0.0000000   0.0000000   0.0000000   0.0000000
0.1342273    -0.9970223  -0.0001471   0.0000131  -0.0000399   0.0000000   0.0000000   0.0000000   0.0000000
0.1358774    -0.9969591  -0.0001413   0.0000058  -0.0000339   0.0000000   0.0000000   0.0000000   0.0000000
0.1375478    -0.9968997  -0.0002399   0.0000082  -0.0000228   0.0000000   0.0000000   0.0000000   0.0000000
0.1392387    -0.9969160  -0.0001046   0.0000211  -0.0000377   0.0000000   0.0000000   0.0000000   0.0000000
0.1409504    -0.9969959  -0.0001443   0.0000116  -0.0000237   0.0000000   0.0000000   0.0000000   0.0000000
0.1426831    -0.9969748  -0.0002259   0.0000262  -0.0000242   0.0000000   0.0000000   0.0000000   0.0000000
0.1444371    -0.9968979  -0.0002013   0.0000139  -0.0000284   0.0000000   0.0000000   0.0000000   0.0000000
0.1462127    -0.9969629  -0.0002117   0.0000150   0.0000004   0.0000000   0.0000000   0.0000000   0.0000000
0.1480102    -0.9969478  -0.0001785   0.0000319  -0.0000257   0.0000000   0.0000000   0.0000000   0.0000000
0.1498297    -0.9968797  -0.0002486   0.0000182  -0.0000241   0.0000000   0.0000000   0.0000000   0.0000000
0.1516716    -0.9968757  -0.0001861   0.0000020  -0.0000216   0.0000000   0.0000000   0.0000000   0.0000000
0.1535361    -0.9969451  -0.0002482   0.0000100  -0.0000253   0.0000000   0.0000000   0.0000000   0.0000000
0.1554236    -0.9968733  -0.0002192   0.0000142  -0.0000215   0.0000000   0.0000000   0.0000000   0.0000000
0.1573342    -0.9969415  -0.0002251   0.0000045  -0.0000253   0.0000000   0.0000000   0.0000000   0.0000000
0.1592684    -0.9968392  -0.0003088   0.0000155  -0.0000367   0.0000000   0.0000000   0.0000000   0.0000000
0.1612263    -0.9969918  -0.0002288   0.0000153  -0.0000356   0.0000000   0.0000000   0.0000000   0.0000000
0.1632083    -0.9969416  -0.0001778   0.0000211  -0.0000380   0.0000000   0.0000000   0.0000000   0.0000000
0.1652147    -0.9968900  -0.0002283  -0.0000022  -0.0000257   0.0000000   0.0000000   0.0000000   0.0000000
0.1672457    -0.9970036  -0.0002146   0.0000136  -0.0000228   0.0000000   0.0000000   0.0000000   0.0000000
0.1693017    -0.9968971  -0.0002884   0.0000076  -0.0000315   0.0000000   0.0000000   0.0000000   0.0000000
0.1713829    -0.9969556  -0.0003510   0.0000113  -0.0000216   0.0000000   0.0000000   0.0000000   0.0000000
0.1734898    -0.9969415  -0.0002434   0.0000085  -0.0000350   0.0000000   0.0000000   0.0000000   0.0000000
0.1756225    -0.9968670  -0.0002312   0.0000000  -0.0000204   0.0000000   0.0000000   0.0000000   0.0000000
0.1777815    -0.9970087  -0.0003385   0.0000167  -0.0000097   0.0000000   0.0000000   0.0000000   0.0000000
0.1799670    -0.9970227  -0.0003021   0.0000147  -0.0000208   0.0000000   0.0000000   0.0000000   0.0000000
0.1821794    -0.9969363  -0.0003387   0.0000172  -0.0000188   0.0000000   0.0000000   0.0000000   0.0000000
0.1844190    -0.9969590  -0.0003008  -0.0000022  -0.0000213   0.0000000   0.0000000   0.0000000   0.0000000
0.1866861    -0.9969235  -0.0002841   0.0000157  -0.0000299   0.0000000   0.0000000   0.0000000   0.0000000
0.1889811    -0.9968986  -0.0003623   0.0000159  -0.0000150   0.0000000   0.0000000   0.0000000   0.0000000
0.1913043    -0.9969228  -0.0003483   0.0000210  -0.0000097   0.0000000   0.0000000   0.0000000   0.0000000
0.1936560    -0.9969642  -0.0002861   0.0000027  -0.0000373   0.0000000   0.0000000   0.0000000   0.0000000
0.1960367    -0.9969064  -0.0003748   0.0000039  -0.0000152   0.0000000   0.0000000   0.0000000   0.0000000
0.1984466    -0.9968777  -0.0002377   0.0000031  -0.0000298   0.0000000   0.0000000   0.0000000   0.0000000
0.2008861    -0.9969058  -0.0003276   0.0000249  -0.0000366   0.0000000   0.0000000   0.0000000   0.0000000
0.2033557    -0.9969527  -0.0004265  -0.0000054  -0.0000235   0.0000000   0.0000000   0.0000000   0.0000000
0.2058556    -0.9968696  -0.0003031   0.0000260  -0.0000207   0.0000000   0.0000000   0.0000000   0.0000000
0.2083862    -0.9969943  -0.0003884   0.0000145  -0.0000260   0.0000000   0.0000000   0.0000000   0.0000000
0.2109480    -0.9968936  -0.0003229   0.0000263  -0.0000219   0.0000000   0.0000000   0.0000000   0.0000000
0.2135412    -0.9968733  -0.0003217   0.0000112  -0.0000165   0.0000000   0.0000000   0.0000000   0.0000000
0.2161663    -0.9969218  -0.0002874   0.0000040  -0.0000234   0.0000000   0.0000000   0.0000000   0.0000000
0.2188237    -0.9968700  -0.0004098   0.0000173  -0.0000094   0.0000000   0.0000000   0.0000000   0.0000000
0.2215137    -0.9969262  -0.0004900  -0.0000084  -0.0000191   0.0000000   0.0000000   0.0000000   0.0000000
0.2242369    -0.9968865  -0.0004103   0.0000277  -0.0000067   0.0000000   0.0000000   0.0000000   0.0000000
0.2269935    -0.9968143  -0.0004116  -0.0000028  -0.0000228   0.0000000   0.0000000   0.0000000   0.0000000
0.2297839    -0.9969664  -0.0004361  -0.0000068  -0.0000017   0.0000000   0.0000000   0.0000000   0.0000000
0.2326087    -0.9968850  -0.0005197   0.0000209  -0.0000135   0.0000000   0.0000000   0.0000000   0.0000000
0.2354682    -0.9969181  -0.0003137   0.0000056  -0.0000016   0.0000000   0.0000000   0.0000000   0.0000000
0.2383629    -0.9969679  -0.0003432  -0.0000019  -0.0000124   0.0000000   0.0000000   0.0000000   0.0000000
0.2412932    -0.9968672  -0.0004234   0.0000171  -0.0000053   0.0000000   0.0000000   0.0000000   0.0000000
0.2442594    -0.9969762  -0.0004266  -0.0000007  -0.0000119   0.0000000   0.0000000   0.0000000   0.0000000
0.2472622    -0.9969617  -0.0003588   0.0000092  -0.0000145   0.0000000   0.0000000   0.0000000   0.0000000
0.2503018    -0.9968221  -0.0004291   0.0000153  -0.0000160   0.0000000   0.0000000   0.0000000   0.0000000
0.2533788    -0.9969609  -0.0004730  -0.0000036  -0.0000171   0.0000000   0.0000000   0.0000000   0.0000000
0.2564937    -0.9967440  -0.0003649   0.0000121  -0.0000167   0.0000000   0.0000000   0.0000000   0.0000000
0.2596468    -0.9968547  -0.0003528   0.0000003  -0.0000074   0.0000000   0.0000000   0.0000000   0.0000000
0.2628387    -0.9969446  -0.0004555   0.0000086  -0.0000097   0.0000000   0.0000000   0.0000000   0.0000000
0.2660699    -0.9968962  -0.0005323   0.0000049  -0.0000230   0.0000000   0.0000000   0.0000000   0.0000000
0.2693407    -0.9969086  -0.0003494  -0.0000090  -0.0000146   0.0000000   0.0000000   0.0000000   0.0000000
0.2726518    -0.9968755  -0.0004956   0.0000161  -0.0000085   0.0000000   0.0000000   0.0000000   0.0000000
0.2760036    -0.9969539  -0.0003937   0.0000033  -0.0000061   0.0000000   0.0000000   0.0000000   0.0000000
0.2793966    -0.9969234  -0.0004469   0.0000263  -0.0000072   0.0000000   0.0000000   0.0000000   0.0000000
0.2828312    -0.9968621  -0.0004900   0.0000107  -0.0000044   0.0000000   0.0000000   0.0000000   0.0000000
0.2863082    -0.9969663  -0.0004901   0.0000083  -0.0000169   0.0000000   0.0000000   0.0000000   0.0000000
0.2898278    -0.9968454  -0.0005755   0.0000109   0.0000092   0.0000000   0.0000000   0.0000000   0.0000000
0.2933907    -0.9969434  -0.0005100   0.0000061  -0.0000167   0.0000000   0.0000000   0.0000000   0.0000000
0.2969975    -0.9969212  -0.0004957   0.0000073  -0.0000073   0.0000000   0.0000000   0.0000000   0.0000000
0.3006485    -0.9968883  -0.0006480   0.0000210  -0.0000107   0.0000000   0.0000000   0.0000000   0.0000000
0.3043445    -0.9969115  -0.0005457   0.0000150  -0.0000145   0.0000000   0.0000000   0.0000000   0.0000000
0.3080858    -0.9969060  -0.0006204   0.0000156  -0.0000069   0.0000000   0.0000000   0.0000000   0.0000000
0.3118732    -0.9968443  -0.0005691   0.0000074  -0.0000117   0.0000000   0.0000000   0.0000000   0.0000000
0.3157071    -0.9969459  -0.0005511   0.0000042   0.0000004   0.0000000   0.0000000   0.0000000   0.0000000
0.3195882    -0.9969247  -0.0005415  -0.0000057  -0.0000142   0.0000000   0.0000000   0.0000000   0.0000000
0.3235170    -0.9969323  -0.0005167   0.0000088  -0.0000141   0.0000000   0.0000000   0.0000000   0.0000000
0.3274941    -0.9969353  -0.0006129   0.0000035  -0.0000191   0.0000000   0.0000000   0.0000000   0.0000000
0.3315200    -0.9970237  -0.0005440   0.0000024  -0.0000044   0.0000000   0.0000000   0.0000000   0.0000000
0.3355955    -0.9968555  -0.0005998   0.0000185  -0.0000072   0.0000000   0.0000000   0.0000000   0.0000000
0.3397210    -0.9968708  -0.0006799   0.0000220  -0.0000069   0.0000000   0.0000000   0.0000000   0.0000000
0.3438973    -0.9969621  -0.0006323  -0.0000067  -0.0000245   0.0000000   0.0000000   0.0000000   0.0000000
0.3481249    -0.9969377  -0.0006341   0.0000050  -0.0000140   0.0000000   0.0000000   0.0000000   0.0000000
0.3524045    -0.9969067  -0.0005773   0.0000080  -0.0000033   0.0000000   0.0000000   0.0000000   0.0000000
0.3567367    -0.9968023  -0.0006783   0.0000073  -0.0000116   0.0000000   0.0000000   0.0000000   0.0000000
0.3611221    -0.9968773  -0.0007269  -0.0000120  -0.0000250   0.0000000   0.0000000   0.0000000   0.0000000
0.3655615    -0.9968462  -0.0006499   0.0000172   0.0000090   0.0000000   0.0000000   0.0000000   0.0000000
0.3700554    -0.9969075  -0.0007059   0.0000031  -0.0000170   0.0000000   0.0000000   0.0000000   0.0000000
0.3746046    -0.9968961  -0.0006670  -0.0000030  -0.0000173   0.0000000   0.0000000   0.0000000   0.0000000
0.3792097    -0.9969052  -0.0006315   0.0000196  -0.0000164   0.0000000   0.0000000   0.0000000   0.0000000
0.3838714    -0.9968497  -0.0007497  -0.0000087  -0.0000001   0.0000000   0.0000000   0.0000000   0.0000000
0.3885905    -0.9969229  -0.0006342   0.0000053  -0.0000116   0.0000000   0.0000000   0.0000000   0.0000000
0.3933675    -0.9969241  -0.0006774   0.0000033  -0.0000106   0.0000000   0.0000000   0.0000000   0.0000000
0.3982033    -0.9969065  -0.0007078   0.0000022  -0.0000113   0.0000000   0.0000000   0.0000000   0.0000000
0.4030985    -0.9968381  -0.0006723   0.0000071  -0.0000057   0.0000000   0.0000000   0.0000000   0.0000000
0.4080538    -0.9969108  -0.0007558   0.0000000  -0.0000015   0.0000000   0.0000000   0.0000000   0.0000000
0.4130701    -0.9969208  -0.0007388   0.0000042  -0.0000186   0.0000000   0.0000000   0.0000000   0.0000000
0.4181481    -0.9969874  -0.0007638   0.0000081  -0.0000072   0.0000000   0.0000000   0.0000000   0.0000000
0.4232885    -0.9969124  -0.0007619   0.0000104  -0.0000215   0.0000000   0.0000000   0.0000000   0.0000000
0.4284921    -0.9970186  -0.0008293   0.0000150  -0.0000004   0.0000000   0.0000000   0.0000000   0.0000000
0.4337597    -0.9968689  -0.0008721   0.0000088   0.0000099   0.0000000   0.0000000   0.0000000   0.0000000
0.4390920    -0.9969435  -0.0007757   0.0000181  -0.0000079   0.0000000   0.0000000   0.0000000   0.0000000
0.4444898    -0.9969082  -0.0006941   0.0000202  -0.0000123   0.0000000   0.0000000   0.0000000   0.0000000
0.4499541    -0.9968995  -0.0008295   0.0000065  -0.0000101   0.0000000   0.0000000   0.0000000   0.0000000
0.4554854    -0.9969306  -0.0007786   0.0000156  -0.0000079   0.0000000   0.0000000   0.0000000   0.0000000
0.4610848    -0.9969505  -0.0008208   0.0000174   0.0000002   0.0000000   0.0000000   0.0000000   0.0000000
0.4667531    -0.9969673  -0.0008272   0.0000060   0.0000003   0.0000000   0.0000000   0.0000000   0.0000000
0.4724910    -0.9969606  -0.0008695  -0.0000007  -0.0000074   0.0000000   0.0000000   0.0000000   0.0000000
0.4782994    -0.9969715  -0.0009028   0.0000163  -0.0000031   0.0000000   0.0000000   0.0000000   0.0000000
0.4841793    -0.9969207  -0.0008356   0.0000143  -0.0000114   0.0000000   0.0000000   0.0000000   0.0000000
0.4901314    -0.9969500  -0.0009498   0.0000113   0.0000085   0.0000000   0.0000000   0.0000000   0.0000000
0.4961567    -0.9968675  -0.0008981   0.0000033  -0.0000113   0.0000000   0.0000000   0.0000000   0.0000000
0.5022561    -0.9968123  -0.0008246  -0.0000035  -0.0000162   0.0000000   0.0000000   0.0000000   0.0000000
0.5084304    -0.9968371  -0.0009069   0.0000091  -0.0000013   0.0000000   0.0000000   0.0000000   0.0000000
0.5146807    -0.9969445  -0.0008561   0.0000006  -0.0000143   0.0000000   0.0000000   0.0000000   0.0000000
0.5210078    -0.9968777  -0.0008740  -0.0000019  -0.0000039   0.0000000   0.0000000   0.0000000   0.0000000
0.5274126    -0.9969601  -0.0009658   0.0000061  -0.0000131   0.0000000   0.0000000   0.0000000   0.0000000
0.5338963    -0.9968680  -0.0009243  -0.0000054  -0.0000060   0.0000000   0.0000000   0.0000000   0.0000000
0.5404596    -0.9968885  -0.0009717  -0.0000032   0.0000024   0.0000000   0.0000000   0.0000000   0.0000000
0.5471036    -0.9969100  -0.0010239   0.0000050  -0.0000106   0.0000000   0.0000000   0.0000000   0.0000000
0.5538292    -0.9969015  -0.0009777  -0.0000076  -0.0000143   0.0000000   0.0000000   0.0000000   0.0000000
0.5606376    -0.9968448  -0.0010396   0.0000201  -0.0000016   0.0000000   0.0000000   0.0000000   0.0000000
0.5675297    -0.9970485  -0.0011653   0.0000207  -0.0000166   0.0000000   0.0000000   0.0000000   0.0000000
0.5745064    -0.9968560  -0.0011259  -0.0000020   0.0000098   0.0000000   0.0000000   0.0000000   0.0000000
0.5815690    -0.9968449  -0.0009691  -0.0000020  -0.0000042   0.0000000   0.0000000   0.0000000   0.0000000
0.5887183    -0.9968548  -0.0011299   0.0000132   0.0000044   0.0000000   0.0000000   0.0000000   0.0000000
0.5959556    -0.9968753  -0.0009984  -0.0000003  -0.0000130   0.0000000   0.0000000   0.0000000   0.0000000
0.6032818    -0.9968965  -0.0011845   0.0000110  -0.0000134   0.0000000   0.0000000   0.0000000   0.0000000
0.6106981    -0.9968856  -0.0011790  -0.0000192  -0.0000084   0.0000000   0.0000000   0.0000000   0.0000000
0.6182056    -0.9966771  -0.0012091   0.0000140  -0.0000200   0.0000000   0.0000000   0.0000000   0.0000000
0.6258053    -0.9969420  -0.0011489  -0.0000053  -0.0000079   0.0000000   0.0000000   0.0000000   0.0000000
0.6334985    -0.9968404  -0.0011526  -0.0000100  -0.0000006   0.0000000   0.0000000   0.0000000   0.0000000
0.6412862    -0.9969213  -0.0012201   0.0000103  -0.0000020   0.0000000   0.0000000   0.0000000   0.0000000
0.6491697    -0.9967480  -0.0011954   0.0000020  -0.0000063   0.0000000   0.0000000   0.0000000   0.0000000
0.6571501    -0.9968531  -0.0012444   0.0000140  -0.0000224   0.0000000   0.0000000   0.0000000   0.0000000
0.6652286    -0.9968187  -0.0013321   0.0000031   0.0000118   0.0000000   0.0000000   0.0000000   0.0000000
0.6734064    -0.9967902  -0.0012672  -0.0000051   0.0000034   0.0000000   0.0000000   0.0000000   0.0000000
0.6816848    -0.9969334  -0.0014025   0.0000090   0.0000049   0.0000000   0.0000000   0.0000000   0.0000000
0.6900649    -0.9969376  -0.0012737   0.0000139  -0.0000080   0.0000000   0.0000000   0.0000000   0.0000000
0.6985480    -0.9969291  -0.0013699   0.0000003  -0.0000012   0.0000000   0.0000000   0.0000000   0.0000000
0.7071355    -0.9969228  -0.0013641   0.0000244  -0.0000027   0.0000000   0.0000000   0.0000000   0.0000000
0.7158284    -0.9968843  -0.0013091   0.0000055  -0.0000011   0.0000000   0.0000000   0.0000000   0.0000000
0.7246283    -0.9968912  -0.0014143  -0.0000038   0.0000055   0.0000000   0.0000000   0.0000000   0.0000000
0.7335363    -0.9969552  -0.0015244   0.0000074  -0.0000076   0.0000000   0.0000000   0.0000000   0.0000000
0.7425539    -0.9969191  -0.0014084   0.0000275   0.0000109   0.0000000   0.0000000   0.0000000   0.0000000
0.7516822    -0.9969541  -0.0013831   0.0000005   0.0000133   0.0000000   0.0000000   0.0000000   0.0000000
0.7609229    -0.9968333  -0.0014753   0.0000091  -0.0000068   0.0000000   0.0000000   0.0000000   0.0000000
0.7702771    -0.9969783  -0.0014599   0.0000213   0.0000125   0.0000000   0.0000000   0.0000000   0.0000000
0.7797463    -0.9968263  -0.0015040  -0.0000085   0.0000001   0.0000000   0.0000000   0.0000000   0.0000000
0.7893319    -0.9969123  -0.0014093   0.0000082  -0.0000068   0.0000000   0.0000000   0.0000000   0.0000000
0.7990353    -0.9968971  -0.0015279   0.0000026   0.0000035   0.0000000   0.0000000   0.0000000   0.0000000
0.8088580    -0.9968773  -0.0016011   0.0000030  -0.0000089   0.0000000   0.0000000   0.0000000   0.0000000
0.8188015    -0.9968592  -0.0015717   0.0000116  -0.0000012   0.0000000   0.0000000   0.0000000   0.0000000
0.8288673    -0.9968812  -0.0015705   0.0000189  -0.0000100   0.0000000   0.0000000   0.0000000   0.0000000
0.8390567    -0.9969573  -0.0016001   0.0000051   0.0000075   0.0000000   0.0000000   0.0000000   0.0000000
0.8493714    -0.9968549  -0.0016147   0.0000048  -0.0000028   0.0000000   0.0000000   0.0000000   0.0000000
0.8598130    -0.9969118  -0.0016109   0.0000129  -0.0000130   0.0000000   0.0000000   0.0000000   0.0000000
0.8703829    -0.9969148  -0.0017383   0.0000003   0.0000060   0.0000000   0.0000000   0.0000000   0.0000000
0.8810827    -0.9969711  -0.0017079  -0.0000014   0.0000072   0.0000000   0.0000000   0.0000000   0.0000000
0.8919140    -0.9969038  -0.0017121  -0.0000023  -0.0000123   0.0000000   0.0000000   0.0000000   0.0000000
0.9028786    -0.9968276  -0.0017920   0.0000044  -0.0000050   0.0000000   0.0000000   0.0000000   0.0000000
0.9139779    -0.9968542  -0.0017757   0.0000191  -0.0000075   0.0000000   0.0000000   0.0000000   0.0000000
0.9252136    -0.9968889  -0.0017687   0.0000227  -0.0000020   0.0000000   0.0000000   0.0000000   0.0000000
0.9365875    -0.9968600  -0.0017553   0.0000076   0.0000015   0.0000000   0.0000000   0.0000000   0.0000000
0.9481012    -0.9969061  -0.0017493   0.0000112   0.0000022   0.0000000   0.0000000   0.0000000   0.0000000
0.9597564    -0.9967892  -0.0018816  -0.0000131  -0.0000056   0.0000000   0.0000000   0.0000000   0.0000000
0.9715549    -0.9968354  -0.0019142   0.0000013   0.0000066   0.0000000   0.0000000   0.0000000   0.0000000
0.9834985    -0.9968332  -0.0019079  -0.0000001   0.0000033   0.0000000   0.0000000   0.0000000   0.0000000
0.9955889    -0.9969012  -0.0018966   0.0000020   0.0000021   0.0000000   0.0000000   0.0000000   0.0000000
1.0078279    -0.9968513  -0.0018560   0.0000092   0.0000086   0.0000000   0.0000000   0.0000000   0.0000000
1.0202173    -0.9968757  -0.0019113   0.0000116   0.0000069   0.0000000   0.0000000   0.0000000   0.0000000
1.0327591    -0.9969070  -0.0020161   0.0000064  -0.0000019   0.0000000   0.0000000   0.0000000   0.0000000
1.0454551    -0.9969628  -0.0020660   0.0000152  -0.0000012   0.0000000   0.0000000   0.0000000   0.0000000
1.0583071    -0.9968640  -0.0019744   0.0000055  -0.0000023   0.0000000   0.0000000   0.0000000   0.0000000
1.0713171    -0.9969246  -0.0020125   0.0000049   0.0000092   0.0000000   0.0000000   0.0000000   0.0000000
1.0844871    -0.9968404  -0.0020984   0.0000079  -0.0000110   0.0000000   0.0000000   0.0000000   0.0000000
1.0978189    -0.9969757  -0.0021364   0.0000107   0.0000066   0.0000000   0.0000000   0.0000000   0.0000000
1.1113147    -0.9969502  -0.0022032   0.0000054  -0.0000009   0.0000000   0.0000000   0.0000000   0.0000000
1.1249763    -0.9968545  -0.0021425   0.0000031   0.0000069   0.0000000   0.0000000   0.0000000   0.0000000
1.1388059    -0.9968105  -0.0021259   0.0000129  -0.0000043   0.0000000   0.0000000   0.0000000   0.0000000
1.1528056    -0.9968011  -0.0022343   0.0000043   0.0000016   0.0000000   0.0000000   0.0000000   0.0000000
1.1669773    -0.9968896  -0.0021912   0.0000122   0.0000150   0.0000000   0.0000000   0.0000000   0.0000000
1.1813232    -0.9968783  -0.0023580   0.0000176  -0.0000060   0.0000000   0.0000000   0.0000000   0.0000000
1.1958455    -0.9969027  -0.0024045   0.0000056  -0.0000024   0.0000000   0.0000000   0.0000000   0.0000000
1.2105463    -0.9968814  -0.0023336  -0.0000045   0.0000035   0.0000000   0.0000000   0.0000000   0.0000000
1.2254278    -0.9968487  -0.0024029   0.0000094   0.0000139   0.0000000   0.0000000   0.0000000   0.0000000
1.2404923    -0.9969154  -0.0024238   0.0000029   0.0000080   0.0000000   0.0000000   0.0000000   0.0000000
1.2557420    -0.9968372  -0.0024443  -0.0000026   0.0000019   0.0000000   0.0000000   0.0000000   0.0000000
1.2711791    -0.9968706  -0.0024572   0.0000045   0.0000117   0.0000000   0.0000000   0.0000000   0.0000000
1.2868060    -0.9968061  -0.0025445   0.0000213  -0.0000078   0.0000000   0.0000000   0.0000000   0.0000000
1.3026251    -0.9968127  -0.0026219   0.0000005   0.0000000   0.0000000   0.0000000   0.0000000   0.0000000
1.3186385    -0.9968967  -0.0024289   0.0000099   0.0000008   0.0000000   0.0000000   0.0000000   0.0000000
1.3348489    -0.9969535  -0.0025870  -0.0000021   0.0000003   0.0000000   0.0000000   0.0000000   0.0000000
1.3512585    -0.9969379  -0.0025916   0.0000062   0.0000032   0.0000000   0.0000000   0.0000000   0.0000000
1.3678698    -0.9968281  -0.0026352  -0.0000014  -0.0000041   0.0000000   0.0000000   0.0000000   0.0000000
1.3846854    -0.9969779  -0.0026757  -0.0000014  -0.0000022   0.0000000   0.0000000   0.0000000   0.0000000
1.4017077    -0.9968502  -0.0026528  -0.0000052   0.0000027   0.0000000   0.0000000   0.0000000   0.0000000
1.4189392    -0.9969098  -0.0027923  -0.0000025   0.0000037   0.0000000   0.0000000   0.0000000   0.0000000
1.4363825    -0.9969023  -0.0027877   0.0000121   0.0000015   0.0000000   0.0000000   0.0000000   0.0000000
1.4540403    -0.9969134  -0.0028226   0.0000264  -0.0000003   0.0000000   0.0000000   0.0000000   0.0000000
1.4719152    -0.9967978  -0.0028728  -0.0000038   0.0000089   0.0000000   0.0000000   0.0000000   0.0000000
1.4900098    -0.9968554  -0.0029944   0.0000038  -0.0000084   0.0000000   0.0000000   0.0000000   0.0000000
1.5083269    -0.9969885  -0.0029931   0.0000028   0.0000172   0.0000000   0.0000000   0.0000000   0.0000000
1.5268691    -0.9969065  -0.0029239   0.0000047   0.0000128   0.0000000   0.0000000   0.0000000   0.0000000
1.5456392    -0.9969317  -0.0030432  -0.0000027   0.0000029   0.0000000   0.0000000   0.0000000   0.0000000
1.5646402    -0.9969401  -0.0030519  -0.0000009  -0.0000069   0.0000000   0.0000000   0.0000000   0.0000000
1.5838747    -0.9969299  -0.0030960  -0.0000024   0.0000070   0.0000000   0.0000000   0.0000000   0.0000000
1.6033456    -0.9967973  -0.0031760  -0.0000043   0.0000108   0.0000000   0.0000000   0.0000000   0.0000000
1.6230559    -0.9969555  -0.0032191  -0.0000008  -0.0000051   0.0000000   0.0000000   0.0000000   0.0000000
1.6430085    -0.9968318  -0.0032131   0.0000120  -0.0000074   0.0000000   0.0000000   0.0000000   0.0000000
1.6632064    -0.9969113  -0.0033420   0.0000014  -0.0000023   0.0000000   0.0000000   0.0000000   0.0000000
1.6836526    -0.9969157  -0.0032144   0.0000078   0.0000101   0.0000000   0.0000000   0.0000000   0.0000000
1.7043502    -0.9968876  -0.0033530   0.0000024  -0.0000013   0.0000000   0.0000000   0.0000000   0.0000000
1.7253021    -0.9967237  -0.0034155   0.0000192   0.0000040   0.0000000   0.0000000   0.0000000   0.0000000
1.7465117    -0.9968296  -0.0034558  -0.0000042   0.0000160   0.0000000   0.0000000   0.0000000   0.0000000
1.7679820    -0.9969611  -0.0035285   0.0000089   0.0000017   0.0000000   0.0000000   0.0000000   0.0000000
1.7897162    -0.9969210  -0.0034711   0.0000089   0.0000062   0.0000000   0.0000000   0.0000000   0.0000000
1.8117176    -0.9969695  -0.0035389   0.0000275   0.0000158   0.0000000   0.0000000   0.0000000   0.0000000
1.8339895    -0.9968473  -0.0034743   0.0000032   0.0000028   0.0000000   0.0000000   0.0000000   0.0000000
1.8565352    -0.9969260  -0.0035207   0.0000054   0.0000072   0.0000000   0.0000000   0.0000000   0.0000000
1.8793580    -0.9969570  -0.0037694   0.0000063   0.0000123   0.0000000   0.0000000   0.0000000   0.0000000
1.9024614    -0.9968694  -0.0037030  -0.0000021  -0.0000106   0.0000000   0.0000000   0.0000000   0.0000000
1.9258488    -0.9969089  -0.0039008   0.0000124   0.0000043   0.0000000   0.0000000   0.0000000   0.0000000
1.9495237    -0.9968018  -0.0038866  -0.0000047   0.0000032   0.0000000   0.0000000   0.0000000   0.0000000
1.9734897    -0.9969209  -0.0038543   0.0000022   0.0000310   0.0000000   0.0000000   0.0000000   0.0000000
1.9977503    -0.9969370  -0.0039642   0.0000064   0.0000015   0.0000000   0.0000000   0.0000000   0.0000000
2.0223091    -0.9969234  -0.0039341   0.0000073   0.0000008   0.0000000   0.0000000   0.0000000   0.0000000
2.0471698    -0.9968516  -0.0040062   0.0000194   0.0000089   0.0000000   0.0000000   0.0000000   0.0000000
2.0723362    -0.9969159  -0.0041077   0.0000066   0.0000076   0.0000000   0.0000000   0.0000000   0.0000000
2.0978119    -0.9969330  -0.0041474  -0.0000039   0.0000068   0.0000000   0.0000000   0.0000000   0.0000000
2.1236008    -0.9968597  -0.0041628   0.0000079   0.0000051   0.0000000   0.0000000   0.0000000   0.0000000
2.1497067    -0.9968796  -0.0042640   0.0000144  -0.0000020   0.0000000   0.0000000   0.0000000   0.0000000
2.1761336    -0.9969519  -0.0044309   0.0000181   0.0000154   0.0000000   0.0000000   0.0000000   0.0000000
2.2028853    -0.9969067  -0.0044445   0.0000095   0.0000126   0.0000000   0.0000000   0.0000000   0.0000000
2.2299659    -0.9968503  -0.0044397   0.0000087  -0.0000035   0.0000000   0.0000000   0.0000000   0.0000000
2.2573794    -0.9968515  -0.0044586   0.0000121   0.0000118   0.0000000   0.0000000   0.0000000   0.0000000
2.2851299    -0.9969178  -0.0045820   0.0000132   0.0000079   0.0000000   0.0000000   0.0000000   0.0000000
2.3132216    -0.9969651  -0.0046298   0.0000006   0.0000073   0.0000000   0.0000000   0.0000000   0.0000000
2.3416586    -0.9969568  -0.0046710   0.0000085   0.0000149   0.0000000   0.0000000   0.0000000   0.0000000
2.3704451    -0.9969457  -0.0046720   0.0000101  -0.0000028   0.0000000   0.0000000   0.0000000   0.0000000
2.3995856    -0.9969144  -0.0047531   0.0000021   0.0000071   0.0000000   0.0000000   0.0000000   0.0000000
2.4290843    -0.9969625  -0.0047883   0.0000090   0.0000149   0.0000000   0.0000000   0.0000000   0.0000000
2.4589456    -0.9968822  -0.0049684   0.0000013   0.0000242   0.0000000   0.0000000   0.0000000   0.0000000
2.4891740    -0.9968293  -0.0049677   0.0000062  -0.0000007   0.0000000   0.0000000   0.0000000   0.0000000
2.5197740    -0.9969248  -0.0049590  -0.0000055   0.0000060   0.0000000   0.0000000   0.0000000   0.0000000
2.5507502    -0.9969638  -0.0050511  -0.0000019   0.0000137   0.0000000   0.0000000   0.0000000   0.0000000
2.5821072    -0.9968585  -0.0052242   0.0000092  -0.0000069   0.0000000   0.0000000   0.0000000   0.0000000
2.6138496    -0.9969548  -0.0052183   0.0000119  -0.0000007   0.0000000   0.0000000   0.0000000   0.0000000
2.6459823    -0.9969201  -0.0052591   0.0000077   0.0000050   0.0000000   0.0000000   0.0000000   0.0000000
2.6785100    -0.9968688  -0.0052146   0.0000096  -0.0000077   0.0000000   0.0000000   0.0000000   0.0000000
2.7114376    -0.9969972  -0.0053003  -0.0000005  -0.0000147   0.0000000   0.0000000   0.0000000   0.0000000
2.7447699    -0.9969399  -0.0053924   0.0000059   0.0000316   0.0000000   0.0000000   0.0000000   0.0000000
2.7785120    -0.9970189  -0.0056045   0.0000033   0.0000004   0.0000000   0.0000000   0.0000000   0.0000000
2.8126689    -0.9969290  -0.0055575   0.0000137   0.0000032   0.0000000   0.0000000   0.0000000   0.0000000
2.8472457    -0.9968708  -0.0056981   0.0000040   0.0000119   0.0000000   0.0000000   0.0000000   0.0000000
2.8822476    -0.9970121  -0.0056456  -0.0000065   0.0000105   0.0000000   0.0000000   0.0000000   0.0000000
2.9176798    -0.9969930  -0.0057997   0.0000042   0.0000114   0.0000000   0.0000000   0.0000000   0.0000000
2.9535475    -0.9969479  -0.0057435   0.0000196  -0.0000002   0.0000000   0.0000000   0.0000000   0.0000000
2.9898562    -0.9968840  -0.0059098  -0.0000054   0.0000078   0.0000000   0.0000000   0.0000000   0.0000000
3.0266112    -0.9969269  -0.0060417   0.0000088   0.0000245   0.0000000   0.0000000   0.0000000   0.0000000
3.0638180    -0.9969404  -0.0061160   0.0000160   0.0000122   0.0000000   0.0000000   0.0000000   0.0000000
3.1014823    -0.9969542  -0.0061653  -0.0000011   0.0000066   0.0000000   0.0000000   0.0000000   0.0000000
3.1396096    -0.9968886  -0.0062903   0.0000107   0.0000172   0.0000000   0.0000000   0.0000000   0.0000000
3.1782055    -0.9968396  -0.0063203   0.0000068   0.0000080   0.0000000   0.0000000   0.0000000   0.0000000
3.2172760    -0.9969941  -0.0064722  -0.0000004  -0.0000017   0.0000000   0.0000000   0.0000000   0.0000000
3.2568267    -0.9969498  -0.0064977  -0.0000094  -0.0000008   0.0000000   0.0000000   0.0000000   0.0000000
3.2968637    -0.9969559  -0.0065511   0.0000023   0.0000214   0.0000000   0.0000000   0.0000000   0.0000000
3.3373928    -0.9969717  -0.0067130   0.0000039   0.0000252   0.0000000   0.0000000   0.0000000   0.0000000
3.3784202    -0.9969271  -0.0066935  -0.0000017   0.0000034   0.0000000   0.0000000   0.0000000   0.0000000
3.4199519    -0.9969162  -0.0068687  -0.0000099   0.0000119   0.0000000   0.0000000   0.0000000   0.0000000
3.4619942    -0.9969366  -0.0069866   0.0000143   0.0000191   0.0000000   0.0000000   0.0000000   0.0000000
3.5045533    -0.9968758  -0.0070197  -0.0000010   0.0000123   0.0000000   0.0000000   0.0000000   0.0000000
3.5476356    -0.9970006  -0.0069847   0.0000003   0.0000036   0.0000000   0.0000000   0.0000000   0.0000000
3.5912475    -0.9970661  -0.0072876   0.0000042   0.0000139   0.0000000   0.0000000   0.0000000   0.0000000
3.6353956    -0.9969214  -0.0071486   0.0000002   0.0000096   0.0000000   0.0000000   0.0000000   0.0000000
3.6800864    -0.9970183  -0.0073881   0.0000168   0.0000089   0.0000000   0.0000000   0.0000000   0.0000000
3.7253266    -0.9969963  -0.0074677   0.0000105   0.0000230   0.0000000   0.0000000   0.0000000   0.0000000
3.7711229    -0.9968738  -0.0074576   0.0000184   0.0000059   0.0000000   0.0000000   0.0000000   0.0000000
3.8174822    -0.9969395  -0.0075840   0.0000129   0.0000138   0.0000000   0.0000000   0.0000000   0.0000000
3.8644115    -0.9969710  -0.0077250   0.0000089   0.0000033   0.0000000   0.0000000   0.0000000   0.0000000
3.9119176    -0.9970872  -0.0078459   0.0000139   0.0000110   0.0000000   0.0000000   0.0000000   0.0000000
3.9600077    -0.9969770  -0.0078400  -0.0000014   0.0000181   0.0000000   0.0000000   0.0000000   0.0000000
4.0086890    -0.9969719  -0.0080059  -0.0000024   0.0000107   0.0000000   0.0000000   0.0000000   0.0000000
4.0579688    -0.9968765  -0.0081457   0.0000125   0.0000193   0.0000000   0.0000000   0.0000000   0.0000000
4.1078544    -0.9970196  -0.0081718   0.0000142   0.0000158   0.0000000   0.0000000   0.0000000   0.0000000
4.1583532    -0.9969460  -0.0082688   0.0000126  -0.0000119   0.0000000   0.0000000   0.0000000   0.0000000
4.2094729    -0.9969870  -0.0083937   0.0000113   0.0000141   0.0000000   0.0000000   0.0000000   0.0000000
4.2612209    -0.9969659  -0.0084885   0.0000085   0.0000209   0.0000000   0.0000000   0.0000000   0.0000000
4.3136051    -0.9969571  -0.0085919   0.0000090   0.0000080   0.0000000   0.0000000   0.0000000   0.0000000
4.3666333    -0.9971000  -0.0087180   0.0000084  -0.0000077   0.0000000   0.0000000   0.0000000   0.0000000
4.4203134    -0.9970837  -0.0088822   0.0000120   0.0000145   0.0000000   0.0000000   0.0000000   0.0000000
4.4746534    -0.9970793  -0.0089253  -0.0000045   0.0000170   0.0000000   0.0000000   0.0000000   0.0000000
4.5296613    -0.9970442  -0.0090015  -0.0000029   0.0000149   0.0000000   0.0000000   0.0000000   0.0000000
4.5853455    -0.9970332  -0.0091291  -0.0000008   0.0000173   0.0000000   0.0000000   0.0000000   0.0000000
4.6417143    -0.9970214  -0.0091977  -0.0000121   0.0000142   0.0000000   0.0000000   0.0000000   0.0000000
4.6987760    -0.9970217  -0.0093889   0.0000079   0.0000246   0.0000000   0.0000000   0.0000000   0.0000000
4.7565392    -0.9970502  -0.0095204   0.0000099   0.0000096   0.0000000   0.0000000   0.0000000   0.0000000
4.8150125    -0.9970718  -0.0096154   0.0000044   0.0000198   0.0000000   0.0000000   0.0000000   0.0000000
4.8742045    -0.9969736  -0.0097705  -0.0000003   0.0000143   0.0000000   0.0000000   0.0000000   0.0000000
4.9341243    -0.9970578  -0.0098887   0.0000189   0.0000186   0.0000000   0.0000000   0.0000000   0.0000000
4.9947807    -0.9970456  -0.0100004   0.0000065   0.0000063   0.0000000   0.0000000   0.0000000   0.0000000
5.0561827    -0.9970661  -0.0100185  -0.0000006   0.0000234   0.0000000   0.0000000   0.0000000   0.0000000
5.1183396    -0.9969745  -0.0101277   0.0000065   0.0000204   0.0000000   0.0000000   0.0000000   0.0000000
5.1812606    -0.9969719  -0.0103554  -0.0000124   0.0000107   0.0000000   0.0000000   0.0000000   0.0000000
5.2449550    -0.9970305  -0.0104563   0.0000065   0.0000142   0.0000000   0.0000000   0.0000000   0.0000000
5.3094325    -0.9971089  -0.0106052   0.0000090   0.0000158   0.0000000   0.0000000   0.0000000   0.0000000
5.3747026    -0.9969716  -0.0107090   0.0000018   0.0000014   0.0000000   0.0000000   0.0000000   0.0000000
5.4407751    -0.9970845  -0.0108107   0.0000116   0.0000116   0.0000000   0.0000000   0.0000000   0.0000000
5.5076599    -0.9971357  -0.0109171   0.0000161   0.0000093   0.0000000   0.0000000   0.0000000   0.0000000
5.5753669    -0.9970615  -0.0110829  -0.0000002   0.0000104   0.0000000   0.0000000   0.0000000   0.0000000
5.6439062    -0.9971608  -0.0112423   0.0000171   0.0000074   0.0000000   0.0000000   0.0000000   0.0000000
5.7132881    -0.9971558  -0.0114142   0.0000201   0.0000140   0.0000000   0.0000000   0.0000000   0.0000000
5.7835229    -0.9970504  -0.0114181   0.0000036   0.0000186   0.0000000   0.0000000   0.0000000   0.0000000
5.8546211    -0.9971259  -0.0117072   0.0000110   0.0000050   0.0000000   0.0000000   0.0000000   0.0000000
5.9265934    -0.9970564  -0.0118310   0.0000024   0.0000144   0.0000000   0.0000000   0.0000000   0.0000000
5.9994504    -0.9971281  -0.0119389   0.0000052   0.0000092   0.0000000   0.0000000   0.0000000   0.0000000
6.0732031    -0.9970357  -0.0121781   0.0000052   0.0000144   0.0000000   0.0000000   0.0000000   0.0000000
6.1478624    -0.9971620  -0.0121889  -0.0000029   0.0000086   0.0000000   0.0000000   0.0000000   0.0000000
6.2234396    -0.9971111  -0.0123210   0.0000226   0.0000085   0.0000000   0.0000000   0.0000000   0.0000000
6.2999458    -0.9971467  -0.0125221   0.0000090   0.0000212   0.0000000   0.0000000   0.0000000   0.0000000
6.3773925    -0.9970806  -0.0127894   0.0000078   0.0000219   0.0000000   0.0000000   0.0000000   0.0000000
6.4557914    -0.9971301  -0.0127970  -0.0000138   0.0000048   0.0000000   0.0000000   0.0000000   0.0000000
6.5351539    -0.9970745  -0.0129931   0.0000046   0.0000194   0.0000000   0.0000000   0.0000000   0.0000000
6.6154922    -0.9971386  -0.0131712   0.0000061   0.0000123   0.0000000   0.0000000   0.0000000   0.0000000
6.6968180    -0.9971272  -0.0132311  -0.0000002   0.0000099   0.0000000   0.0000000   0.0000000   0.0000000
6.7791436    -0.9970542  -0.0135347  -0.0000062   0.0000229   0.0000000   0.0000000   0.0000000   0.0000000
6.8624812    -0.9971880  -0.0136148  -0.0000012   0.0000085   0.0000000   0.0000000   0.0000000   0.0000000
6.9468433    -0.9971738  -0.0137996   0.0000215   0.0000280   0.0000000   0.0000000   0.0000000   0.0000000
7.0322425    -0.9971780  -0.0139148  -0.0000008   0.0000012   0.0000000   0.0000000   0.0000000   0.0000000
7.1186916    -0.9970997  -0.0141691  -0.0000025   0.0000221   0.0000000   0.0000000   0.0000000   0.0000000
7.2062034    -0.9972313  -0.0142352   0.0000089   0.0000274   0.0000000   0.0000000   0.0000000   0.0000000
7.2947909    -0.9971036  -0.0144501   0.0000073   0.0000244   0.0000000   0.0000000   0.0000000   0.0000000
7.3844675    -0.9971937  -0.0146869   0.0000030   0.0000072   0.0000000   0.0000000   0.0000000   0.0000000
7.4752466    -0.9971304  -0.0148997   0.0000073   0.0000170   0.0000000   0.0000000   0.0000000   0.0000000
7.5671416    -0.9972020  -0.0149714   0.0000058   0.0000243   0.0000000   0.0000000   0.0000000   0.0000000
7.6601662    -0.9970890  -0.0151590  -0.0000047   0.0000124   0.0000000   0.0000000   0.0000000   0.0000000
7.7543345    -0.9972516  -0.0153405  -0.0000006   0.0000171   0.0000000   0.0000000   0.0000000   0.0000000
7.8496604    -0.9972246  -0.0155436   0.0000132   0.0000223   0.0000000   0.0000000   0.0000000   0.0000000
7.9461581    -0.9972310  -0.0157157   0.0000074   0.0000344   0.0000000   0.0000000   0.0000000   0.0000000
8.0438422    -0.9971644  -0.0159457   0.0000065   0.0000202   0.0000000   0.0000000   0.0000000   0.0000000
8.1427270    -0.9972092  -0.0161491   0.0000035   0.0000075   0.0000000   0.0000000   0.0000000   0.0000000
8.2428275    -0.9972155  -0.0164115   0.0000136   0.0000203   0.0000000   0.0000000   0.0000000   0.0000000
8.3441586    -0.9971007  -0.0165194   0.0000085   0.0000268   0.0000000   0.0000000   0.0000000   0.0000000
8.4467353    -0.9972088  -0.0167318   0.0000026   0.0000160   0.0000000   0.0000000   0.0000000   0.0000000
8.5505731    -0.9972035  -0.0170715   0.0000048   0.0000375   0.0000000   0.0000000   0.0000000   0.0000000
8.6556873    -0.9972077  -0.0171421   0.0000098   0.0000251   0.0000000   0.0000000   0.0000000   0.0000000
8.7620937    -0.9971617  -0.0173297  -0.0000038   0.0000217   0.0000000   0.0000000   0.0000000   0.0000000
8.8698082    -0.9972901  -0.0176061   0.0000142   0.0000256   0.0000000   0.0000000   0.0000000   0.0000000
8.9788469    -0.9972030  -0.0177107  -0.0000023   0.0000230   0.0000000   0.0000000   0.0000000   0.0000000
9.0892260    -0.9971954  -0.0180738   0.0000141   0.0000213   0.0000000   0.0000000   0.0000000   0.0000000
9.2009621    -0.9972118  -0.0181586   0.0000208   0.0000190   0.0000000   0.0000000   0.0000000   0.0000000
9.3140717    -0.9972047  -0.0184172   0.0000068   0.0000260   0.0000000   0.0000000   0.0000000   0.0000000
9.4285718    -0.9972132  -0.0186493   0.0000189   0.0000196   0.0000000   0.0000000   0.0000000   0.0000000
9.5444795    -0.9972273  -0.0189026  -0.0000095   0.0000226   0.0000000   0.0000000   0.0000000   0.0000000
9.6618121    -0.9973062  -0.0191653   0.0000012   0.0000326   0.0000000   0.0000000   0.0000000   0.0000000
9.7805870    -0.9971619  -0.0193577   0.0000041   0.0000185   0.0000000   0.0000000   0.0000000   0.0000000
9.9008221    -0.9972235  -0.0195337   0.0000065   0.0000416   0.0000000   0.0000000   0.0000000   0.0000000
10.0225353   -0.9973852  -0.0198528   0.0000178   0.0000209   0.0000000   0.0000000   0.0000000   0.0000000
10.1457447   -0.9971476  -0.0200569   0.0000298   0.0000151   0.0000000   0.0000000   0.0000000   0.0000000
10.2704688   -0.9973493  -0.0201921   0.0000040   0.0000383   0.0000000   0.0000000   0.0000000   0.0000000
10.3967261   -0.9972996  -0.0205070   0.0000145   0.0000330   0.0000000   0.0000000   0.0000000   0.0000000
10.5245356   -0.9972736  -0.0207945   0.0000019   0.0000203   0.0000000   0.0000000   0.0000000   0.0000000
10.6539162   -0.9972424  -0.0210281   0.0000134   0.0000266   0.0000000   0.0000000   0.0000000   0.0000000
10.7848873   -0.9972707  -0.0213393   0.0000173   0.0000193   0.0000000   0.0000000   0.0000000   0.0000000
10.9174685   -0.9971907  -0.0214952   0.0000111   0.0000318   0.0000000   0.0000000   0.0000000   0.0000000
11.0516796   -0.9973081  -0.0217895  -0.0000007   0.0000103   0.0000000   0.0000000   0.0000000   0.0000000
11.1875405   -0.9972503  -0.0220357   0.0000176   0.0000282   0.0000000   0.0000000   0.0000000   0.0000000
11.3250716   -0.9973055  -0.0223774   0.0000162   0.0000255   0.0000000   0.0000000   0.0000000   0.0000000
11.4642934   -0.9973295  -0.0225703   0.0000076   0.0000223   0.0000000   0.0000000   0.0000000   0.0000000
11.6052267   -0.9973478  -0.0228366  -0.0000012   0.0000283   0.0000000   0.0000000   0.0000000   0.0000000
11.7478926   -0.9972599  -0.0231550   0.0000190   0.0000226   0.0000000   0.0000000   0.0000000   0.0000000
11.8923122   -0.9973380  -0.0234824   0.0000075   0.0000480   0.0000000   0.0000000   0.0000000   0.0000000
12.0385073   -0.9972799  -0.0237116   0.0000064   0.0000263   0.0000000   0.0000000   0.0000000   0.0000000
12.1864995   -0.9973403  -0.0240471   0.0000009   0.0000246   0.0000000   0.0000000   0.0000000   0.0000000
12.3363111   -0.9972472  -0.0242860   0.0000033   0.0000231   0.0000000   0.0000000   0.0000000   0.0000000
12.4879643   -0.9971981  -0.0245967   0.0000083   0.0000233   0.0000000   0.0000000   0.0000000   0.0000000
12.6414818   -0.9972142  -0.0249374  -0.0000035   0.0000261   0.0000000   0.0000000   0.0000000   0.0000000
12.7968866   -0.9973010  -0.0252344   0.0000130   0.0000241   0.0000000   0.0000000   0.0000000   0.0000000
12.9542018   -0.9973297  -0.0254355   0.0000256   0.0000286   0.0000000   0.0000000   0.0000000   0.0000000
13.1134509   -0.9972071  -0.0258725   0.0000107   0.0000122   0.0000000   0.0000000   0.0000000   0.0000000
13.2746577   -0.9973763  -0.0261190   0.0000230   0.0000280   0.0000000   0.0000000   0.0000000   0.0000000
13.4378462   -0.9973192  -0.0264395   0.0000061   0.0000366   0.0000000   0.0000000   0.0000000   0.0000000
13.6030409   -0.9972238  -0.0268576  -0.0000013   0.0000350   0.0000000   0.0000000   0.0000000   0.0000000
13.7702663   -0.9972576  -0.0271225  -0.0000029   0.0000450   0.0000000   0.0000000   0.0000000   0.0000000
13.9395475   -0.9973987  -0.0273797   0.0000161   0.0000240   0.0000000   0.0000000   0.0000000   0.0000000
14.1109097   -0.9973043  -0.0278071  -0.0000015   0.0000416   0.0000000   0.0000000   0.0000000   0.0000000
14.2843785   -0.9972914  -0.0280394  -0.0000073   0.0000229   0.0000000   0.0000000   0.0000000   0.0000000
14.4599797   -0.9973297  -0.0284205   0.0000190   0.0000411   0.0000000   0.0000000   0.0000000   0.0000000
14.6377397   -0.9973117  -0.0288049   0.0000123   0.0000223   0.0000000   0.0000000   0.0000000   0.0000000
14.8176850   -0.9972866  -0.0290123   0.0000184   0.0000477   0.0000000   0.0000000   0.0000000   0.0000000
14.9998423   -0.9973296  -0.0295491   0.0000267   0.0000394   0.0000000   0.0000000   0.0000000   0.0000000
15.1842390   -0.9972881  -0.0297490  -0.0000134   0.0000274   0.0000000   0.0000000   0.0000000   0.0000000
15.3709024   -0.9973676  -0.0301880   0.0000123   0.0000374   0.0000000   0.0000000   0.0000000   0.0000000
15.5598606   -0.9972876  -0.0305554   0.0000200   0.0000279   0.0000000   0.0000000   0.0000000   0.0000000
15.7511417   -0.9973285  -0.0308671  -0.0000034   0.0000257   0.0000000   0.0000000   0.0000000   0.0000000
15.9447743   -0.9972763  -0.0312701   0.0000065   0.0000268   0.0000000   0.0000000   0.0000000   0.0000000
16.1407872   -0.9971623  -0.0317347   0.0000162   0.0000399   0.0000000   0.0000000   0.0000000   0.0000000
16.3392097   -0.9972889  -0.0321733   0.0000094   0.0000299   0.0000000   0.0000000   0.0000000   0.0000000
16.5400716   -0.9973057  -0.0324697   0.0000110   0.0000360   0.0000000   0.0000000   0.0000000   0.0000000
16.7434026   -0.9973777  -0.0328179   0.0000082   0.0000319   0.0000000   0.0000000   0.0000000   0.0000000
16.9492333   -0.9972923  -0.0332839  -0.0000045   0.0000392   0.0000000   0.0000000   0.0000000   0.0000000
17.1575942   -0.9972888  -0.0336816  -0.0000075   0.0000385   0.0000000   0.0000000   0.0000000   0.0000000
17.3685166   -0.9971771  -0.0341360   0.0000061   0.0000501   0.0000000   0.0000000   0.0000000   0.0000000
17.5820320   -0.9972505  -0.0343308   0.0000117   0.0000455   0.0000000   0.0000000   0.0000000   0.0000000
17.7981721   -0.9973015  -0.0349033   0.0000131   0.0000512   0.0000000   0.0000000   0.0000000   0.0000000
18.0169693   -0.9973731  -0.0352568   0.0000135   0.0000184   0.0000000   0.0000000   0.0000000   0.0000000
18.2384562   -0.9972803  -0.0357582   0.0000194   0.0000467   0.0000000   0.0000000   0.0000000   0.0000000
18.4626659   -0.9972523  -0.0361897   0.0000086   0.0000208   0.0000000   0.0000000   0.0000000   0.0000000
18.6896319   -0.9972839  -0.0366311  -0.0000076   0.0000413   0.0000000   0.0000000   0.0000000   0.0000000
18.9193880   -0.9972453  -0.0369675   0.0000258   0.0000303   0.0000000   0.0000000   0.0000000   0.0000000
19.1519686   -0.9972556  -0.0374880   0.0000158   0.0000370   0.0000000   0.0000000   0.0000000   0.0000000
19.3874083   -0.9972672  -0.0379941   0.0000131   0.0000495   0.0000000   0.0000000   0.0000000   0.0000000
19.6257423   -0.9972700  -0.0385020   0.0000098   0.0000369   0.0000000   0.0000000   0.0000000   0.0000000
19.8670063   -0.9973145  -0.0389149   0.0000154   0.0000295   0.0000000   0.0000000   0.0000000   0.0000000
20.1112361   -0.9972175  -0.0393506   0.0000171   0.0000377   0.0000000   0.0000000   0.0000000   0.0000000
20.3584684   -0.9972081  -0.0397128   0.0000039   0.0000564   0.0000000   0.0000000   0.0000000   0.0000000
20.6087399   -0.9972583  -0.0403469   0.0000016   0.0000472   0.0000000   0.0000000   0.0000000   0.0000000
20.8620881   -0.9973110  -0.0407296   0.0000094   0.0000249   0.0000000   0.0000000   0.0000000   0.0000000
21.1185507   -0.9971627  -0.0412694  -0.0000038   0.0000562   0.0000000   0.0000000   0.0000000   0.0000000
21.3781661   -0.9972149  -0.0417997   0.0000099   0.0000383   0.0000000   0.0000000   0.0000000   0.0000000
21.6409730   -0.9972168  -0.0424158   0.0000183   0.0000395   0.0000000   0.0000000   0.0000000   0.0000000
21.9070107   -0.9972604  -0.0428915   0.0000077   0.0000473   0.0000000   0.0000000   0.0000000   0.0000000
22.1763188   -0.9971204  -0.0433061   0.0000213   0.0000500   0.0000000   0.0000000   0.0000000   0.0000000
22.4489376   -0.9972344  -0.0439066  -0.0000085   0.0000463   0.0000000   0.0000000   0.0000000   0.0000000
22.7249077   -0.9971809  -0.0442937   0.0000061   0.0000476   0.0000000   0.0000000   0.0000000   0.0000000
23.0042705   -0.9972463  -0.0449641   0.0000027   0.0000524   0.0000000   0.0000000   0.0000000   0.0000000
23.2870675   -0.9972088  -0.0454785   0.0000031   0.0000562   0.0000000   0.0000000   0.0000000   0.0000000
23.5733409   -0.9971652  -0.0460514  -0.0000034   0.0000413   0.0000000   0.0000000   0.0000000   0.0000000
23.8631337   -0.9971501  -0.0465551  -0.0000028   0.0000647   0.0000000   0.0000000   0.0000000   0.0000000
24.1564889   -0.9972017  -0.0472282   0.0000077   0.0000574   0.0000000   0.0000000   0.0000000   0.0000000
24.4534504   -0.9970925  -0.0476875   0.0000199   0.0000438   0.0000000   0.0000000   0.0000000   0.0000000
24.7540625   -0.9971315  -0.0484213   0.0000129   0.0000547   0.0000000   0.0000000   0.0000000   0.0000000
25.0583701   -0.9971106  -0.0488458   0.0000155   0.0000471   0.0000000   0.0000000   0.0000000   0.0000000
25.3664186   -0.9971526  -0.0495448   0.0000174   0.0000560   0.0000000   0.0000000   0.0000000   0.0000000
25.6782541   -0.9970787  -0.0502075   0.0000073   0.0000465   0.0000000   0.0000000   0.0000000   0.0000000
25.9939230   -0.9971074  -0.0508338   0.0000020   0.0000569   0.0000000   0.0000000   0.0000000   0.0000000
26.3134725   -0.9970288  -0.0513280   0.0000099   0.0000651   0.0000000   0.0000000   0.0000000   0.0000000
26.6369503   -0.9971293  -0.0520219   0.0000000   0.0000494   0.0000000   0.0000000   0.0000000   0.0000000
26.9644047   -0.9971216  -0.0525677   0.0000070   0.0000632   0.0000000   0.0000000   0.0000000   0.0000000
27.2958846   -0.9970470  -0.0532162   0.0000010   0.0000499   0.0000000   0.0000000   0.0000000   0.0000000
27.6314394   -0.9970203  -0.0538962  -0.0000075   0.0000664   0.0000000   0.0000000   0.0000000   0.0000000
27.9711193   -0.9970573  -0.0546009   0.0000138   0.0000643   0.0000000   0.0000000   0.0000000   0.0000000
28.3149750   -0.9970232  -0.0553079  -0.0000092   0.0000523   0.0000000   0.0000000   0.0000000   0.0000000
28.6630578   -0.9970654  -0.0558405  -0.0000027   0.0000475   0.0000000   0.0000000   0.0000000   0.0000000
29.0154196   -0.9969850  -0.0565876   0.0000190   0.0000367   0.0000000   0.0000000   0.0000000   0.0000000
29.3721131   -0.9970031  -0.0572617   0.0000147   0.0000494   0.0000000   0.0000000   0.0000000   0.0000000
29.7331915   -0.9970257  -0.0579399   0.0000049   0.0000630   0.0000000   0.0000000   0.0000000   0.0000000
30.0987087   -0.9969827  -0.0586834  -0.0000049   0.0000607   0.0000000   0.0000000   0.0000000   0.0000000
30.4687194   -0.9969504  -0.0593959  -0.0000106   0.0000620   0.0000000   0.0000000   0.0000000   0.0000000
30.8432786   -0.9969697  -0.0601197   0.0000114   0.0000715   0.0000000   0.0000000   0.0000000   0.0000000
31.2224424   -0.9968910  -0.0608141   0.0000142   0.0000718   0.0000000   0.0000000   0.0000000   0.0000000
31.6062674   -0.9968628  -0.0615940   0.0000122   0.0000626   0.0000000   0.0000000   0.0000000   0.0000000
31.9948108   -0.9968324  -0.0623150   0.0000005   0.0000642   0.0000000   0.0000000   0.0000000   0.0000000
32.3881306   -0.9968392  -0.0630799   0.0000263   0.0000701   0.0000000   0.0000000   0.0000000   0.0000000
32.7862857   -0.9968722  -0.0638417   0.0000063   0.0000712   0.0000000   0.0000000   0.0000000   0.0000000
33.1893353   -0.9968600  -0.0646087   0.0000098   0.0000665   0.0000000   0.0000000   0.0000000   0.0000000
33.5973398   -0.9968852  -0.0653780   0.0000071   0.0000745   0.0000000   0.0000000   0.0000000   0.0000000
34.0103599   -0.9968111  -0.0661503  -0.0000047   0.0000678   0.0000000   0.0000000   0.0000000   0.0000000
34.4284574   -0.9967056  -0.0669761   0.0000059   0.0000574   0.0000000   0.0000000   0.0000000   0.0000000
34.8516946   -0.9966384  -0.0678770  -0.0000042   0.0000884   0.0000000   0.0000000   0.0000000   0.0000000
35.2801349   -0.9967244  -0.0686228   0.0000013   0.0000731   0.0000000   0.0000000   0.0000000   0.0000000
35.7138420   -0.9967228  -0.0694728   0.0000057   0.0000738   0.0000000   0.0000000   0.0000000   0.0000000
36.1528808   -0.9967615  -0.0703920   0.0000073   0.0000697   0.0000000   0.0000000   0.0000000   0.0000000
36.5973168   -0.9966196  -0.0712483   0.0000000   0.0000664   0.0000000   0.0000000   0.0000000   0.0000000
37.0472164   -0.9965856  -0.0720245  -0.0000036   0.0000735   0.0000000   0.0000000   0.0000000   0.0000000
37.5026467   -0.9965426  -0.0730568  -0.0000002   0.0000696   0.0000000   0.0000000   0.0000000   0.0000000
37.9636757   -0.9966720  -0.0737595   0.0000019   0.0000798   0.0000000   0.0000000   0.0000000   0.0000000
38.4303722   -0.9965792  -0.0746411   0.0000081   0.0000837   0.0000000   0.0000000   0.0000000   0.0000000
38.9028060   -0.9965098  -0.0755590   0.0000066   0.0000774   0.0000000   0.0000000   0.0000000   0.0000000
39.3810475   -0.9964872  -0.0765401  -0.0000096   0.0000855   0.0000000   0.0000000   0.0000000   0.0000000
39.8651681   -0.9964212  -0.0774301   0.0000030   0.0000743   0.0000000   0.0000000   0.0000000   0.0000000
40.3552402   -0.9963705  -0.0784067  -0.0000029   0.0000775   0.0000000   0.0000000   0.0000000   0.0000000
40.8513368   -0.9963866  -0.0793769   0.0000121   0.0000867   0.0000000   0.0000000   0.0000000   0.0000000
41.3535320   -0.9962715  -0.0803091   0.0000110   0.0000857   0.0000000   0.0000000   0.0000000   0.0000000
41.8619009   -0.9962705  -0.0813744  -0.0000043   0.0000837   0.0000000   0.0000000   0.0000000   0.0000000
42.3765193   -0.9962696  -0.0822599   0.0000134   0.0000701   0.0000000   0.0000000   0.0000000   0.0000000
42.8974639   -0.9961730  -0.0832752  -0.0000022   0.0000867   0.0000000   0.0000000   0.0000000   0.0000000
43.4248127   -0.9960695  -0.0842699   0.0000051   0.0000952   0.0000000   0.0000000   0.0000000   0.0000000
43.9586443   -0.9960010  -0.0853618   0.0000073   0.0000949   0.0000000   0.0000000   0.0000000   0.0000000
44.4990385   -0.9960142  -0.0863931  -0.0000129   0.0000881   0.0000000   0.0000000   0.0000000   0.0000000
45.0460758   -0.9958986  -0.0874561   0.0000074   0.0000813   0.0000000   0.0000000   0.0000000   0.0000000
45.5998380   -0.9959203  -0.0885048   0.0000147   0.0000946   0.0000000   0.0000000   0.0000000   0.0000000
46.1604077   -0.9959509  -0.0896096   0.0000111   0.0001030   0.0000000   0.0000000   0.0000000   0.0000000
46.7278686   -0.9958424  -0.0906847  -0.0000044   0.0000847   0.0000000   0.0000000   0.0000000   0.0000000
47.3023055   -0.9957638  -0.0917790   0.0000061   0.0000962   0.0000000   0.0000000   0.0000000   0.0000000
47.8838040   -0.9956733  -0.0928793   0.0000065   0.0000885   0.0000000   0.0000000   0.0000000   0.0000000
48.4724511   -0.9955943  -0.0940210  -0.0000011   0.0000972   0.0000000   0.0000000   0.0000000   0.0000000
49.0683345   -0.9955435  -0.0951540   0.0000039   0.0001012   0.0000000   0.0000000   0.0000000   0.0000000
49.6715433   -0.9956093  -0.0963676   0.0000099   0.0001004   0.0000000   0.0000000   0.0000000   0.0000000
50.2821675   -0.9954795  -0.0974809   0.0000044   0.0000901   0.0000000   0.0000000   0.0000000   0.0000000
50.9002982   -0.9953592  -0.0986172  -0.0000083   0.0000991   0.0000000   0.0000000   0.0000000   0.0000000
51.5260277   -0.9953442  -0.0998651   0.0000124   0.0001081   0.0000000   0.0000000   0.0000000   0.0000000
52.1594495   -0.9953809  -0.1011892  -0.0000074   0.0001138   0.0000000   0.0000000   0.0000000   0.0000000
52.8006581   -0.9951984  -0.1023379   0.0000146   0.0001087   0.0000000   0.0000000   0.0000000   0.0000000
53.4497492   -0.9951317  -0.1036609   0.0000112   0.0001056   0.0000000   0.0000000   0.0000000   0.0000000
54.1068198   -0.9951250  -0.1048631  -0.0000022   0.0000946   0.0000000   0.0000000   0.0000000   0.0000000
54.7719678   -0.9950076  -0.1061997  -0.0000078   0.0001197   0.0000000   0.0000000   0.0000000   0.0000000
55.4452927   -0.9948632  -0.1075027   0.0000151   0.0001031   0.0000000   0.0000000   0.0000000   0.0000000
56.1268950   -0.9949088  -0.1086992  -0.0000013   0.0001090   0.0000000   0.0000000   0.0000000   0.0000000
56.8168763   -0.9946948  -0.1100509  -0.0000003   0.0001180   0.0000000   0.0000000   0.0000000   0.0000000
57.5153398   -0.9947140  -0.1113940  -0.0000067   0.0001046   0.0000000   0.0000000   0.0000000   0.0000000
58.2223896   -0.9945365  -0.1127054   0.0000003   0.0001250   0.0000000   0.0000000   0.0000000   0.0000000
58.9381314   -0.9944417  -0.1141276   0.0000035   0.0001170   0.0000000   0.0000000   0.0000000   0.0000000
59.6626719   -0.9944085  -0.1155130   0.0000059   0.0001209   0.0000000   0.0000000   0.0000000   0.0000000
60.3961194   -0.9943022  -0.1168641  -0.0000025   0.0001258   0.0000000   0.0000000   0.0000000   0.0000000
61.1385834   -0.9941552  -0.1183641   0.0000026   0.0001287   0.0000000   0.0000000   0.0000000   0.0000000
61.8901746   -0.9940810  -0.1197557  -0.0000046   0.0001360   0.0000000   0.0000000   0.0000000   0.0000000
62.6510053   -0.9939742  -0.1211776  -0.0000006   0.0001219   0.0000000   0.0000000   0.0000000   0.0000000
63.4211891   -0.9939022  -0.1228177   0.0000104   0.0001335   0.0000000   0.0000000   0.0000000   0.0000000
64.2008409   -0.9937359  -0.1242124   0.0000058   0.0001224   0.0000000   0.0000000   0.0000000   0.0000000
64.9900772   -0.9936937  -0.1257859   0.0000095   0.0001245   0.0000000   0.0000000   0.0000000   0.0000000
65.7890158   -0.9935229  -0.1272538   0.0000008   0.0001321   0.0000000   0.0000000   0.0000000   0.0000000
66.5977759   -0.9932362  -0.1288450   0.0000026   0.0001169   0.0000000   0.0000000   0.0000000   0.0000000
67.4164783   -0.9932841  -0.1303951  -0.0000199   0.0001355   0.0000000   0.0000000   0.0000000   0.0000000
68.2452452   -0.9930355  -0.1318984   0.0000020   0.0001242   0.0000000   0.0000000   0.0000000   0.0000000
69.0842003   -0.9929023  -0.1336505   0.0000067   0.0001531   0.0000000   0.0000000   0.0000000   0.0000000
69.9334689   -0.9928748  -0.1353451   0.0000165   0.0001466   0.0000000   0.0000000   0.0000000   0.0000000
70.7931778   -0.9928192  -0.1367616  -0.0000097   0.0001518   0.0000000   0.0000000   0.0000000   0.0000000
71.6634552   -0.9925333  -0.1386019  -0.0000038   0.0001499   0.0000000   0.0000000   0.0000000   0.0000000
72.5444312   -0.9924278  -0.1401381  -0.0000057   0.0001462   0.0000000   0.0000000   0.0000000   0.0000000
73.4362373   -0.9921800  -0.1418901   0.0000131   0.0001482   0.0000000   0.0000000   0.0000000   0.0000000
74.3390065   -0.9919042  -0.1438495  -0.0000051   0.0001447   0.0000000   0.0000000   0.0000000   0.0000000
75.2528737   -0.9917762  -0.1456068  -0.0000095   0.0001691   0.0000000   0.0000000   0.0000000   0.0000000
76.1779753   -0.9916070  -0.1473580   0.0000006   0.0001570   0.0000000   0.0000000   0.0000000   0.0000000
77.1144493   -0.9915016  -0.1491414  -0.0000048   0.0001565   0.0000000   0.0000000   0.0000000   0.0000000
78.0624357   -0.9912942  -0.1509205  -0.0000025   0.0001525   0.0000000   0.0000000   0.0000000   0.0000000
79.0220759   -0.9911384  -0.1528360   0.0000025   0.0001657   0.0000000   0.0000000   0.0000000   0.0000000
79.9935132   -0.9908051  -0.1545760   0.0000049   0.0001775   0.0000000   0.0000000   0.0000000   0.0000000
80.9768926   -0.9907917  -0.1564024   0.0000136   0.0001548   0.0000000   0.0000000   0.0000000   0.0000000
81.9723609   -0.9905308  -0.1583456  -0.0000108   0.0001765   0.0000000   0.0000000   0.0000000   0.0000000
82.9800667   -0.9901964  -0.1604183   0.0000015   0.0001752   0.0000000   0.0000000   0.0000000   0.0000000
84.0001605   -0.9900680  -0.1623507  -0.0000036   0.0001585   0.0000000   0.0000000   0.0000000   0.0000000
85.0327946   -0.9899570  -0.1643742  -0.0000093   0.0001749   0.0000000   0.0000000   0.0000000   0.0000000
86.0781231   -0.9896207  -0.1661505  -0.0000063   0.0001576   0.0000000   0.0000000   0.0000000   0.0000000
87.1363020   -0.9893187  -0.1682453  -0.0000087   0.0001772   0.0000000   0.0000000   0.0000000   0.0000000
88.2074894   -0.9890452  -0.1703376  -0.0000191   0.0001842   0.0000000   0.0000000   0.0000000   0.0000000
89.2918452   -0.9888459  -0.1724980   0.0000076   0.0001744   0.0000000   0.0000000   0.0000000   0.0000000
90.3895312   -0.9885598  -0.1745524  -0.0000123   0.0001857   0.0000000   0.0000000   0.0000000   0.0000000
91.5007114   -0.9882628  -0.1767465  -0.0000027   0.0001738   0.0000000   0.0000000   0.0000000   0.0000000
92.6255515   -0.9880664  -0.1787944  -0.0000090   0.0002047   0.0000000   0.0000000   0.0000000   0.0000000
93.7642195   -0.9877785  -0.1810484  -0.0000095   0.0001760   0.0000000   0.0000000   0.0000000   0.0000000
94.9168855   -0.9873653  -0.1831674  -0.0000102   0.0002009   0.0000000   0.0000000   0.0000000   0.0000000
96.0837215   -0.9870731  -0.1855512  -0.0000110   0.0001943   0.0000000   0.0000000   0.0000000   0.0000000
97.2649017   -0.9868006  -0.1876950  -0.0000173   0.0001858   0.0000000   0.0000000   0.0000000   0.0000000
98.4606024   -0.9864087  -0.1900688  -0.0000259   0.0001890   0.0000000   0.0000000   0.0000000   0.0000000
99.6710021   -0.9861767  -0.1923562   0.0000109   0.0002144   0.0000000   0.0000000   0.0000000   0.0000000
100.8962816  -0.9857813  -0.1947153  -0.0000235   0.0002115   0.0000000   0.0000000   0.0000000   0.0000000
102.1366237  -0.9854462  -0.1971238  -0.0000084   0.0002093   0.0000000   0.0000000   0.0000000   0.0000000
103.3922136  -0.9851121  -0.1994698   0.0000114   0.0002099   0.0000000   0.0000000   0.0000000   0.0000000
104.6632389  -0.9846949  -0.2019119  -0.0000078   0.0002132   0.0000000   0.0000000   0.0000000   0.0000000
105.9498891  -0.9837213  -0.2043847   0.0000046   0.0001940   0.0000000   0.0000000   0.0000000   0.0000000
107.2523564  -0.9845813  -0.2065545  -0.0000086   0.0002195   0.0000000   0.0000000   0.0000000   0.0000000
108.5708353  -0.9840363  -0.2093489  -0.0000101   0.0002174   0.0000000   0.0000000   0.0000000   0.0000000
109.9055225  -0.9830196  -0.2121654  -0.0000128   0.0002138   0.0000000   0.0000000   0.0000000   0.0000000
111.2566174  -0.9825764  -0.2143815  -0.0000088   0.0002207   0.0000000   0.0000000   0.0000000   0.0000000
112.6243216  -0.9822264  -0.2169992  -0.0000028   0.0002219   0.0000000   0.0000000   0.0000000   0.0000000
114.0088393  -0.9819351  -0.2195437  -0.0000180   0.0002177   0.0000000   0.0000000   0.0000000   0.0000000
115.4103773  -0.9815260  -0.2221627  -0.0000096   0.0002426   0.0000000   0.0000000   0.0000000   0.0000000
116.8291446  -0.9808992  -0.2248123  -0.0000191   0.0002231   0.0000000   0.0000000   0.0000000   0.0000000
118.2653533  -0.9804104  -0.2275789  -0.0000200   0.0002300   0.0000000   0.0000000   0.0000000   0.0000000
119.7192175  -0.9799758  -0.2303315  -0.0000146   0.0002206   0.0000000   0.0000000   0.0000000   0.0000000
121.1909545  -0.9794574  -0.2330264  -0.0000018   0.0002539   0.0000000   0.0000000   0.0000000   0.0000000
122.6807839  -0.9788138  -0.2358769  -0.0000175   0.0002489   0.0000000   0.0000000   0.0000000   0.0000000
124.1889281  -0.9782833  -0.2386377  -0.0000085   0.0002532   0.0000000   0.0000000   0.0000000   0.0000000
125.7156123  -0.9775862  -0.2415292  -0.0000232   0.0002573   0.0000000   0.0000000   0.0000000   0.0000000
127.2610644  -0.9769830  -0.2444761  -0.0000160   0.0002546   0.0000000   0.0000000   0.0000000   0.0000000
128.8255151  -0.9763256  -0.2472619  -0.0000101   0.0002732   0.0000000   0.0000000   0.0000000   0.0000000
130.4091980  -0.9756233  -0.2505139  -0.0000167   0.0002673   0.0000000   0.0000000   0.0000000   0.0000000
132.0123495  -0.9751170  -0.2534362   0.0000047   0.0002633   0.0000000   0.0000000   0.0000000   0.0000000
133.6352088  -0.9743909  -0.2567220  -0.0000194   0.0002722   0.0000000   0.0000000   0.0000000   0.0000000
135.2780184  -0.9738754  -0.2601100  -0.0000286   0.0002852   0.0000000   0.0000000   0.0000000   0.0000000
136.9410235  -0.9735931  -0.2636593  -0.0000286   0.0002875   0.0000000   0.0000000   0.0000000   0.0000000
138.6244722  -0.9753592  -0.2668710  -0.0000232   0.0002737   0.0000000   0.0000000   0.0000000   0.0000000
140.3286160  -0.9735384  -0.2669310  -0.0000161   0.0002898   0.0000000   0.0000000   0.0000000   0.0000000
142.0537093  -0.9714593  -0.2703582   0.0000128   0.0003004   0.0000000   0.0000000   0.0000000   0.0000000
143.8000095  -0.9704167  -0.2735228  -0.0000221   0.0002750   0.0000000   0.0000000   0.0000000   0.0000000
145.5677774  -0.9698323  -0.2773252  -0.0000251   0.0002835   0.0000000   0.0000000   0.0000000   0.0000000
147.3572769  -0.9684671  -0.2801717  -0.0000097   0.0002793   0.0000000   0.0000000   0.0000000   0.0000000
149.1687752  -0.9676151  -0.2835117  -0.0000142   0.0003065   0.0000000   0.0000000   0.0000000   0.0000000
151.0025426  -0.9666457  -0.2867684  -0.0000260   0.0003229   0.0000000   0.0000000   0.0000000   0.0000000
152.8588530  -0.9655771  -0.2901581  -0.0000143   0.0003092   0.0000000   0.0000000   0.0000000   0.0000000
154.7379834  -0.9646134  -0.2933006  -0.0000097   0.0003262   0.0000000   0.0000000   0.0000000   0.0000000
156.6402144  -0.9637010  -0.2968624  -0.0000171   0.0003163   0.0000000   0.0000000   0.0000000   0.0000000
158.5658301  -0.9624250  -0.3001966  -0.0000233   0.0003203   0.0000000   0.0000000   0.0000000   0.0000000
160.5151177  -0.9611789  -0.3035190   0.0000073   0.0003188   0.0000000   0.0000000   0.0000000   0.0000000
162.4883685  -0.9596498  -0.3072098  -0.0000236   0.0003184   0.0000000   0.0000000   0.0000000   0.0000000
164.4858769  -0.9587021  -0.3107041   0.0000075   0.0003581   0.0000000   0.0000000   0.0000000   0.0000000
166.5079411  -0.9574278  -0.3144029  -0.0000029   0.0003344   0.0000000   0.0000000   0.0000000   0.0000000
168.5548630  -0.9560207  -0.3176069  -0.0000135   0.0003373   0.0000000   0.0000000   0.0000000   0.0000000
170.6269483  -0.9548792  -0.3213445  -0.0000073   0.0003369   0.0000000   0.0000000   0.0000000   0.0000000
172.7245062  -0.9532209  -0.3250904   0.0000047   0.0003317   0.0000000   0.0000000   0.0000000   0.0000000
174.8478498  -0.9519186  -0.3287836  -0.0000017   0.0003346   0.0000000   0.0000000   0.0000000   0.0000000
176.9972963  -0.9504718  -0.3326703   0.0000061   0.0003508   0.0000000   0.0000000   0.0000000   0.0000000
179.1731664  -0.9454600  -0.3348841  -0.0000193   0.0003567   0.0000000   0.0000000   0.0000000   0.0000000
181.3757850  -0.9467957  -0.3409543  -0.0000250   0.0003669   0.0000000   0.0000000   0.0000000   0.0000000
183.6054809  -0.9454685  -0.3437206   0.0000176   0.0003679   0.0000000   0.0000000   0.0000000   0.0000000
185.8625870  -0.9433404  -0.3475205   0.0000413   0.0003148   0.0000000   0.0000000   0.0000000   0.0000000
188.1474402  -0.9417313  -0.3514602   0.0000208   0.0003302   0.0000000   0.0000000   0.0000000   0.0000000
190.4603817  -0.9402140  -0.3551770  -0.0000021   0.0003698   0.0000000   0.0000000   0.0000000   0.0000000
192.8017567  -0.9381481  -0.3591690   0.0000052   0.0003151   0.0000000   0.0000000   0.0000000   0.0000000
195.1719148  -0.9359731  -0.3632679   0.0000077   0.0003223   0.0000000   0.0000000   0.0000000   0.0000000
197.5712099  -0.9337655  -0.3681222  -0.0000588   0.0003521   0.0000000   0.0000000   0.0000000   0.0000000
200.0000000  -0.9318655  -0.3714320   0.0000459   0.0004380   0.0000000   0.0000000   0.0000000   0.0000000
