! ListType=Log
# MHZ S RI R 50
0.0010000    -0.9988361   0.0001789   0.0003430  -0.0000231   0.0000000   0.0000000   0.0000000   0.0000000
0.0010123    -0.9985670   0.0001610   0.0003329  -0.0000362   0.0000000   0.0000000   0.0000000   0.0000000
0.0010247    -0.9990014  -0.0000269   0.0003930  -0.0000266   0.0000000   0.0000000   0.0000000   0.0000000
0.0010373    -0.9990373   0.0000934   0.0003504  -0.0000242   0.0000000   0.0000000   0.0000000   0.0000000
0.0010501    -0.9988250  -0.0000244   0.0003384  -0.0000077   0.0000000   0.0000000   0.0000000   0.0000000
0.0010630    -0.9986868   0.0003050   0.0003579  -0.0000182   0.0000000   0.0000000   0.0000000   0.0000000
0.0010761    -0.9988734   0.0001383   0.0003630  -0.0000044   0.0000000   0.0000000   0.0000000   0.0000000
0.0010893    -0.9985253   0.0002340   0.0003365  -0.0000465   0.0000000   0.0000000   0.0000000   0.0000000
0.0011027    -0.9989641  -0.0000172   0.0003902  -0.0000248   0.0000000   0.0000000   0.0000000   0.0000000
0.0011162    -0.9992400   0.0000637   0.0003452  -0.0000578   0.0000000   0.0000000   0.0000000   0.0000000
0.0011300    -0.9988271   0.0000181   0.0003491   0.0000047   0.0000000   0.0000000   0.0000000   0.0000000
0.0011439    -0.9988112   0.0000402   0.0003285   0.0000101   0.0000000   0.0000000   0.0000000   0.0000000
0.0011579    -0.9991496  -0.0000364   0.0003881  -0.0000175   0.0000000   0.0000000   0.0000000   0.0000000
0.0011721    -0.9987860   0.0000127   0.0003423  -0.0000157   0.0000000   0.0000000   0.0000000   0.0000000
0.0011866    -0.9990699   0.0001526   0.0003814  -0.0000057   0.0000000   0.0000000   0.0000000   0.0000000
0.0012011    -0.9987683   0.0000827   0.0003669  -0.0000411   0.0000000   0.0000000   0.0000000   0.0000000
0.0012159    -0.9990942   0.0001346   0.0003478  -0.0000698   0.0000000   0.0000000   0.0000000   0.0000000
0.0012309    -0.9987510   0.0001021   0.0003396  -0.0000581   0.0000000   0.0000000   0.0000000   0.0000000
0.0012460    -0.9988154   0.0000090   0.0003722  -0.0000060   0.0000000   0.0000000   0.0000000   0.0000000
0.0012613    -0.9989398   0.0002793   0.0003555  -0.0000338   0.0000000   0.0000000   0.0000000   0.0000000
0.0012768    -0.9989703   0.0000273   0.0003843  -0.0000111   0.0000000   0.0000000   0.0000000   0.0000000
0.0012925    -0.9986919  -0.0001567   0.0003409  -0.0000709   0.0000000   0.0000000   0.0000000   0.0000000
0.0013084    -0.9987888   0.0000461   0.0003594  -0.0000117   0.0000000   0.0000000   0.0000000   0.0000000
0.0013245    -0.9988356   0.0001433   0.0003407  -0.0000296   0.0000000   0.0000000   0.0000000   0.0000000
0.0013408    -0.9988886  -0.0000071   0.0003842  -0.0000242   0.0000000   0.0000000   0.0000000   0.0000000
0.0013572    -0.9988597   0.0002525   0.0003322  -0.0000281   0.0000000   0.0000000   0.0000000   0.0000000
0.0013739    -0.9990686  -0.0001111   0.0003568  -0.0000162   0.0000000   0.0000000   0.0000000   0.0000000
0.0013908    -0.9988254   0.0002694   0.0003080  -0.0000621   0.0000000   0.0000000   0.0000000   0.0000000
0.0014079    -0.9987550   0.0000492   0.0003562  -0.0000118   0.0000000   0.0000000   0.0000000   0.0000000
0.0014252    -0.9988010   0.0000878   0.0003344  -0.0000502   0.0000000   0.0000000   0.0000000   0.0000000
0.0014427    -0.9990839   0.0002884   0.0003576  -0.0000559   0.0000000   0.0000000   0.0000000   0.0000000
0.0014605    -0.9987999   0.0000622   0.0003334  -0.0000605   0.0000000   0.0000000   0.0000000   0.0000000
0.0014784    -0.9988632  -0.0002370   0.0003966  -0.0000225   0.0000000   0.0000000   0.0000000   0.0000000
0.0014966    -0.9988951   0.0001044   0.0003422  -0.0000286   0.0000000   0.0000000   0.0000000   0.0000000
0.0015150    -0.9987961   0.0002010   0.0003560  -0.0000599   0.0000000   0.0000000   0.0000000   0.0000000
0.0015336    -0.9987928  -0.0001000   0.0003495  -0.0000307   0.0000000   0.0000000   0.0000000   0.0000000
0.0015525    -0.9988720  -0.0001325   0.0003490  -0.0000175   0.0000000   0.0000000   0.0000000   0.0000000
0.0015716    -0.9985751  -0.0000168   0.0003409  -0.0000397   0.0000000   0.0000000   0.0000000   0.0000000
0.0015909    -0.9987539   0.0002214   0.0003335  -0.0000163   0.0000000   0.0000000   0.0000000   0.0000000
0.0016104    -0.9988124  -0.0002515   0.0003853  -0.0000435   0.0000000   0.0000000   0.0000000   0.0000000
0.0016302    -0.9989732  -0.0000520   0.0003485  -0.0000256   0.0000000   0.0000000   0.0000000   0.0000000
0.0016503    -0.9990207   0.0001422   0.0003483  -0.0000478   0.0000000   0.0000000   0.0000000   0.0000000
0.0016706    -0.9987075  -0.0001531   0.0003494  -0.0000578   0.0000000   0.0000000   0.0000000   0.0000000
0.0016911    -0.9988352  -0.0000834   0.0003566  -0.0000815   0.0000000   0.0000000   0.0000000   0.0000000
0.0017119    -0.9989872  -0.0000680   0.0003521  -0.0000521   0.0000000   0.0000000   0.0000000   0.0000000
0.0017329    -0.9988211   0.0000467   0.0003779  -0.0000659   0.0000000   0.0000000   0.0000000   0.0000000
0.0017542    -0.9989278  -0.0000761   0.0003937  -0.0000391   0.0000000   0.0000000   0.0000000   0.0000000
0.0017758    -0.9989692   0.0000887   0.0003619  -0.0000401   0.0000000   0.0000000   0.0000000   0.0000000
0.0017976    -0.9990150   0.0002306   0.0003230  -0.0000679   0.0000000   0.0000000   0.0000000   0.0000000
0.0018197    -0.9990007  -0.0002855   0.0003774  -0.0000534   0.0000000   0.0000000   0.0000000   0.0000000
0.0018421    -0.9989899   0.0001562   0.0003857  -0.0000455   0.0000000   0.0000000   0.0000000   0.0000000
0.0018648    -0.9987701  -0.0000317   0.0003471  -0.0000643   0.0000000   0.0000000   0.0000000   0.0000000
0.0018877    -0.9990347  -0.0000280   0.0003808  -0.0000186   0.0000000   0.0000000   0.0000000   0.0000000
0.0019109    -0.9988651  -0.0001484   0.0003268  -0.0000461   0.0000000   0.0000000   0.0000000   0.0000000
0.0019344    -0.9988107  -0.0000529   0.0003420  -0.0000517   0.0000000   0.0000000   0.0000000   0.0000000
0.0019582    -0.9990404  -0.0000271   0.0003605  -0.0000468   0.0000000   0.0000000   0.0000000   0.0000000
0.0019822    -0.9989729   0.0003307   0.0003669  -0.0000805   0.0000000   0.0000000   0.0000000   0.0000000
0.0020066    -0.9987963   0.0000509   0.0003400  -0.0000448   0.0000000   0.0000000   0.0000000   0.0000000
0.0020313    -0.9987548  -0.0000930   0.0003612  -0.0000602   0.0000000   0.0000000   0.0000000   0.0000000
0.0020562    -0.9990016   0.0001253   0.0003663  -0.0000535   0.0000000   0.0000000   0.0000000   0.0000000
0.0020815    -0.9989487  -0.0000987   0.0003406  -0.0000381   0.0000000   0.0000000   0.0000000   0.0000000
0.0021071    -0.9988491  -0.0001383   0.0003534  -0.0000793   0.0000000   0.0000000   0.0000000   0.0000000
0.0021330    -0.9990816   0.0002052   0.0003330  -0.0000518   0.0000000   0.0000000   0.0000000   0.0000000
0.0021592    -0.9989168   0.0000928   0.0003250  -0.0000554   0.0000000   0.0000000   0.0000000   0.0000000
0.0021858    -0.9988333  -0.0000388   0.0003546  -0.0000678   0.0000000   0.0000000   0.0000000   0.0000000
0.0022126    -0.9988670   0.0000368   0.0003576  -0.0000550   0.0000000   0.0000000   0.0000000   0.0000000
0.0022398    -0.9989020   0.0000226   0.0003667  -0.0000731   0.0000000   0.0000000   0.0000000   0.0000000
0.0022674    -0.9989261   0.0001327   0.0003360  -0.0000629   0.0000000   0.0000000   0.0000000   0.0000000
0.0022953    -0.9990766  -0.0000577   0.0003534  -0.0000672   0.0000000   0.0000000   0.0000000   0.0000000
0.0023235    -0.9988747   0.0001529   0.0003459  -0.0000555   0.0000000   0.0000000   0.0000000   0.0000000
0.0023520    -0.9989314  -0.0001174   0.0003516  -0.0000350   0.0000000   0.0000000   0.0000000   0.0000000
0.0023809    -0.9990337  -0.0000714   0.0003389  -0.0000508   0.0000000   0.0000000   0.0000000   0.0000000
0.0024102    -0.9988390  -0.0000013   0.0003229  -0.0000643   0.0000000   0.0000000   0.0000000   0.0000000
0.0024398    -0.9990891  -0.0001426   0.0003364  -0.0000535   0.0000000   0.0000000   0.0000000   0.0000000
0.0024698    -0.9989009  -0.0002126   0.0003407  -0.0000686   0.0000000   0.0000000   0.0000000   0.0000000
0.0025002    -0.9988726   0.0000869   0.0003242  -0.0000812   0.0000000   0.0000000   0.0000000   0.0000000
0.0025309    -0.9988084   0.0000228   0.0003358  -0.0000699   0.0000000   0.0000000   0.0000000   0.0000000
0.0025621    -0.9989068   0.0000295   0.0003501  -0.0000538   0.0000000   0.0000000   0.0000000   0.0000000
0.0025935    -0.9988775   0.0001599   0.0003490  -0.0000696   0.0000000   0.0000000   0.0000000   0.0000000
0.0026254    -0.9988331   0.0000376   0.0003551  -0.0000850   0.0000000   0.0000000   0.0000000   0.0000000
0.0026577    -0.9989033   0.0000926   0.0003520  -0.0000500   0.0000000   0.0000000   0.0000000   0.0000000
0.0026904    -0.9989484  -0.0000884   0.0003490  -0.0000428   0.0000000   0.0000000   0.0000000   0.0000000
0.0027235    -0.9989813  -0.0000999   0.0003549  -0.0000680   0.0000000   0.0000000   0.0000000   0.0000000
0.0027569    -0.9988767  -0.0000789   0.0003625  -0.0000678   0.0000000   0.0000000   0.0000000   0.0000000
0.0027908    -0.9988939  -0.0000375   0.0003438  -0.0000761   0.0000000   0.0000000   0.0000000   0.0000000
0.0028251    -0.9990346   0.0000172   0.0003625  -0.0000692   0.0000000   0.0000000   0.0000000   0.0000000
0.0028599    -0.9989768  -0.0000835   0.0003552  -0.0000949   0.0000000   0.0000000   0.0000000   0.0000000
0.0028950    -0.9989866  -0.0000040   0.0003608  -0.0000565   0.0000000   0.0000000   0.0000000   0.0000000
0.0029306    -0.9989750   0.0000370   0.0003496  -0.0000741   0.0000000   0.0000000   0.0000000   0.0000000
0.0029666    -0.9989673   0.0002344   0.0003362  -0.0000554   0.0000000   0.0000000   0.0000000   0.0000000
0.0030031    -0.9989128   0.0000050   0.0003406  -0.0000508   0.0000000   0.0000000   0.0000000   0.0000000
0.0030400    -0.9989614  -0.0000163   0.0003352  -0.0000851   0.0000000   0.0000000   0.0000000   0.0000000
0.0030774    -0.9989882  -0.0000848   0.0003304  -0.0000929   0.0000000   0.0000000   0.0000000   0.0000000
0.0031152    -0.9990926   0.0000812   0.0003387  -0.0000818   0.0000000   0.0000000   0.0000000   0.0000000
0.0031535    -0.9990500   0.0000867   0.0003282  -0.0000532   0.0000000   0.0000000   0.0000000   0.0000000
0.0031923    -0.9989705  -0.0000325   0.0003157  -0.0000680   0.0000000   0.0000000   0.0000000   0.0000000
0.0032315    -0.9990851   0.0001314   0.0003479  -0.0000851   0.0000000   0.0000000   0.0000000   0.0000000
0.0032713    -0.9989348  -0.0000184   0.0003440  -0.0000828   0.0000000   0.0000000   0.0000000   0.0000000
0.0033115    -0.9989067   0.0000618   0.0003400  -0.0000916   0.0000000   0.0000000   0.0000000   0.0000000
0.0033522    -0.9988046  -0.0001418   0.0003728  -0.0000924   0.0000000   0.0000000   0.0000000   0.0000000
0.0033934    -0.9990007  -0.0000754   0.0003470  -0.0000811   0.0000000   0.0000000   0.0000000   0.0000000
0.0034351    -0.9989918  -0.0000908   0.0003420  -0.0001128   0.0000000   0.0000000   0.0000000   0.0000000
0.0034773    -0.9989084   0.0000970   0.0003370  -0.0000449   0.0000000   0.0000000   0.0000000   0.0000000
0.0035201    -0.9989930  -0.0000943   0.0003016  -0.0001171   0.0000000   0.0000000   0.0000000   0.0000000
0.0035634    -0.9991007  -0.0000377   0.0003538  -0.0000739   0.0000000   0.0000000   0.0000000   0.0000000
0.0036072    -0.9987977  -0.0000865   0.0003226  -0.0001120   0.0000000   0.0000000   0.0000000   0.0000000
0.0036515    -0.9988768   0.0000035   0.0003381  -0.0001070   0.0000000   0.0000000   0.0000000   0.0000000
0.0036964    -0.9989284   0.0000206   0.0002949  -0.0001061   0.0000000   0.0000000   0.0000000   0.0000000
0.0037418    -0.9988611   0.0000605   0.0003400  -0.0000931   0.0000000   0.0000000   0.0000000   0.0000000
0.0037878    -0.9989951  -0.0001208   0.0003349  -0.0000652   0.0000000   0.0000000   0.0000000   0.0000000
0.0038344    -0.9989461  -0.0001159   0.0003253  -0.0000933   0.0000000   0.0000000   0.0000000   0.0000000
0.0038815    -0.9990111   0.0000168   0.0003131  -0.0000800   0.0000000   0.0000000   0.0000000   0.0000000
0.0039293    -0.9989257   0.0000959   0.0003314  -0.0000853   0.0000000   0.0000000   0.0000000   0.0000000
0.0039776    -0.9989301  -0.0000167   0.0003233  -0.0001076   0.0000000   0.0000000   0.0000000   0.0000000
0.0040265    -0.9989662   0.0001330   0.0003223  -0.0000835   0.0000000   0.0000000   0.0000000   0.0000000
0.0040759    -0.9988012   0.0000917   0.0003113  -0.0001206   0.0000000   0.0000000   0.0000000   0.0000000
0.0041261    -0.9990061   0.0001651   0.0003235  -0.0000958   0.0000000   0.0000000   0.0000000   0.0000000
0.0041768    -0.9989227  -0.0000218   0.0003283  -0.0001126   0.0000000   0.0000000   0.0000000   0.0000000
0.0042281    -0.9989729  -0.0001068   0.0003311  -0.0001018   0.0000000   0.0000000   0.0000000   0.0000000
0.0042801    -0.9990346  -0.0000179   0.0003246  -0.0001064   0.0000000   0.0000000   0.0000000   0.0000000
0.0043327    -0.9991183  -0.0000856   0.0002943  -0.0000950   0.0000000   0.0000000   0.0000000   0.0000000
0.0043860    -0.9989481  -0.0001025   0.0003266  -0.0001136   0.0000000   0.0000000   0.0000000   0.0000000
0.0044399    -0.9988898  -0.0000462   0.0003197  -0.0000861   0.0000000   0.0000000   0.0000000   0.0000000
0.0044945    -0.9990760  -0.0000216   0.0003260  -0.0000978   0.0000000   0.0000000   0.0000000   0.0000000
0.0045497    -0.9989699   0.0001088   0.0003134  -0.0001131   0.0000000   0.0000000   0.0000000   0.0000000
0.0046057    -0.9989602   0.0001470   0.0003195  -0.0001070   0.0000000   0.0000000   0.0000000   0.0000000
0.0046623    -0.9992003   0.0000452   0.0003085  -0.0001048   0.0000000   0.0000000   0.0000000   0.0000000
0.0047196    -0.9989456   0.0000717   0.0003286  -0.0001034   0.0000000   0.0000000   0.0000000   0.0000000
0.0047776    -0.9989176   0.0000163   0.0003034  -0.0001075   0.0000000   0.0000000   0.0000000   0.0000000
0.0048363    -0.9989897   0.0001408   0.0002871  -0.0001197   0.0000000   0.0000000   0.0000000   0.0000000
0.0048958    -0.9990992  -0.0000629   0.0002919  -0.0001265   0.0000000   0.0000000   0.0000000   0.0000000
0.0049560    -0.9988415   0.0000920   0.0003030  -0.0000984   0.0000000   0.0000000   0.0000000   0.0000000
0.0050169    -0.9988214   0.0000628   0.0003152  -0.0001191   0.0000000   0.0000000   0.0000000   0.0000000
0.0050786    -0.9989382   0.0001275   0.0002772  -0.0001079   0.0000000   0.0000000   0.0000000   0.0000000
0.0051410    -0.9989085   0.0000038   0.0003214  -0.0000968   0.0000000   0.0000000   0.0000000   0.0000000
0.0052042    -0.9988361   0.0000081   0.0003152  -0.0001046   0.0000000   0.0000000   0.0000000   0.0000000
0.0052682    -0.9988365   0.0000524   0.0003009  -0.0001153   0.0000000   0.0000000   0.0000000   0.0000000
0.0053330    -0.9989969   0.0000379   0.0002989  -0.0001016   0.0000000   0.0000000   0.0000000   0.0000000
0.0053985    -0.9990134   0.0001241   0.0003036  -0.0001228   0.0000000   0.0000000   0.0000000   0.0000000
0.0054649    -0.9991177   0.0001171   0.0002979  -0.0001265   0.0000000   0.0000000   0.0000000   0.0000000
0.0055321    -0.9989235   0.0001045   0.0002974  -0.0001029   0.0000000   0.0000000   0.0000000   0.0000000
0.0056001    -0.9989324  -0.0000699   0.0003092  -0.0001332   0.0000000   0.0000000   0.0000000   0.0000000
0.0056689    -0.9990150   0.0000905   0.0002836  -0.0001366   0.0000000   0.0000000   0.0000000   0.0000000
0.0057386    -0.9988919   0.0002307   0.0002991  -0.0001290   0.0000000   0.0000000   0.0000000   0.0000000
0.0058091    -0.9990212  -0.0000267   0.0002941  -0.0001145   0.0000000   0.0000000   0.0000000   0.0000000
0.0058806    -0.9990620   0.0000006   0.0003022  -0.0001121   0.0000000   0.0000000   0.0000000   0.0000000
0.0059529    -0.9989528   0.0001421   0.0002992  -0.0001228   0.0000000   0.0000000   0.0000000   0.0000000
0.0060260    -0.9989754  -0.0001353   0.0002755  -0.0001097   0.0000000   0.0000000   0.0000000   0.0000000
0.0061001    -0.9990512   0.0001808   0.0002771  -0.0001146   0.0000000   0.0000000   0.0000000   0.0000000
0.0061751    -0.9990642   0.0001097   0.0002815  -0.0001391   0.0000000   0.0000000   0.0000000   0.0000000
0.0062510    -0.9990612   0.0000624   0.0002834  -0.0001205   0.0000000   0.0000000   0.0000000   0.0000000
0.0063279    -0.9989077   0.0000253   0.0003026  -0.0001191   0.0000000   0.0000000   0.0000000   0.0000000
0.0064056    -0.9989079   0.0000307   0.0002788  -0.0001345   0.0000000   0.0000000   0.0000000   0.0000000
0.0064844    -0.9989327  -0.0000285   0.0002579  -0.0001421   0.0000000   0.0000000   0.0000000   0.0000000
0.0065641    -0.9990198  -0.0000538   0.0002924  -0.0001265   0.0000000   0.0000000   0.0000000   0.0000000
0.0066448    -0.9990798   0.0000057   0.0002630  -0.0001012   0.0000000   0.0000000   0.0000000   0.0000000
0.0067265    -0.9989410   0.0001445   0.0002555  -0.0001081   0.0000000   0.0000000   0.0000000   0.0000000
0.0068092    -0.9989723  -0.0000250   0.0002849  -0.0001374   0.0000000   0.0000000   0.0000000   0.0000000
0.0068929    -0.9988596   0.0002200   0.0002718  -0.0001421   0.0000000   0.0000000   0.0000000   0.0000000
0.0069776    -0.9989577   0.0001485   0.0002462  -0.0001226   0.0000000   0.0000000   0.0000000   0.0000000
0.0070634    -0.9989115   0.0000952   0.0002735  -0.0001240   0.0000000   0.0000000   0.0000000   0.0000000
0.0071502    -0.9990019   0.0000913   0.0002670  -0.0001271   0.0000000   0.0000000   0.0000000   0.0000000
0.0072381    -0.9990622   0.0001465   0.0002689  -0.0001348   0.0000000   0.0000000   0.0000000   0.0000000
0.0073271    -0.9989118   0.0000321   0.0002728  -0.0001177   0.0000000   0.0000000   0.0000000   0.0000000
0.0074172    -0.9989681   0.0001414   0.0002659  -0.0001108   0.0000000   0.0000000   0.0000000   0.0000000
0.0075084    -0.9988343   0.0001437   0.0002816  -0.0001542   0.0000000   0.0000000   0.0000000   0.0000000
0.0076007    -0.9989774   0.0001556   0.0002559  -0.0001273   0.0000000   0.0000000   0.0000000   0.0000000
0.0076941    -0.9989022   0.0001135   0.0002729  -0.0001251   0.0000000   0.0000000   0.0000000   0.0000000
0.0077887    -0.9989727   0.0000445   0.0002497  -0.0001361   0.0000000   0.0000000   0.0000000   0.0000000
0.0078844    -0.9988515   0.0000355   0.0002512  -0.0001414   0.0000000   0.0000000   0.0000000   0.0000000
0.0079814    -0.9991369   0.0001649   0.0002321  -0.0001262   0.0000000   0.0000000   0.0000000   0.0000000
0.0080795    -0.9989080   0.0001724   0.0002754  -0.0001461   0.0000000   0.0000000   0.0000000   0.0000000
0.0081788    -0.9988589   0.0001295   0.0002408  -0.0001501   0.0000000   0.0000000   0.0000000   0.0000000
0.0082793    -0.9990003   0.0002077   0.0002538  -0.0001314   0.0000000   0.0000000   0.0000000   0.0000000
0.0083811    -0.9989250   0.0001972   0.0002442  -0.0001442   0.0000000   0.0000000   0.0000000   0.0000000
0.0084842    -0.9988484  -0.0000242   0.0002449  -0.0001410   0.0000000   0.0000000   0.0000000   0.0000000
0.0085885    -0.9988931   0.0000461   0.0002548  -0.0001521   0.0000000   0.0000000   0.0000000   0.0000000
0.0086940    -0.9989074  -0.0000358   0.0002460  -0.0001370   0.0000000   0.0000000   0.0000000   0.0000000
0.0088009    -0.9988374  -0.0000261   0.0002360  -0.0001462   0.0000000   0.0000000   0.0000000   0.0000000
0.0089091    -0.9989440  -0.0000571   0.0002309  -0.0001591   0.0000000   0.0000000   0.0000000   0.0000000
0.0090186    -0.9988755   0.0000409   0.0002406  -0.0001413   0.0000000   0.0000000   0.0000000   0.0000000
0.0091295    -0.9990556   0.0001234   0.0002298  -0.0001681   0.0000000   0.0000000   0.0000000   0.0000000
0.0092417    -0.9989438   0.0001497   0.0002409  -0.0001560   0.0000000   0.0000000   0.0000000   0.0000000
0.0093553    -0.9990205  -0.0000587   0.0002348  -0.0001544   0.0000000   0.0000000   0.0000000   0.0000000
0.0094703    -0.9988516   0.0000499   0.0002327  -0.0001628   0.0000000   0.0000000   0.0000000   0.0000000
0.0095868    -0.9990000   0.0000831   0.0002314  -0.0001744   0.0000000   0.0000000   0.0000000   0.0000000
0.0097046    -0.9990119   0.0002107   0.0002199  -0.0001513   0.0000000   0.0000000   0.0000000   0.0000000
0.0098239    -0.9990070   0.0000046   0.0002258  -0.0001491   0.0000000   0.0000000   0.0000000   0.0000000
0.0099447    -0.9989409   0.0000555   0.0002408  -0.0001450   0.0000000   0.0000000   0.0000000   0.0000000
0.0100669    -0.9988921   0.0001735   0.0002201  -0.0001548   0.0000000   0.0000000   0.0000000   0.0000000
0.0101907    -0.9990196   0.0000279   0.0001938  -0.0001528   0.0000000   0.0000000   0.0000000   0.0000000
0.0103160    -0.9988963   0.0000418   0.0002314  -0.0001409   0.0000000   0.0000000   0.0000000   0.0000000
0.0104428    -0.9990116   0.0000613   0.0002085  -0.0001645   0.0000000   0.0000000   0.0000000   0.0000000
0.0105712    -0.9988853   0.0002093   0.0002056  -0.0001565   0.0000000   0.0000000   0.0000000   0.0000000
0.0107011    -0.9989361   0.0000915   0.0002140  -0.0001393   0.0000000   0.0000000   0.0000000   0.0000000
0.0108327    -0.9989045   0.0001369   0.0002036  -0.0001579   0.0000000   0.0000000   0.0000000   0.0000000
0.0109658    -0.9988573   0.0001197   0.0002253  -0.0001465   0.0000000   0.0000000   0.0000000   0.0000000
0.0111006    -0.9988855   0.0001310   0.0002089  -0.0001345   0.0000000   0.0000000   0.0000000   0.0000000
0.0112371    -0.9988345  -0.0000401   0.0001915  -0.0001554   0.0000000   0.0000000   0.0000000   0.0000000
0.0113752    -0.9988945   0.0000837   0.0002113  -0.0001529   0.0000000   0.0000000   0.0000000   0.0000000
0.0115151    -0.9989144   0.0001389   0.0001982  -0.0001580   0.0000000   0.0000000   0.0000000   0.0000000
0.0116566    -0.9989009   0.0000172   0.0002123  -0.0001566   0.0000000   0.0000000   0.0000000   0.0000000
0.0117999    -0.9989160   0.0000760   0.0002034  -0.0001653   0.0000000   0.0000000   0.0000000   0.0000000
0.0119450    -0.9987752   0.0000201   0.0002044  -0.0001583   0.0000000   0.0000000   0.0000000   0.0000000
0.0120918    -0.9989293   0.0002334   0.0001978  -0.0001420   0.0000000   0.0000000   0.0000000   0.0000000
0.0122405    -0.9989139   0.0001700   0.0001927  -0.0001526   0.0000000   0.0000000   0.0000000   0.0000000
0.0123910    -0.9988887   0.0001826   0.0001688  -0.0001480   0.0000000   0.0000000   0.0000000   0.0000000
0.0125433    -0.9989325   0.0001219   0.0001942  -0.0001373   0.0000000   0.0000000   0.0000000   0.0000000
0.0126975    -0.9988750   0.0000147   0.0001840  -0.0001467   0.0000000   0.0000000   0.0000000   0.0000000
0.0128536    -0.9988516   0.0002040   0.0001672  -0.0001439   0.0000000   0.0000000   0.0000000   0.0000000
0.0130116    -0.9988445   0.0001887   0.0001719  -0.0001477   0.0000000   0.0000000   0.0000000   0.0000000
0.0131716    -0.9988248   0.0000906   0.0001616  -0.0001581   0.0000000   0.0000000   0.0000000   0.0000000
0.0133335    -0.9988250   0.0000586   0.0001690  -0.0001427   0.0000000   0.0000000   0.0000000   0.0000000
0.0134974    -0.9990326   0.0001616   0.0001613  -0.0001429   0.0000000   0.0000000   0.0000000   0.0000000
0.0136633    -0.9988598   0.0001694   0.0001711  -0.0001550   0.0000000   0.0000000   0.0000000   0.0000000
0.0138313    -0.9988222   0.0001324   0.0001685  -0.0001559   0.0000000   0.0000000   0.0000000   0.0000000
0.0140013    -0.9987950   0.0000896   0.0001863  -0.0001483   0.0000000   0.0000000   0.0000000   0.0000000
0.0141734    -0.9989234   0.0001478   0.0001846  -0.0001413   0.0000000   0.0000000   0.0000000   0.0000000
0.0143477    -0.9987994   0.0000829   0.0001597  -0.0001298   0.0000000   0.0000000   0.0000000   0.0000000
0.0145240    -0.9988887   0.0000876   0.0001754  -0.0001433   0.0000000   0.0000000   0.0000000   0.0000000
0.0147026    -0.9989090   0.0001950   0.0001650  -0.0001310   0.0000000   0.0000000   0.0000000   0.0000000
0.0148833    -0.9988720   0.0001210   0.0001470  -0.0001491   0.0000000   0.0000000   0.0000000   0.0000000
0.0150663    -0.9988802   0.0001227   0.0001705  -0.0001550   0.0000000   0.0000000   0.0000000   0.0000000
0.0152515    -0.9988029   0.0001813   0.0001657  -0.0001365   0.0000000   0.0000000   0.0000000   0.0000000
0.0154390    -0.9989383   0.0001030   0.0001596  -0.0001538   0.0000000   0.0000000   0.0000000   0.0000000
0.0156288    -0.9986931   0.0000996   0.0001494  -0.0001434   0.0000000   0.0000000   0.0000000   0.0000000
0.0158209    -0.9988442   0.0001267   0.0001723  -0.0001354   0.0000000   0.0000000   0.0000000   0.0000000
0.0160154    -0.9989144   0.0002196   0.0001451  -0.0001452   0.0000000   0.0000000   0.0000000   0.0000000
0.0162123    -0.9987288   0.0001011   0.0001521  -0.0001294   0.0000000   0.0000000   0.0000000   0.0000000
0.0164116    -0.9988242   0.0001064   0.0001458  -0.0001510   0.0000000   0.0000000   0.0000000   0.0000000
0.0166134    -0.9988382   0.0001555   0.0001531  -0.0001323   0.0000000   0.0000000   0.0000000   0.0000000
0.0168176    -0.9988823   0.0000651   0.0001272  -0.0001392   0.0000000   0.0000000   0.0000000   0.0000000
0.0170243    -0.9989048   0.0002524   0.0001410  -0.0001400   0.0000000   0.0000000   0.0000000   0.0000000
0.0172336    -0.9987274   0.0002076   0.0001500  -0.0001416   0.0000000   0.0000000   0.0000000   0.0000000
0.0174455    -0.9988331   0.0000667   0.0001440  -0.0001416   0.0000000   0.0000000   0.0000000   0.0000000
0.0176599    -0.9989091   0.0000195   0.0001478  -0.0001343   0.0000000   0.0000000   0.0000000   0.0000000
0.0178770    -0.9988495   0.0001646   0.0001437  -0.0001349   0.0000000   0.0000000   0.0000000   0.0000000
0.0180968    -0.9988384   0.0001249   0.0001118  -0.0001176   0.0000000   0.0000000   0.0000000   0.0000000
0.0183193    -0.9988127   0.0000480   0.0001207  -0.0001252   0.0000000   0.0000000   0.0000000   0.0000000
0.0185445    -0.9987642  -0.0000666   0.0001350  -0.0001289   0.0000000   0.0000000   0.0000000   0.0000000
0.0187724    -0.9986916   0.0000322   0.0001378  -0.0001184   0.0000000   0.0000000   0.0000000   0.0000000
0.0190032    -0.9987708   0.0002327   0.0001209  -0.0001259   0.0000000   0.0000000   0.0000000   0.0000000
0.0192368    -0.9987144   0.0000582   0.0001115  -0.0001191   0.0000000   0.0000000   0.0000000   0.0000000
0.0194733    -0.9988927   0.0000851   0.0001149  -0.0001292   0.0000000   0.0000000   0.0000000   0.0000000
0.0197127    -0.9988569   0.0000425   0.0001425  -0.0001275   0.0000000   0.0000000   0.0000000   0.0000000
0.0199550    -0.9989222   0.0000474   0.0001368  -0.0001200   0.0000000   0.0000000   0.0000000   0.0000000
0.0202003    -0.9988750   0.0000421   0.0001055  -0.0001309   0.0000000   0.0000000   0.0000000   0.0000000
0.0204487    -0.9988250   0.0000964   0.0001183  -0.0001363   0.0000000   0.0000000   0.0000000   0.0000000
0.0207001    -0.9988457   0.0002301   0.0001037  -0.0001316   0.0000000   0.0000000   0.0000000   0.0000000
0.0209545    -0.9987507   0.0001814   0.0001218  -0.0001109   0.0000000   0.0000000   0.0000000   0.0000000
0.0212121    -0.9988422   0.0000591   0.0001129  -0.0001358   0.0000000   0.0000000   0.0000000   0.0000000
0.0214729    -0.9988266   0.0000935   0.0001096  -0.0001269   0.0000000   0.0000000   0.0000000   0.0000000
0.0217369    -0.9987912   0.0001635   0.0001116  -0.0001320   0.0000000   0.0000000   0.0000000   0.0000000
0.0220041    -0.9987682  -0.0000665   0.0001095  -0.0001112   0.0000000   0.0000000   0.0000000   0.0000000
0.0222746    -0.9988141   0.0000306   0.0000945  -0.0001204   0.0000000   0.0000000   0.0000000   0.0000000
0.0225484    -0.9987407  -0.0000464   0.0001007  -0.0001145   0.0000000   0.0000000   0.0000000   0.0000000
0.0228256    -0.9988367  -0.0000425   0.0001087  -0.0001018   0.0000000   0.0000000   0.0000000   0.0000000
0.0231062    -0.9987258   0.0001635   0.0001003  -0.0001133   0.0000000   0.0000000   0.0000000   0.0000000
0.0233902    -0.9989391   0.0001561   0.0001105  -0.0001040   0.0000000   0.0000000   0.0000000   0.0000000
0.0236778    -0.9987456   0.0000766   0.0000835  -0.0001215   0.0000000   0.0000000   0.0000000   0.0000000
0.0239689    -0.9990750   0.0003953   0.0001064  -0.0001255   0.0000000   0.0000000   0.0000000   0.0000000
0.0242635    -0.9986974   0.0001236   0.0001118  -0.0001266   0.0000000   0.0000000   0.0000000   0.0000000
0.0245618    -0.9988479   0.0001479   0.0000945  -0.0000972   0.0000000   0.0000000   0.0000000   0.0000000
0.0248637    -0.9987359   0.0000949   0.0001156  -0.0001067   0.0000000   0.0000000   0.0000000   0.0000000
0.0251694    -0.9987649   0.0001159   0.0000946  -0.0001314   0.0000000   0.0000000   0.0000000   0.0000000
0.0254788    -0.9987346   0.0001731   0.0000940  -0.0001115   0.0000000   0.0000000   0.0000000   0.0000000
0.0257920    -0.9987794   0.0001833   0.0000973  -0.0000990   0.0000000   0.0000000   0.0000000   0.0000000
0.0261091    -0.9988280   0.0000666   0.0000967  -0.0001091   0.0000000   0.0000000   0.0000000   0.0000000
0.0264301    -0.9988276  -0.0000186   0.0000968  -0.0000993   0.0000000   0.0000000   0.0000000   0.0000000
0.0267550    -0.9987359   0.0000784   0.0000810  -0.0001132   0.0000000   0.0000000   0.0000000   0.0000000
0.0270839    -0.9988148   0.0000190   0.0000770  -0.0001081   0.0000000   0.0000000   0.0000000   0.0000000
0.0274168    -0.9988481  -0.0000288   0.0000979  -0.0000763   0.0000000   0.0000000   0.0000000   0.0000000
0.0277539    -0.9988507   0.0000865   0.0000905  -0.0000880   0.0000000   0.0000000   0.0000000   0.0000000
0.0280951    -0.9988655   0.0000687   0.0000918  -0.0001122   0.0000000   0.0000000   0.0000000   0.0000000
0.0284404    -0.9987000  -0.0000261   0.0000922  -0.0001121   0.0000000   0.0000000   0.0000000   0.0000000
0.0287901    -0.9987786   0.0000009   0.0000847  -0.0000915   0.0000000   0.0000000   0.0000000   0.0000000
0.0291440    -0.9986875   0.0000422   0.0000632  -0.0000996   0.0000000   0.0000000   0.0000000   0.0000000
0.0295023    -0.9988359   0.0000270   0.0000848  -0.0000989   0.0000000   0.0000000   0.0000000   0.0000000
0.0298649    -0.9987942   0.0000373   0.0000869  -0.0000923   0.0000000   0.0000000   0.0000000   0.0000000
0.0302321    -0.9987866   0.0000772   0.0000878  -0.0000791   0.0000000   0.0000000   0.0000000   0.0000000
0.0306037    -0.9988511   0.0001171   0.0000593  -0.0000848   0.0000000   0.0000000   0.0000000   0.0000000
0.0309799    -0.9988272   0.0000149   0.0000834  -0.0000882   0.0000000   0.0000000   0.0000000   0.0000000
0.0313608    -0.9988586   0.0001395   0.0000690  -0.0000987   0.0000000   0.0000000   0.0000000   0.0000000
0.0317463    -0.9986423   0.0000491   0.0000824  -0.0000812   0.0000000   0.0000000   0.0000000   0.0000000
0.0321366    -0.9988048   0.0000699   0.0000948  -0.0000933   0.0000000   0.0000000   0.0000000   0.0000000
0.0325316    -0.9988606   0.0000900   0.0000922  -0.0000647   0.0000000   0.0000000   0.0000000   0.0000000
0.0329316    -0.9988101   0.0001154   0.0000784  -0.0000807   0.0000000   0.0000000   0.0000000   0.0000000
0.0333364    -0.9987545   0.0000650   0.0000849  -0.0000885   0.0000000   0.0000000   0.0000000   0.0000000
0.0337462    -0.9988105  -0.0000455   0.0000577  -0.0000833   0.0000000   0.0000000   0.0000000   0.0000000
0.0341610    -0.9988640   0.0000629   0.0000718  -0.0000848   0.0000000   0.0000000   0.0000000   0.0000000
0.0345810    -0.9988716  -0.0000141   0.0000757  -0.0000933   0.0000000   0.0000000   0.0000000   0.0000000
0.0350061    -0.9987959   0.0000719   0.0000634  -0.0000810   0.0000000   0.0000000   0.0000000   0.0000000
0.0354365    -0.9986979   0.0000043   0.0000713  -0.0000855   0.0000000   0.0000000   0.0000000   0.0000000
0.0358721    -0.9987024  -0.0000249   0.0000787  -0.0000866   0.0000000   0.0000000   0.0000000   0.0000000
0.0363131    -0.9988759   0.0000519   0.0000714  -0.0000808   0.0000000   0.0000000   0.0000000   0.0000000
0.0367595    -0.9988354   0.0000258   0.0000655  -0.0000828   0.0000000   0.0000000   0.0000000   0.0000000
0.0372114    -0.9987841   0.0001165   0.0000665  -0.0000620   0.0000000   0.0000000   0.0000000   0.0000000
0.0376688    -0.9987531   0.0000249   0.0000567  -0.0000727   0.0000000   0.0000000   0.0000000   0.0000000
0.0381319    -0.9987715  -0.0001773   0.0000879  -0.0000774   0.0000000   0.0000000   0.0000000   0.0000000
0.0386006    -0.9987951  -0.0000064   0.0000645  -0.0000693   0.0000000   0.0000000   0.0000000   0.0000000
0.0390752    -0.9987544   0.0000709   0.0000632  -0.0000584   0.0000000   0.0000000   0.0000000   0.0000000
0.0395555    -0.9986922   0.0001170   0.0000731  -0.0000786   0.0000000   0.0000000   0.0000000   0.0000000
0.0400418    -0.9987382   0.0000003   0.0000748  -0.0000630   0.0000000   0.0000000   0.0000000   0.0000000
0.0405340    -0.9988081   0.0000715   0.0000752  -0.0000630   0.0000000   0.0000000   0.0000000   0.0000000
0.0410323    -0.9987451  -0.0000282   0.0000630  -0.0000490   0.0000000   0.0000000   0.0000000   0.0000000
0.0415368    -0.9987332   0.0000051   0.0000664  -0.0000681   0.0000000   0.0000000   0.0000000   0.0000000
0.0420474    -0.9987952  -0.0000987   0.0000685  -0.0000777   0.0000000   0.0000000   0.0000000   0.0000000
0.0425643    -0.9987012   0.0000716   0.0000539  -0.0000667   0.0000000   0.0000000   0.0000000   0.0000000
0.0430875    -0.9987787   0.0000676   0.0000542  -0.0000521   0.0000000   0.0000000   0.0000000   0.0000000
0.0436172    -0.9988018   0.0000535   0.0000782  -0.0000598   0.0000000   0.0000000   0.0000000   0.0000000
0.0441534    -0.9987374  -0.0000226   0.0000671  -0.0000596   0.0000000   0.0000000   0.0000000   0.0000000
0.0446962    -0.9988610   0.0000355   0.0000587  -0.0000596   0.0000000   0.0000000   0.0000000   0.0000000
0.0452457    -0.9987407  -0.0000675   0.0000478  -0.0000569   0.0000000   0.0000000   0.0000000   0.0000000
0.0458019    -0.9987278  -0.0000587   0.0000629  -0.0000702   0.0000000   0.0000000   0.0000000   0.0000000
0.0463649    -0.9987772  -0.0001219   0.0000506  -0.0000668   0.0000000   0.0000000   0.0000000   0.0000000
0.0469349    -0.9988005   0.0000447   0.0000506  -0.0000558   0.0000000   0.0000000   0.0000000   0.0000000
0.0475119    -0.9986537  -0.0000625   0.0000467  -0.0000573   0.0000000   0.0000000   0.0000000   0.0000000
0.0480960    -0.9987847  -0.0000281   0.0000491  -0.0000520   0.0000000   0.0000000   0.0000000   0.0000000
0.0486872    -0.9986237   0.0000502   0.0000593  -0.0000646   0.0000000   0.0000000   0.0000000   0.0000000
0.0492857    -0.9986946  -0.0000205   0.0000651  -0.0000628   0.0000000   0.0000000   0.0000000   0.0000000
0.0498916    -0.9987584   0.0000321   0.0000682  -0.0000530   0.0000000   0.0000000   0.0000000   0.0000000
0.0505050    -0.9987534  -0.0000457   0.0000588  -0.0000535   0.0000000   0.0000000   0.0000000   0.0000000
0.0511258    -0.9987116  -0.0000318   0.0000620  -0.0000498   0.0000000   0.0000000   0.0000000   0.0000000
0.0517543    -0.9987400  -0.0001006   0.0000429  -0.0000569   0.0000000   0.0000000   0.0000000   0.0000000
0.0523906    -0.9987947  -0.0000167   0.0000476  -0.0000626   0.0000000   0.0000000   0.0000000   0.0000000
0.0530346    -0.9987031   0.0000153   0.0000526  -0.0000529   0.0000000   0.0000000   0.0000000   0.0000000
0.0536866    -0.9987737  -0.0000018   0.0000478  -0.0000505   0.0000000   0.0000000   0.0000000   0.0000000
0.0543466    -0.9988158  -0.0000843   0.0000575  -0.0000602   0.0000000   0.0000000   0.0000000   0.0000000
0.0550146    -0.9987670   0.0000240   0.0000516  -0.0000508   0.0000000   0.0000000   0.0000000   0.0000000
0.0556910    -0.9987561  -0.0000742   0.0000583  -0.0000605   0.0000000   0.0000000   0.0000000   0.0000000
0.0563756    -0.9988240   0.0000078   0.0000498  -0.0000397   0.0000000   0.0000000   0.0000000   0.0000000
0.0570686    -0.9986425  -0.0001209   0.0000575  -0.0000497   0.0000000   0.0000000   0.0000000   0.0000000
0.0577702    -0.9987318  -0.0001260   0.0000649  -0.0000504   0.0000000   0.0000000   0.0000000   0.0000000
0.0584804    -0.9987261  -0.0000399   0.0000442  -0.0000570   0.0000000   0.0000000   0.0000000   0.0000000
0.0591993    -0.9987912  -0.0001028   0.0000469  -0.0000456   0.0000000   0.0000000   0.0000000   0.0000000
0.0599270    -0.9988483  -0.0000410   0.0000655  -0.0000318   0.0000000   0.0000000   0.0000000   0.0000000
0.0606637    -0.9987717  -0.0000319   0.0000649  -0.0000448   0.0000000   0.0000000   0.0000000   0.0000000
0.0614095    -0.9987790  -0.0000499   0.0000602  -0.0000507   0.0000000   0.0000000   0.0000000   0.0000000
0.0621644    -0.9987616  -0.0001027   0.0000536  -0.0000493   0.0000000   0.0000000   0.0000000   0.0000000
0.0629286    -0.9987295  -0.0000275   0.0000461  -0.0000407   0.0000000   0.0000000   0.0000000   0.0000000
0.0637022    -0.9987204  -0.0001649   0.0000445  -0.0000371   0.0000000   0.0000000   0.0000000   0.0000000
0.0644853    -0.9987983  -0.0000883   0.0000620  -0.0000562   0.0000000   0.0000000   0.0000000   0.0000000
0.0652780    -0.9987866  -0.0000433   0.0000396  -0.0000412   0.0000000   0.0000000   0.0000000   0.0000000
0.0660805    -0.9987742   0.0000396   0.0000690  -0.0000325   0.0000000   0.0000000   0.0000000   0.0000000
0.0668928    -0.9987382  -0.0000189   0.0000630  -0.0000539   0.0000000   0.0000000   0.0000000   0.0000000
0.0677152    -0.9987570  -0.0001229   0.0000460  -0.0000377   0.0000000   0.0000000   0.0000000   0.0000000
0.0685476    -0.9988113  -0.0001763   0.0000509  -0.0000313   0.0000000   0.0000000   0.0000000   0.0000000
0.0693903    -0.9987410  -0.0000916   0.0000401  -0.0000321   0.0000000   0.0000000   0.0000000   0.0000000
0.0702433    -0.9987705  -0.0001181   0.0000613  -0.0000382   0.0000000   0.0000000   0.0000000   0.0000000
0.0711068    -0.9987283  -0.0001271   0.0000375  -0.0000339   0.0000000   0.0000000   0.0000000   0.0000000
0.0719810    -0.9987490  -0.0000361   0.0000484  -0.0000346   0.0000000   0.0000000   0.0000000   0.0000000
0.0728659    -0.9987793  -0.0000800   0.0000459  -0.0000382   0.0000000   0.0000000   0.0000000   0.0000000
0.0737616    -0.9987697  -0.0001095   0.0000416  -0.0000316   0.0000000   0.0000000   0.0000000   0.0000000
0.0746684    -0.9988384  -0.0000723   0.0000570  -0.0000188   0.0000000   0.0000000   0.0000000   0.0000000
0.0755863    -0.9987475  -0.0002272   0.0000461  -0.0000270   0.0000000   0.0000000   0.0000000   0.0000000
0.0765155    -0.9988760  -0.0000054   0.0000485  -0.0000206   0.0000000   0.0000000   0.0000000   0.0000000
0.0774561    -0.9986757  -0.0000807   0.0000556  -0.0000358   0.0000000   0.0000000   0.0000000   0.0000000
0.0784083    -0.9986689  -0.0000895   0.0000416  -0.0000180   0.0000000   0.0000000   0.0000000   0.0000000
0.0793722    -0.9987627  -0.0000622   0.0000432  -0.0000251   0.0000000   0.0000000   0.0000000   0.0000000
0.0803479    -0.9987100  -0.0001022   0.0000406  -0.0000427   0.0000000   0.0000000   0.0000000   0.0000000
0.0813357    -0.9986431  -0.0000600   0.0000575  -0.0000272   0.0000000   0.0000000   0.0000000   0.0000000
0.0823356    -0.9987947  -0.0001618   0.0000368  -0.0000093   0.0000000   0.0000000   0.0000000   0.0000000
0.0833477    -0.9988079  -0.0002568   0.0000456  -0.0000351   0.0000000   0.0000000   0.0000000   0.0000000
0.0843723    -0.9987781  -0.0000397   0.0000563  -0.0000154   0.0000000   0.0000000   0.0000000   0.0000000
0.0854095    -0.9987461  -0.0001523   0.0000558  -0.0000111   0.0000000   0.0000000   0.0000000   0.0000000
0.0864595    -0.9987201  -0.0001179   0.0000507  -0.0000155   0.0000000   0.0000000   0.0000000   0.0000000
0.0875224    -0.9987066  -0.0000624   0.0000273  -0.0000287   0.0000000   0.0000000   0.0000000   0.0000000
0.0885983    -0.9986420  -0.0001382   0.0000384  -0.0000187   0.0000000   0.0000000   0.0000000   0.0000000
0.0896875    -0.9986547  -0.0001662   0.0000511  -0.0000003   0.0000000   0.0000000   0.0000000   0.0000000
0.0907900    -0.9985802  -0.0001303   0.0000389  -0.0000193   0.0000000   0.0000000   0.0000000   0.0000000
0.0919061    -0.9986813  -0.0002091   0.0000513  -0.0000105   0.0000000   0.0000000   0.0000000   0.0000000
0.0930359    -0.9987413  -0.0001255   0.0000406  -0.0000290   0.0000000   0.0000000   0.0000000   0.0000000
0.0941797    -0.9986736  -0.0002851   0.0000619  -0.0000361   0.0000000   0.0000000   0.0000000   0.0000000
0.0953374    -0.9987181  -0.0001097   0.0000413  -0.0000291   0.0000000   0.0000000   0.0000000   0.0000000
0.0965094    -0.9986927  -0.0001630   0.0000411  -0.0000267   0.0000000   0.0000000   0.0000000   0.0000000
0.0976959    -0.9987957  -0.0001365   0.0000508  -0.0000262   0.0000000   0.0000000   0.0000000   0.0000000
0.0988969    -0.9987461  -0.0002570   0.0000418  -0.0000041   0.0000000   0.0000000   0.0000000   0.0000000
0.1001126    -0.9986789  -0.0002240   0.0000389  -0.0000077   0.0000000   0.0000000   0.0000000   0.0000000
0.1013433    -0.9988180  -0.0001565   0.0000554   0.0000048   0.0000000   0.0000000   0.0000000   0.0000000
0.1025892    -0.9987786  -0.0001924   0.0000497  -0.0000159   0.0000000   0.0000000   0.0000000   0.0000000
0.1038503    -0.9987570  -0.0002702   0.0000311  -0.0000307   0.0000000   0.0000000   0.0000000   0.0000000
0.1051270    -0.9987213  -0.0002297   0.0000577  -0.0000161   0.0000000   0.0000000   0.0000000   0.0000000
0.1064193    -0.9987718  -0.0003049   0.0000601   0.0000017   0.0000000   0.0000000   0.0000000   0.0000000
0.1077276    -0.9987497  -0.0003043   0.0000427  -0.0000082   0.0000000   0.0000000   0.0000000   0.0000000
0.1090519    -0.9986447  -0.0002430   0.0000333  -0.0000065   0.0000000   0.0000000   0.0000000   0.0000000
0.1103925    -0.9987473  -0.0002524   0.0000422  -0.0000016   0.0000000   0.0000000   0.0000000   0.0000000
0.1117496    -0.9987658  -0.0002605   0.0000429  -0.0000201   0.0000000   0.0000000   0.0000000   0.0000000
0.1131233    -0.9987297  -0.0002347   0.0000370  -0.0000124   0.0000000   0.0000000   0.0000000   0.0000000
0.1145140    -0.9988433  -0.0002884   0.0000545  -0.0000176   0.0000000   0.0000000   0.0000000   0.0000000
0.1159217    -0.9988480  -0.0001952   0.0000388  -0.0000189   0.0000000   0.0000000   0.0000000   0.0000000
0.1173468    -0.9988477  -0.0001781   0.0000350  -0.0000169   0.0000000   0.0000000   0.0000000   0.0000000
0.1187893    -0.9986872  -0.0002076   0.0000551  -0.0000116   0.0000000   0.0000000   0.0000000   0.0000000
0.1202497    -0.9988600  -0.0001465   0.0000571  -0.0000054   0.0000000   0.0000000   0.0000000   0.0000000
0.1217279    -0.9988429  -0.0001510   0.0000427  -0.0000047   0.0000000   0.0000000   0.0000000   0.0000000
0.1232243    -0.9987145  -0.0002590   0.0000471   0.0000004   0.0000000   0.0000000   0.0000000   0.0000000
0.1247392    -0.9987454  -0.0002142   0.0000432  -0.0000022   0.0000000   0.0000000   0.0000000   0.0000000
0.1262726    -0.9988214  -0.0002915   0.0000518  -0.0000098   0.0000000   0.0000000   0.0000000   0.0000000
0.1278249    -0.9987520  -0.0002026   0.0000465  -0.0000188   0.0000000   0.0000000   0.0000000   0.0000000
0.1293963    -0.9987406  -0.0002954   0.0000482   0.0000024   0.0000000   0.0000000   0.0000000   0.0000000
0.1309870    -0.9988270  -0.0003089   0.0000403   0.0000039   0.0000000   0.0000000   0.0000000   0.0000000
0.1325973    -0.9988021  -0.0002694   0.0000415  -0.0000049   0.0000000   0.0000000   0.0000000   0.0000000
0.1342273    -0.9988499  -0.0002480   0.0000487  -0.0000134   0.0000000   0.0000000   0.0000000   0.0000000
0.1358774    -0.9988035  -0.0002406   0.0000430  -0.0000028   0.0000000   0.0000000   0.0000000   0.0000000
0.1375478    -0.9988141  -0.0002750   0.0000455  -0.0000044   0.0000000   0.0000000   0.0000000   0.0000000
0.1392387    -0.9987982  -0.0002210   0.0000471   0.0000019   0.0000000   0.0000000   0.0000000   0.0000000
0.1409504    -0.9987848  -0.0002742   0.0000424  -0.0000033   0.0000000   0.0000000   0.0000000   0.0000000
0.1426831    -0.9988893  -0.0002762   0.0000529   0.0000069   0.0000000   0.0000000   0.0000000   0.0000000
0.1444371    -0.9986745  -0.0002866   0.0000535  -0.0000096   0.0000000   0.0000000   0.0000000   0.0000000
0.1462127    -0.9987302  -0.0003418   0.0000359   0.0000203   0.0000000   0.0000000   0.0000000   0.0000000
0.1480102    -0.9986871  -0.0002480   0.0000372   0.0000087   0.0000000   0.0000000   0.0000000   0.0000000
0.1498297    -0.9987074  -0.0003450   0.0000428   0.0000077   0.0000000   0.0000000   0.0000000   0.0000000
0.1516716    -0.9987611  -0.0002530   0.0000322   0.0000083   0.0000000   0.0000000   0.0000000   0.0000000
0.1535361    -0.9987240  -0.0003328   0.0000474   0.0000075   0.0000000   0.0000000   0.0000000   0.0000000
0.1554236    -0.9988665  -0.0003496   0.0000483   0.0000105   0.0000000   0.0000000   0.0000000   0.0000000
0.1573342    -0.9988403  -0.0002374   0.0000487   0.0000087   0.0000000   0.0000000   0.0000000   0.0000000
0.1592684    -0.9986882  -0.0003279   0.0000484   0.0000066   0.0000000   0.0000000   0.0000000   0.0000000
0.1612263    -0.9988220  -0.0003465   0.0000377  -0.0000068   0.0000000   0.0000000   0.0000000   0.0000000
0.1632083    -0.9987760  -0.0002687   0.0000507   0.0000085   0.0000000   0.0000000   0.0000000   0.0000000
0.1652147    -0.9987855  -0.0002836   0.0000290   0.0000187   0.0000000   0.0000000   0.0000000   0.0000000
0.1672457    -0.9988786  -0.0002520   0.0000393   0.0000004   0.0000000   0.0000000   0.0000000   0.0000000
0.1693017    -0.9988184  -0.0003374   0.0000477   0.0000001   0.0000000   0.0000000   0.0000000   0.0000000
0.1713829    -0.9988468  -0.0003827   0.0000488   0.0000095   0.0000000   0.0000000   0.0000000   0.0000000
0.1734898    -0.9988222  -0.0003087   0.0000400   0.0000178   0.0000000   0.0000000   0.0000000   0.0000000
0.1756225    -0.9987516  -0.0003071   0.0000182   0.0000039   0.0000000   0.0000000   0.0000000   0.0000000
0.1777815    -0.9988769  -0.0004426   0.0000533   0.0000066   0.0000000   0.0000000   0.0000000   0.0000000
0.1799670    -0.9989233  -0.0003339   0.0000423   0.0000142   0.0000000   0.0000000   0.0000000   0.0000000
0.1821794    -0.9988639  -0.0004034   0.0000470   0.0000032   0.0000000   0.0000000   0.0000000   0.0000000
0.1844190    -0.9988038  -0.0003864   0.0000289   0.0000073   0.0000000   0.0000000   0.0000000   0.0000000
0.1866861    -0.9987561  -0.0003461   0.0000325   0.0000173   0.0000000   0.0000000   0.0000000   0.0000000
0.1889811    -0.9987432  -0.0003625   0.0000538   0.0000026   0.0000000   0.0000000   0.0000000   0.0000000
0.1913043    -0.9987819  -0.0003799   0.0000486   0.0000274   0.0000000   0.0000000   0.0000000   0.0000000
0.1936560    -0.9988396  -0.0003270   0.0000364   0.0000029   0.0000000   0.0000000   0.0000000   0.0000000
0.1960367    -0.9986858  -0.0003853   0.0000402   0.0000209   0.0000000   0.0000000   0.0000000   0.0000000
0.1984466    -0.9986791  -0.0003598   0.0000527  -0.0000007   0.0000000   0.0000000   0.0000000   0.0000000
0.2008861    -0.9987255  -0.0004434   0.0000464   0.0000027   0.0000000   0.0000000   0.0000000   0.0000000
0.2033557    -0.9988418  -0.0004840   0.0000291   0.0000195   0.0000000   0.0000000   0.0000000   0.0000000
0.2058556    -0.9987083  -0.0003647   0.0000556   0.0000340   0.0000000   0.0000000   0.0000000   0.0000000
0.2083862    -0.9989192  -0.0004408   0.0000450   0.0000152   0.0000000   0.0000000   0.0000000   0.0000000
0.2109480    -0.9988162  -0.0003342   0.0000560   0.0000138   0.0000000   0.0000000   0.0000000   0.0000000
0.2135412    -0.9987721  -0.0004210   0.0000466   0.0000182   0.0000000   0.0000000   0.0000000   0.0000000
0.2161663    -0.9987744  -0.0003748   0.0000324   0.0000055   0.0000000   0.0000000   0.0000000   0.0000000
0.2188237    -0.9988339  -0.0005377   0.0000455   0.0000256   0.0000000   0.0000000   0.0000000   0.0000000
0.2215137    -0.9987446  -0.0005283   0.0000217   0.0000044   0.0000000   0.0000000   0.0000000   0.0000000
0.2242369    -0.9987277  -0.0005171   0.0000431   0.0000083   0.0000000   0.0000000   0.0000000   0.0000000
0.2269935    -0.9986772  -0.0004627   0.0000374   0.0000181   0.0000000   0.0000000   0.0000000   0.0000000
0.2297839    -0.9989244  -0.0005107   0.0000348   0.0000376   0.0000000   0.0000000   0.0000000   0.0000000
0.2326087    -0.9987126  -0.0006173   0.0000456   0.0000218   0.0000000   0.0000000   0.0000000   0.0000000
0.2354682    -0.9987659  -0.0003925   0.0000296   0.0000382   0.0000000   0.0000000   0.0000000   0.0000000
0.2383629    -0.9987387  -0.0004081   0.0000423   0.0000276   0.0000000   0.0000000   0.0000000   0.0000000
0.2412932    -0.9987181  -0.0005156   0.0000470   0.0000459   0.0000000   0.0000000   0.0000000   0.0000000
0.2442594    -0.9988259  -0.0005365   0.0000262   0.0000284   0.0000000   0.0000000   0.0000000   0.0000000
0.2472622    -0.9988339  -0.0004991   0.0000479   0.0000249   0.0000000   0.0000000   0.0000000   0.0000000
0.2503018    -0.9987773  -0.0005496   0.0000353   0.0000175   0.0000000   0.0000000   0.0000000   0.0000000
0.2533788    -0.9988742  -0.0005338   0.0000415   0.0000229   0.0000000   0.0000000   0.0000000   0.0000000
0.2564937    -0.9987031  -0.0003858   0.0000521   0.0000191   0.0000000   0.0000000   0.0000000   0.0000000
0.2596468    -0.9987753  -0.0004986   0.0000469   0.0000238   0.0000000   0.0000000   0.0000000   0.0000000
0.2628387    -0.9988889  -0.0005470   0.0000381   0.0000258   0.0000000   0.0000000   0.0000000   0.0000000
0.2660699    -0.9988526  -0.0006965   0.0000346   0.0000180   0.0000000   0.0000000   0.0000000   0.0000000
0.2693407    -0.9987871  -0.0005152   0.0000245   0.0000350   0.0000000   0.0000000   0.0000000   0.0000000
0.2726518    -0.9987564  -0.0005224   0.0000516   0.0000404   0.0000000   0.0000000   0.0000000   0.0000000
0.2760036    -0.9987650  -0.0005347   0.0000286   0.0000325   0.0000000   0.0000000   0.0000000   0.0000000
0.2793966    -0.9988146  -0.0005375   0.0000394   0.0000268   0.0000000   0.0000000   0.0000000   0.0000000
0.2828312    -0.9987332  -0.0005472   0.0000392   0.0000401   0.0000000   0.0000000   0.0000000   0.0000000
0.2863082    -0.9987581  -0.0005566   0.0000504   0.0000249   0.0000000   0.0000000   0.0000000   0.0000000
0.2898278    -0.9987832  -0.0006972   0.0000434   0.0000575   0.0000000   0.0000000   0.0000000   0.0000000
0.2933907    -0.9987151  -0.0005956   0.0000318   0.0000346   0.0000000   0.0000000   0.0000000   0.0000000
0.2969975    -0.9988065  -0.0006438   0.0000407   0.0000372   0.0000000   0.0000000   0.0000000   0.0000000
0.3006485    -0.9987499  -0.0007265   0.0000406   0.0000437   0.0000000   0.0000000   0.0000000   0.0000000
0.3043445    -0.9988600  -0.0006643   0.0000328   0.0000260   0.0000000   0.0000000   0.0000000   0.0000000
0.3080858    -0.9988184  -0.0007554   0.0000549   0.0000469   0.0000000   0.0000000   0.0000000   0.0000000
0.3118732    -0.9986752  -0.0006109   0.0000520   0.0000394   0.0000000   0.0000000   0.0000000   0.0000000
0.3157071    -0.9987382  -0.0006781   0.0000383   0.0000447   0.0000000   0.0000000   0.0000000   0.0000000
0.3195882    -0.9987974  -0.0006734   0.0000252   0.0000368   0.0000000   0.0000000   0.0000000   0.0000000
0.3235170    -0.9987390  -0.0006471   0.0000249   0.0000525   0.0000000   0.0000000   0.0000000   0.0000000
0.3274941    -0.9988111  -0.0006378   0.0000385   0.0000360   0.0000000   0.0000000   0.0000000   0.0000000
0.3315200    -0.9989070  -0.0006053   0.0000272   0.0000472   0.0000000   0.0000000   0.0000000   0.0000000
0.3355955    -0.9987671  -0.0006145   0.0000598   0.0000627   0.0000000   0.0000000   0.0000000   0.0000000
0.3397210    -0.9987512  -0.0007626   0.0000457   0.0000410   0.0000000   0.0000000   0.0000000   0.0000000
0.3438973    -0.9987995  -0.0006712   0.0000393   0.0000321   0.0000000   0.0000000   0.0000000   0.0000000
0.3481249    -0.9988662  -0.0007749   0.0000417   0.0000418   0.0000000   0.0000000   0.0000000   0.0000000
0.3524045    -0.9988362  -0.0006997   0.0000413   0.0000637   0.0000000   0.0000000   0.0000000   0.0000000
0.3567367    -0.9987824  -0.0007082   0.0000493   0.0000577   0.0000000   0.0000000   0.0000000   0.0000000
0.3611221    -0.9988243  -0.0007246   0.0000312   0.0000277   0.0000000   0.0000000   0.0000000   0.0000000
0.3655615    -0.9987939  -0.0007640   0.0000459   0.0000621   0.0000000   0.0000000   0.0000000   0.0000000
0.3700554    -0.9988167  -0.0007059   0.0000409   0.0000495   0.0000000   0.0000000   0.0000000   0.0000000
0.3746046    -0.9988390  -0.0007460   0.0000292   0.0000398   0.0000000   0.0000000   0.0000000   0.0000000
0.3792097    -0.9987386  -0.0007874   0.0000463   0.0000529   0.0000000   0.0000000   0.0000000   0.0000000
0.3838714    -0.9987286  -0.0007611   0.0000200   0.0000466   0.0000000   0.0000000   0.0000000   0.0000000
0.3885905    -0.9987984  -0.0007747   0.0000461   0.0000449   0.0000000   0.0000000   0.0000000   0.0000000
0.3933675    -0.9987867  -0.0007673   0.0000345   0.0000443   0.0000000   0.0000000   0.0000000   0.0000000
0.3982033    -0.9988017  -0.0008084   0.0000265   0.0000596   0.0000000   0.0000000   0.0000000   0.0000000
0.4030985    -0.9987728  -0.0007973   0.0000484   0.0000591   0.0000000   0.0000000   0.0000000   0.0000000
0.4080538    -0.9988902  -0.0008372   0.0000414   0.0000635   0.0000000   0.0000000   0.0000000   0.0000000
0.4130701    -0.9988937  -0.0007176   0.0000295   0.0000370   0.0000000   0.0000000   0.0000000   0.0000000
0.4181481    -0.9988773  -0.0008846   0.0000363   0.0000602   0.0000000   0.0000000   0.0000000   0.0000000
0.4232885    -0.9988787  -0.0008460   0.0000436   0.0000536   0.0000000   0.0000000   0.0000000   0.0000000
0.4284921    -0.9988229  -0.0009501   0.0000401   0.0000579   0.0000000   0.0000000   0.0000000   0.0000000
0.4337597    -0.9988301  -0.0009321   0.0000361   0.0000774   0.0000000   0.0000000   0.0000000   0.0000000
0.4390920    -0.9988507  -0.0008459   0.0000556   0.0000481   0.0000000   0.0000000   0.0000000   0.0000000
0.4444898    -0.9988736  -0.0008229   0.0000493   0.0000495   0.0000000   0.0000000   0.0000000   0.0000000
0.4499541    -0.9988666  -0.0009448   0.0000387   0.0000709   0.0000000   0.0000000   0.0000000   0.0000000
0.4554854    -0.9988038  -0.0009426   0.0000525   0.0000662   0.0000000   0.0000000   0.0000000   0.0000000
0.4610848    -0.9989393  -0.0009629   0.0000443   0.0000673   0.0000000   0.0000000   0.0000000   0.0000000
0.4667531    -0.9987988  -0.0008450   0.0000493   0.0000642   0.0000000   0.0000000   0.0000000   0.0000000
0.4724910    -0.9988348  -0.0010526   0.0000421   0.0000621   0.0000000   0.0000000   0.0000000   0.0000000
0.4782994    -0.9989225  -0.0010236   0.0000491   0.0000847   0.0000000   0.0000000   0.0000000   0.0000000
0.4841793    -0.9989068  -0.0008803   0.0000448   0.0000591   0.0000000   0.0000000   0.0000000   0.0000000
0.4901314    -0.9988406  -0.0009980   0.0000363   0.0000750   0.0000000   0.0000000   0.0000000   0.0000000
0.4961567    -0.9988075  -0.0009280   0.0000333   0.0000701   0.0000000   0.0000000   0.0000000   0.0000000
0.5022561    -0.9987837  -0.0009239   0.0000223   0.0000750   0.0000000   0.0000000   0.0000000   0.0000000
0.5084304    -0.9988618  -0.0009782   0.0000337   0.0000721   0.0000000   0.0000000   0.0000000   0.0000000
0.5146807    -0.9988802  -0.0009530   0.0000336   0.0000578   0.0000000   0.0000000   0.0000000   0.0000000
0.5210078    -0.9987702  -0.0010133   0.0000290   0.0000826   0.0000000   0.0000000   0.0000000   0.0000000
0.5274126    -0.9989117  -0.0010986   0.0000494   0.0000629   0.0000000   0.0000000   0.0000000   0.0000000
0.5338963    -0.9987981  -0.0010301   0.0000323   0.0000710   0.0000000   0.0000000   0.0000000   0.0000000
0.5404596    -0.9989444  -0.0011207   0.0000342   0.0000849   0.0000000   0.0000000   0.0000000   0.0000000
0.5471036    -0.9988259  -0.0010545   0.0000407   0.0000689   0.0000000   0.0000000   0.0000000   0.0000000
0.5538292    -0.9987614  -0.0010666   0.0000405   0.0000734   0.0000000   0.0000000   0.0000000   0.0000000
0.5606376    -0.9987507  -0.0010588   0.0000373   0.0000852   0.0000000   0.0000000   0.0000000   0.0000000
0.5675297    -0.9988750  -0.0012469   0.0000448   0.0000566   0.0000000   0.0000000   0.0000000   0.0000000
0.5745064    -0.9988353  -0.0011954   0.0000274   0.0000927   0.0000000   0.0000000   0.0000000   0.0000000
0.5815690    -0.9988581  -0.0011022   0.0000436   0.0000740   0.0000000   0.0000000   0.0000000   0.0000000
0.5887183    -0.9989162  -0.0011977   0.0000397   0.0000746   0.0000000   0.0000000   0.0000000   0.0000000
0.5959556    -0.9988921  -0.0011315   0.0000363   0.0001001   0.0000000   0.0000000   0.0000000   0.0000000
0.6032818    -0.9988031  -0.0011942   0.0000371   0.0000859   0.0000000   0.0000000   0.0000000   0.0000000
0.6106981    -0.9987936  -0.0011643   0.0000204   0.0000722   0.0000000   0.0000000   0.0000000   0.0000000
0.6182056    -0.9987544  -0.0012300   0.0000489   0.0000766   0.0000000   0.0000000   0.0000000   0.0000000
0.6258053    -0.9989267  -0.0011911   0.0000292   0.0000859   0.0000000   0.0000000   0.0000000   0.0000000
0.6334985    -0.9987837  -0.0012093   0.0000317   0.0000923   0.0000000   0.0000000   0.0000000   0.0000000
0.6412862    -0.9989222  -0.0012481   0.0000407   0.0000974   0.0000000   0.0000000   0.0000000   0.0000000
0.6491697    -0.9987570  -0.0013313   0.0000397   0.0000958   0.0000000   0.0000000   0.0000000   0.0000000
0.6571501    -0.9988129  -0.0013090   0.0000485   0.0000772   0.0000000   0.0000000   0.0000000   0.0000000
0.6652286    -0.9989085  -0.0013188   0.0000435   0.0000990   0.0000000   0.0000000   0.0000000   0.0000000
0.6734064    -0.9988539  -0.0013484   0.0000291   0.0000988   0.0000000   0.0000000   0.0000000   0.0000000
0.6816848    -0.9988687  -0.0014030   0.0000389   0.0001026   0.0000000   0.0000000   0.0000000   0.0000000
0.6900649    -0.9989000  -0.0014070   0.0000419   0.0000905   0.0000000   0.0000000   0.0000000   0.0000000
0.6985480    -0.9989150  -0.0014265   0.0000348   0.0000939   0.0000000   0.0000000   0.0000000   0.0000000
0.7071355    -0.9988692  -0.0014240   0.0000610   0.0001047   0.0000000   0.0000000   0.0000000   0.0000000
0.7158284    -0.9988431  -0.0013546   0.0000503   0.0000932   0.0000000   0.0000000   0.0000000   0.0000000
0.7246283    -0.9988264  -0.0015248   0.0000440   0.0001114   0.0000000   0.0000000   0.0000000   0.0000000
0.7335363    -0.9989270  -0.0014181   0.0000322   0.0000981   0.0000000   0.0000000   0.0000000   0.0000000
0.7425539    -0.9988812  -0.0014191   0.0000420   0.0001013   0.0000000   0.0000000   0.0000000   0.0000000
0.7516822    -0.9989201  -0.0013820   0.0000325   0.0001209   0.0000000   0.0000000   0.0000000   0.0000000
0.7609229    -0.9988463  -0.0015388   0.0000395   0.0001077   0.0000000   0.0000000   0.0000000   0.0000000
0.7702771    -0.9989471  -0.0014623   0.0000440   0.0001125   0.0000000   0.0000000   0.0000000   0.0000000
0.7797463    -0.9987409  -0.0015460   0.0000303   0.0001185   0.0000000   0.0000000   0.0000000   0.0000000
0.7893319    -0.9988718  -0.0014812   0.0000459   0.0001035   0.0000000   0.0000000   0.0000000   0.0000000
0.7990353    -0.9988401  -0.0016113   0.0000295   0.0001166   0.0000000   0.0000000   0.0000000   0.0000000
0.8088580    -0.9987948  -0.0015420   0.0000393   0.0001012   0.0000000   0.0000000   0.0000000   0.0000000
0.8188015    -0.9988604  -0.0016099   0.0000394   0.0001084   0.0000000   0.0000000   0.0000000   0.0000000
0.8288673    -0.9988723  -0.0015606   0.0000527   0.0001077   0.0000000   0.0000000   0.0000000   0.0000000
0.8390567    -0.9988908  -0.0016457   0.0000378   0.0001273   0.0000000   0.0000000   0.0000000   0.0000000
0.8493714    -0.9988582  -0.0017520   0.0000403   0.0001265   0.0000000   0.0000000   0.0000000   0.0000000
0.8598130    -0.9988753  -0.0017370   0.0000379   0.0001115   0.0000000   0.0000000   0.0000000   0.0000000
0.8703829    -0.9989141  -0.0018219   0.0000370   0.0001378   0.0000000   0.0000000   0.0000000   0.0000000
0.8810827    -0.9989623  -0.0017959   0.0000420   0.0001360   0.0000000   0.0000000   0.0000000   0.0000000
0.8919140    -0.9988537  -0.0016824   0.0000335   0.0001206   0.0000000   0.0000000   0.0000000   0.0000000
0.9028786    -0.9988695  -0.0017489   0.0000416   0.0001350   0.0000000   0.0000000   0.0000000   0.0000000
0.9139779    -0.9987686  -0.0018164   0.0000441   0.0001298   0.0000000   0.0000000   0.0000000   0.0000000
0.9252136    -0.9989005  -0.0017783   0.0000372   0.0001349   0.0000000   0.0000000   0.0000000   0.0000000
0.9365875    -0.9989309  -0.0018330   0.0000524   0.0001407   0.0000000   0.0000000   0.0000000   0.0000000
0.9481012    -0.9989018  -0.0017380   0.0000505   0.0001460   0.0000000   0.0000000   0.0000000   0.0000000
0.9597564    -0.9988939  -0.0020037   0.0000188   0.0001377   0.0000000   0.0000000   0.0000000   0.0000000
0.9715549    -0.9988922  -0.0018464   0.0000367   0.0001431   0.0000000   0.0000000   0.0000000   0.0000000
0.9834985    -0.9988244  -0.0019060   0.0000454   0.0001459   0.0000000   0.0000000   0.0000000   0.0000000
0.9955889    -0.9988803  -0.0019421   0.0000272   0.0001643   0.0000000   0.0000000   0.0000000   0.0000000
1.0078279    -0.9988010  -0.0019231   0.0000527   0.0001454   0.0000000   0.0000000   0.0000000   0.0000000
1.0202173    -0.9988257  -0.0019414   0.0000328   0.0001448   0.0000000   0.0000000   0.0000000   0.0000000
1.0327591    -0.9988647  -0.0019462   0.0000392   0.0001432   0.0000000   0.0000000   0.0000000   0.0000000
1.0454551    -0.9989271  -0.0020346   0.0000502   0.0001637   0.0000000   0.0000000   0.0000000   0.0000000
1.0583071    -0.9989587  -0.0020181   0.0000372   0.0001497   0.0000000   0.0000000   0.0000000   0.0000000
1.0713171    -0.9988428  -0.0020469   0.0000388   0.0001757   0.0000000   0.0000000   0.0000000   0.0000000
1.0844871    -0.9988748  -0.0020521   0.0000456   0.0001439   0.0000000   0.0000000   0.0000000   0.0000000
1.0978189    -0.9989644  -0.0021138   0.0000418   0.0001710   0.0000000   0.0000000   0.0000000   0.0000000
1.1113147    -0.9989820  -0.0021789   0.0000473   0.0001671   0.0000000   0.0000000   0.0000000   0.0000000
1.1249763    -0.9989278  -0.0021280   0.0000447   0.0001567   0.0000000   0.0000000   0.0000000   0.0000000
1.1388059    -0.9988299  -0.0021449   0.0000509   0.0001813   0.0000000   0.0000000   0.0000000   0.0000000
1.1528056    -0.9988532  -0.0022557   0.0000386   0.0001688   0.0000000   0.0000000   0.0000000   0.0000000
1.1669773    -0.9989787  -0.0021639   0.0000376   0.0001636   0.0000000   0.0000000   0.0000000   0.0000000
1.1813232    -0.9988649  -0.0022702   0.0000390   0.0001738   0.0000000   0.0000000   0.0000000   0.0000000
1.1958455    -0.9989810  -0.0022836   0.0000386   0.0001706   0.0000000   0.0000000   0.0000000   0.0000000
1.2105463    -0.9989532  -0.0023746   0.0000278   0.0001770   0.0000000   0.0000000   0.0000000   0.0000000
1.2254278    -0.9989183  -0.0023294   0.0000484   0.0001904   0.0000000   0.0000000   0.0000000   0.0000000
1.2404923    -0.9989189  -0.0024606   0.0000303   0.0001861   0.0000000   0.0000000   0.0000000   0.0000000
1.2557420    -0.9988567  -0.0024297   0.0000289   0.0001829   0.0000000   0.0000000   0.0000000   0.0000000
1.2711791    -0.9989732  -0.0023774   0.0000481   0.0001855   0.0000000   0.0000000   0.0000000   0.0000000
1.2868060    -0.9988837  -0.0024563   0.0000321   0.0001794   0.0000000   0.0000000   0.0000000   0.0000000
1.3026251    -0.9989515  -0.0025547   0.0000303   0.0001854   0.0000000   0.0000000   0.0000000   0.0000000
1.3186385    -0.9989088  -0.0024651   0.0000418   0.0001942   0.0000000   0.0000000   0.0000000   0.0000000
1.3348489    -0.9989108  -0.0025296   0.0000272   0.0001976   0.0000000   0.0000000   0.0000000   0.0000000
1.3512585    -0.9988935  -0.0025243   0.0000317   0.0002004   0.0000000   0.0000000   0.0000000   0.0000000
1.3678698    -0.9988783  -0.0025942   0.0000391   0.0001896   0.0000000   0.0000000   0.0000000   0.0000000
1.3846854    -0.9989468  -0.0026748   0.0000331   0.0002152   0.0000000   0.0000000   0.0000000   0.0000000
1.4017077    -0.9989043  -0.0025858   0.0000443   0.0002052   0.0000000   0.0000000   0.0000000   0.0000000
1.4189392    -0.9989947  -0.0027513   0.0000282   0.0001990   0.0000000   0.0000000   0.0000000   0.0000000
1.4363825    -0.9989102  -0.0027067   0.0000463   0.0002097   0.0000000   0.0000000   0.0000000   0.0000000
1.4540403    -0.9990050  -0.0027016   0.0000516   0.0002147   0.0000000   0.0000000   0.0000000   0.0000000
1.4719152    -0.9989771  -0.0027599   0.0000442   0.0002156   0.0000000   0.0000000   0.0000000   0.0000000
1.4900098    -0.9989638  -0.0029200   0.0000343   0.0002171   0.0000000   0.0000000   0.0000000   0.0000000
1.5083269    -0.9990058  -0.0028848   0.0000380   0.0002321   0.0000000   0.0000000   0.0000000   0.0000000
1.5268691    -0.9989669  -0.0028441   0.0000375   0.0002336   0.0000000   0.0000000   0.0000000   0.0000000
1.5456392    -0.9989176  -0.0029556   0.0000390   0.0002263   0.0000000   0.0000000   0.0000000   0.0000000
1.5646402    -0.9988809  -0.0028833   0.0000309   0.0002256   0.0000000   0.0000000   0.0000000   0.0000000
1.5838747    -0.9989777  -0.0029724   0.0000400   0.0002320   0.0000000   0.0000000   0.0000000   0.0000000
1.6033456    -0.9989736  -0.0030654   0.0000255   0.0002467   0.0000000   0.0000000   0.0000000   0.0000000
1.6230559    -0.9990252  -0.0030245   0.0000343   0.0002249   0.0000000   0.0000000   0.0000000   0.0000000
1.6430085    -0.9989637  -0.0031269   0.0000408   0.0002329   0.0000000   0.0000000   0.0000000   0.0000000
1.6632064    -0.9989902  -0.0032761   0.0000397   0.0002426   0.0000000   0.0000000   0.0000000   0.0000000
1.6836526    -0.9989898  -0.0030980   0.0000434   0.0002455   0.0000000   0.0000000   0.0000000   0.0000000
1.7043502    -0.9989443  -0.0031171   0.0000427   0.0002420   0.0000000   0.0000000   0.0000000   0.0000000
1.7253021    -0.9988914  -0.0033530   0.0000474   0.0002502   0.0000000   0.0000000   0.0000000   0.0000000
1.7465117    -0.9989539  -0.0033915   0.0000245   0.0002599   0.0000000   0.0000000   0.0000000   0.0000000
1.7679820    -0.9990016  -0.0033972   0.0000402   0.0002591   0.0000000   0.0000000   0.0000000   0.0000000
1.7897162    -0.9989479  -0.0033501   0.0000552   0.0002665   0.0000000   0.0000000   0.0000000   0.0000000
1.8117176    -0.9990727  -0.0035073   0.0000412   0.0002702   0.0000000   0.0000000   0.0000000   0.0000000
1.8339895    -0.9989220  -0.0033477   0.0000535   0.0002611   0.0000000   0.0000000   0.0000000   0.0000000
1.8565352    -0.9990373  -0.0034459   0.0000432   0.0002670   0.0000000   0.0000000   0.0000000   0.0000000
1.8793580    -0.9990203  -0.0036138   0.0000520   0.0002782   0.0000000   0.0000000   0.0000000   0.0000000
1.9024614    -0.9990058  -0.0036034   0.0000383   0.0002664   0.0000000   0.0000000   0.0000000   0.0000000
1.9258488    -0.9990141  -0.0036417   0.0000541   0.0002835   0.0000000   0.0000000   0.0000000   0.0000000
1.9495237    -0.9989498  -0.0036367   0.0000439   0.0002851   0.0000000   0.0000000   0.0000000   0.0000000
1.9734897    -0.9990742  -0.0037341   0.0000469   0.0002917   0.0000000   0.0000000   0.0000000   0.0000000
1.9977503    -0.9990225  -0.0037010   0.0000427   0.0002966   0.0000000   0.0000000   0.0000000   0.0000000
2.0223091    -0.9990449  -0.0037618   0.0000595   0.0002879   0.0000000   0.0000000   0.0000000   0.0000000
2.0471698    -0.9990669  -0.0038687   0.0000470   0.0003072   0.0000000   0.0000000   0.0000000   0.0000000
2.0723362    -0.9989392  -0.0038802   0.0000367   0.0003105   0.0000000   0.0000000   0.0000000   0.0000000
2.0978119    -0.9990760  -0.0038998   0.0000069   0.0003068   0.0000000   0.0000000   0.0000000   0.0000000
2.1236008    -0.9989611  -0.0039610   0.0000483   0.0003037   0.0000000   0.0000000   0.0000000   0.0000000
2.1497067    -0.9990088  -0.0040513   0.0000317   0.0003064   0.0000000   0.0000000   0.0000000   0.0000000
2.1761336    -0.9990927  -0.0041187   0.0000486   0.0003255   0.0000000   0.0000000   0.0000000   0.0000000
2.2028853    -0.9990512  -0.0041642   0.0000533   0.0003411   0.0000000   0.0000000   0.0000000   0.0000000
2.2299659    -0.9990562  -0.0041847   0.0000356   0.0003096   0.0000000   0.0000000   0.0000000   0.0000000
2.2573794    -0.9990372  -0.0042469   0.0000379   0.0003454   0.0000000   0.0000000   0.0000000   0.0000000
2.2851299    -0.9990281  -0.0043442   0.0000495   0.0003359   0.0000000   0.0000000   0.0000000   0.0000000
2.3132216    -0.9990402  -0.0043496   0.0000358   0.0003252   0.0000000   0.0000000   0.0000000   0.0000000
2.3416586    -0.9990937  -0.0044124   0.0000452   0.0003457   0.0000000   0.0000000   0.0000000   0.0000000
2.3704451    -0.9990700  -0.0044333   0.0000327   0.0003420   0.0000000   0.0000000   0.0000000   0.0000000
2.3995856    -0.9990264  -0.0044340   0.0000434   0.0003478   0.0000000   0.0000000   0.0000000   0.0000000
2.4290843    -0.9990796  -0.0044995   0.0000327   0.0003475   0.0000000   0.0000000   0.0000000   0.0000000
2.4589456    -0.9990799  -0.0046570   0.0000220   0.0003785   0.0000000   0.0000000   0.0000000   0.0000000
2.4891740    -0.9990441  -0.0047249   0.0000265   0.0003459   0.0000000   0.0000000   0.0000000   0.0000000
2.5197740    -0.9990427  -0.0045816   0.0000407   0.0003683   0.0000000   0.0000000   0.0000000   0.0000000
2.5507502    -0.9991371  -0.0047257   0.0000460   0.0003782   0.0000000   0.0000000   0.0000000   0.0000000
2.5821072    -0.9990620  -0.0048759   0.0000561   0.0003826   0.0000000   0.0000000   0.0000000   0.0000000
2.6138496    -0.9991473  -0.0049084   0.0000489   0.0003748   0.0000000   0.0000000   0.0000000   0.0000000
2.6459823    -0.9990322  -0.0049956   0.0000522   0.0003783   0.0000000   0.0000000   0.0000000   0.0000000
2.6785100    -0.9990258  -0.0050235   0.0000402   0.0003955   0.0000000   0.0000000   0.0000000   0.0000000
2.7114376    -0.9991454  -0.0049556   0.0000302   0.0003858   0.0000000   0.0000000   0.0000000   0.0000000
2.7447699    -0.9989929  -0.0051274   0.0000402   0.0004193   0.0000000   0.0000000   0.0000000   0.0000000
2.7785120    -0.9991552  -0.0052939   0.0000466   0.0003965   0.0000000   0.0000000   0.0000000   0.0000000
2.8126689    -0.9991344  -0.0052259   0.0000364   0.0004139   0.0000000   0.0000000   0.0000000   0.0000000
2.8472457    -0.9990451  -0.0054102   0.0000271   0.0004215   0.0000000   0.0000000   0.0000000   0.0000000
2.8822476    -0.9991707  -0.0053367   0.0000373   0.0004149   0.0000000   0.0000000   0.0000000   0.0000000
2.9176798    -0.9991909  -0.0054837   0.0000362   0.0004224   0.0000000   0.0000000   0.0000000   0.0000000
2.9535475    -0.9991090  -0.0053866   0.0000437   0.0004251   0.0000000   0.0000000   0.0000000   0.0000000
2.9898562    -0.9990134  -0.0056334   0.0000443   0.0004283   0.0000000   0.0000000   0.0000000   0.0000000
3.0266112    -0.9992162  -0.0056906   0.0000337   0.0004621   0.0000000   0.0000000   0.0000000   0.0000000
3.0638180    -0.9991955  -0.0057697   0.0000482   0.0004510   0.0000000   0.0000000   0.0000000   0.0000000
3.1014823    -0.9991750  -0.0056600   0.0000316   0.0004621   0.0000000   0.0000000   0.0000000   0.0000000
3.1396096    -0.9991213  -0.0057751   0.0000432   0.0004659   0.0000000   0.0000000   0.0000000   0.0000000
3.1782055    -0.9990528  -0.0060241   0.0000377   0.0004705   0.0000000   0.0000000   0.0000000   0.0000000
3.2172760    -0.9992087  -0.0059924   0.0000461   0.0004612   0.0000000   0.0000000   0.0000000   0.0000000
3.2568267    -0.9991067  -0.0060267   0.0000381   0.0004656   0.0000000   0.0000000   0.0000000   0.0000000
3.2968637    -0.9992728  -0.0061210   0.0000419   0.0004869   0.0000000   0.0000000   0.0000000   0.0000000
3.3373928    -0.9992639  -0.0061567   0.0000363   0.0005038   0.0000000   0.0000000   0.0000000   0.0000000
3.3784202    -0.9991359  -0.0062643   0.0000325   0.0004915   0.0000000   0.0000000   0.0000000   0.0000000
3.4199519    -0.9990683  -0.0064182   0.0000340   0.0004992   0.0000000   0.0000000   0.0000000   0.0000000
3.4619942    -0.9991252  -0.0065242   0.0000507   0.0005224   0.0000000   0.0000000   0.0000000   0.0000000
3.5045533    -0.9991029  -0.0065154   0.0000444   0.0005173   0.0000000   0.0000000   0.0000000   0.0000000
3.5476356    -0.9991511  -0.0065841   0.0000360   0.0005166   0.0000000   0.0000000   0.0000000   0.0000000
3.5912475    -0.9992144  -0.0066565   0.0000406   0.0005195   0.0000000   0.0000000   0.0000000   0.0000000
3.6353956    -0.9992120  -0.0067808   0.0000458   0.0005186   0.0000000   0.0000000   0.0000000   0.0000000
3.6800864    -0.9992412  -0.0068434   0.0000427   0.0005444   0.0000000   0.0000000   0.0000000   0.0000000
3.7253266    -0.9991802  -0.0069348   0.0000410   0.0005512   0.0000000   0.0000000   0.0000000   0.0000000
3.7711229    -0.9991910  -0.0068662   0.0000468   0.0005451   0.0000000   0.0000000   0.0000000   0.0000000
3.8174822    -0.9991483  -0.0070374   0.0000451   0.0005563   0.0000000   0.0000000   0.0000000   0.0000000
3.8644115    -0.9992022  -0.0071258   0.0000407   0.0005729   0.0000000   0.0000000   0.0000000   0.0000000
3.9119176    -0.9992901  -0.0073284   0.0000422   0.0005851   0.0000000   0.0000000   0.0000000   0.0000000
3.9600077    -0.9991644  -0.0072033   0.0000484   0.0005817   0.0000000   0.0000000   0.0000000   0.0000000
4.0086890    -0.9992541  -0.0073625   0.0000406   0.0005837   0.0000000   0.0000000   0.0000000   0.0000000
4.0579688    -0.9991439  -0.0074280   0.0000470   0.0006058   0.0000000   0.0000000   0.0000000   0.0000000
4.1078544    -0.9991842  -0.0075481   0.0000585   0.0006086   0.0000000   0.0000000   0.0000000   0.0000000
4.1583532    -0.9992164  -0.0076425   0.0000407   0.0006077   0.0000000   0.0000000   0.0000000   0.0000000
4.2094729    -0.9992334  -0.0077299   0.0000438   0.0006122   0.0000000   0.0000000   0.0000000   0.0000000
4.2612209    -0.9991690  -0.0078740   0.0000499   0.0006238   0.0000000   0.0000000   0.0000000   0.0000000
4.3136051    -0.9992117  -0.0079383   0.0000353   0.0006323   0.0000000   0.0000000   0.0000000   0.0000000
4.3666333    -0.9992877  -0.0080704   0.0000390   0.0006276   0.0000000   0.0000000   0.0000000   0.0000000
4.4203134    -0.9992971  -0.0081081   0.0000424   0.0006465   0.0000000   0.0000000   0.0000000   0.0000000
4.4746534    -0.9992697  -0.0082166   0.0000350   0.0006530   0.0000000   0.0000000   0.0000000   0.0000000
4.5296613    -0.9992844  -0.0082389   0.0000476   0.0006618   0.0000000   0.0000000   0.0000000   0.0000000
4.5853455    -0.9992709  -0.0083885   0.0000433   0.0006757   0.0000000   0.0000000   0.0000000   0.0000000
4.6417143    -0.9992706  -0.0085136   0.0000227   0.0006705   0.0000000   0.0000000   0.0000000   0.0000000
4.6987760    -0.9992840  -0.0085838   0.0000511   0.0007016   0.0000000   0.0000000   0.0000000   0.0000000
4.7565392    -0.9993315  -0.0087168   0.0000435   0.0006965   0.0000000   0.0000000   0.0000000   0.0000000
4.8150125    -0.9992602  -0.0088859   0.0000440   0.0007057   0.0000000   0.0000000   0.0000000   0.0000000
4.8742045    -0.9992327  -0.0090324   0.0000474   0.0007017   0.0000000   0.0000000   0.0000000   0.0000000
4.9341243    -0.9992672  -0.0089934   0.0000489   0.0007143   0.0000000   0.0000000   0.0000000   0.0000000
4.9947807    -0.9992968  -0.0092228   0.0000451   0.0007216   0.0000000   0.0000000   0.0000000   0.0000000
5.0561827    -0.9994607  -0.0091838   0.0000384   0.0007438   0.0000000   0.0000000   0.0000000   0.0000000
5.1183396    -0.9992816  -0.0093418   0.0000472   0.0007485   0.0000000   0.0000000   0.0000000   0.0000000
5.1812606    -0.9993133  -0.0094271   0.0000333   0.0007487   0.0000000   0.0000000   0.0000000   0.0000000
5.2449550    -0.9993087  -0.0095491   0.0000352   0.0007768   0.0000000   0.0000000   0.0000000   0.0000000
5.3094325    -0.9993715  -0.0096239   0.0000460   0.0007622   0.0000000   0.0000000   0.0000000   0.0000000
5.3747026    -0.9992764  -0.0098005   0.0000322   0.0007773   0.0000000   0.0000000   0.0000000   0.0000000
5.4407751    -0.9992802  -0.0099363   0.0000329   0.0007865   0.0000000   0.0000000   0.0000000   0.0000000
5.5076599    -0.9993617  -0.0099853   0.0000543   0.0008062   0.0000000   0.0000000   0.0000000   0.0000000
5.5753669    -0.9994095  -0.0101726   0.0000398   0.0008159   0.0000000   0.0000000   0.0000000   0.0000000
5.6439062    -0.9994365  -0.0103354   0.0000437   0.0008248   0.0000000   0.0000000   0.0000000   0.0000000
5.7132881    -0.9993509  -0.0104383   0.0000502   0.0008326   0.0000000   0.0000000   0.0000000   0.0000000
5.7835229    -0.9993689  -0.0104272   0.0000412   0.0008602   0.0000000   0.0000000   0.0000000   0.0000000
5.8546211    -0.9993482  -0.0107097   0.0000492   0.0008465   0.0000000   0.0000000   0.0000000   0.0000000
5.9265934    -0.9993044  -0.0108845   0.0000375   0.0008617   0.0000000   0.0000000   0.0000000   0.0000000
5.9994504    -0.9993699  -0.0109486   0.0000558   0.0008778   0.0000000   0.0000000   0.0000000   0.0000000
6.0732031    -0.9993598  -0.0111074   0.0000497   0.0008733   0.0000000   0.0000000   0.0000000   0.0000000
6.1478624    -0.9994072  -0.0111228   0.0000297   0.0008853   0.0000000   0.0000000   0.0000000   0.0000000
6.2234396    -0.9994042  -0.0112457   0.0000477   0.0009037   0.0000000   0.0000000   0.0000000   0.0000000
6.2999458    -0.9994024  -0.0114003   0.0000491   0.0009205   0.0000000   0.0000000   0.0000000   0.0000000
6.3773925    -0.9993900  -0.0116558   0.0000509   0.0009459   0.0000000   0.0000000   0.0000000   0.0000000
6.4557914    -0.9994849  -0.0117034   0.0000435   0.0009310   0.0000000   0.0000000   0.0000000   0.0000000
6.5351539    -0.9994713  -0.0117675   0.0000429   0.0009418   0.0000000   0.0000000   0.0000000   0.0000000
6.6154922    -0.9994350  -0.0121085   0.0000399   0.0009644   0.0000000   0.0000000   0.0000000   0.0000000
6.6968180    -0.9994945  -0.0121911   0.0000399   0.0009633   0.0000000   0.0000000   0.0000000   0.0000000
6.7791436    -0.9994304  -0.0123291   0.0000352   0.0009931   0.0000000   0.0000000   0.0000000   0.0000000
6.8624812    -0.9995432  -0.0124569   0.0000446   0.0009979   0.0000000   0.0000000   0.0000000   0.0000000
6.9468433    -0.9994973  -0.0125820   0.0000567   0.0010169   0.0000000   0.0000000   0.0000000   0.0000000
7.0322425    -0.9994927  -0.0126636   0.0000544   0.0010100   0.0000000   0.0000000   0.0000000   0.0000000
7.1186916    -0.9994740  -0.0129247   0.0000496   0.0010522   0.0000000   0.0000000   0.0000000   0.0000000
7.2062034    -0.9994790  -0.0129609   0.0000475   0.0010611   0.0000000   0.0000000   0.0000000   0.0000000
7.2947909    -0.9994406  -0.0131687   0.0000466   0.0010441   0.0000000   0.0000000   0.0000000   0.0000000
7.3844675    -0.9995574  -0.0133350   0.0000384   0.0010661   0.0000000   0.0000000   0.0000000   0.0000000
7.4752466    -0.9993941  -0.0135035   0.0000439   0.0010849   0.0000000   0.0000000   0.0000000   0.0000000
7.5671416    -0.9994418  -0.0136371   0.0000426   0.0010997   0.0000000   0.0000000   0.0000000   0.0000000
7.6601662    -0.9995292  -0.0137660   0.0000348   0.0011236   0.0000000   0.0000000   0.0000000   0.0000000
7.7543345    -0.9994735  -0.0140152   0.0000514   0.0011324   0.0000000   0.0000000   0.0000000   0.0000000
7.8496604    -0.9994660  -0.0141034   0.0000577   0.0011481   0.0000000   0.0000000   0.0000000   0.0000000
7.9461581    -0.9995510  -0.0143057   0.0000476   0.0011698   0.0000000   0.0000000   0.0000000   0.0000000
8.0438422    -0.9994800  -0.0145205   0.0000429   0.0011640   0.0000000   0.0000000   0.0000000   0.0000000
8.1427270    -0.9995279  -0.0146935   0.0000405   0.0011751   0.0000000   0.0000000   0.0000000   0.0000000
8.2428275    -0.9995439  -0.0149081   0.0000487   0.0011960   0.0000000   0.0000000   0.0000000   0.0000000
8.3441586    -0.9994302  -0.0151010   0.0000425   0.0012208   0.0000000   0.0000000   0.0000000   0.0000000
8.4467353    -0.9995245  -0.0151284   0.0000374   0.0012304   0.0000000   0.0000000   0.0000000   0.0000000
8.5505731    -0.9995789  -0.0154701   0.0000445   0.0012517   0.0000000   0.0000000   0.0000000   0.0000000
8.6556873    -0.9995096  -0.0156115   0.0000459   0.0012583   0.0000000   0.0000000   0.0000000   0.0000000
8.7620937    -0.9994813  -0.0157781   0.0000334   0.0012792   0.0000000   0.0000000   0.0000000   0.0000000
8.8698082    -0.9995687  -0.0158951   0.0000561   0.0012970   0.0000000   0.0000000   0.0000000   0.0000000
8.9788469    -0.9996023  -0.0161960   0.0000373   0.0013099   0.0000000   0.0000000   0.0000000   0.0000000
9.0892260    -0.9994816  -0.0164971   0.0000525   0.0013169   0.0000000   0.0000000   0.0000000   0.0000000
9.2009621    -0.9996164  -0.0164926   0.0000598   0.0013289   0.0000000   0.0000000   0.0000000   0.0000000
9.3140717    -0.9995710  -0.0167189   0.0000595   0.0013379   0.0000000   0.0000000   0.0000000   0.0000000
9.4285718    -0.9995232  -0.0168733   0.0000586   0.0013647   0.0000000   0.0000000   0.0000000   0.0000000
9.5444795    -0.9996389  -0.0171266   0.0000480   0.0013847   0.0000000   0.0000000   0.0000000   0.0000000
9.6618121    -0.9997213  -0.0173835   0.0000499   0.0014088   0.0000000   0.0000000   0.0000000   0.0000000
9.7805870    -0.9996198  -0.0175826   0.0000409   0.0014177   0.0000000   0.0000000   0.0000000   0.0000000
9.9008221    -0.9995176  -0.0177954   0.0000561   0.0014486   0.0000000   0.0000000   0.0000000   0.0000000
10.0225353   -0.9995791  -0.0181008   0.0000487   0.0014462   0.0000000   0.0000000   0.0000000   0.0000000
10.1457447   -0.9995352  -0.0181793   0.0000537   0.0014669   0.0000000   0.0000000   0.0000000   0.0000000
10.2704688   -0.9996277  -0.0183825   0.0000523   0.0014971   0.0000000   0.0000000   0.0000000   0.0000000
10.3967261   -0.9997262  -0.0186222   0.0000546   0.0015179   0.0000000   0.0000000   0.0000000   0.0000000
10.5245356   -0.9996373  -0.0189453   0.0000502   0.0015236   0.0000000   0.0000000   0.0000000   0.0000000
10.6539162   -0.9996555  -0.0191427   0.0000602   0.0015446   0.0000000   0.0000000   0.0000000   0.0000000
10.7848873   -0.9996409  -0.0193898   0.0000586   0.0015591   0.0000000   0.0000000   0.0000000   0.0000000
10.9174685   -0.9995653  -0.0196253   0.0000499   0.0015840   0.0000000   0.0000000   0.0000000   0.0000000
11.0516796   -0.9997295  -0.0197650   0.0000421   0.0015869   0.0000000   0.0000000   0.0000000   0.0000000
11.1875405   -0.9996522  -0.0199694   0.0000564   0.0016198   0.0000000   0.0000000   0.0000000   0.0000000
11.3250716   -0.9997254  -0.0201898   0.0000544   0.0016377   0.0000000   0.0000000   0.0000000   0.0000000
11.4642934   -0.9997943  -0.0204704   0.0000359   0.0016560   0.0000000   0.0000000   0.0000000   0.0000000
11.6052267   -0.9997748  -0.0206371   0.0000605   0.0016784   0.0000000   0.0000000   0.0000000   0.0000000
11.7478926   -0.9996478  -0.0209702   0.0000515   0.0016904   0.0000000   0.0000000   0.0000000   0.0000000
11.8923122   -0.9996956  -0.0212820   0.0000318   0.0017403   0.0000000   0.0000000   0.0000000   0.0000000
12.0385073   -0.9997505  -0.0215272   0.0000514   0.0017394   0.0000000   0.0000000   0.0000000   0.0000000
12.1864995   -0.9997199  -0.0217671   0.0000404   0.0017569   0.0000000   0.0000000   0.0000000   0.0000000
12.3363111   -0.9996565  -0.0220421   0.0000501   0.0017774   0.0000000   0.0000000   0.0000000   0.0000000
12.4879643   -0.9995880  -0.0223009   0.0000629   0.0018033   0.0000000   0.0000000   0.0000000   0.0000000
12.6414818   -0.9995842  -0.0225895   0.0000486   0.0018228   0.0000000   0.0000000   0.0000000   0.0000000
12.7968866   -0.9997502  -0.0227591   0.0000486   0.0018398   0.0000000   0.0000000   0.0000000   0.0000000
12.9542018   -0.9997758  -0.0230220   0.0000588   0.0018660   0.0000000   0.0000000   0.0000000   0.0000000
13.1134509   -0.9997156  -0.0234506   0.0000512   0.0018758   0.0000000   0.0000000   0.0000000   0.0000000
13.2746577   -0.9998543  -0.0236252   0.0000485   0.0018974   0.0000000   0.0000000   0.0000000   0.0000000
13.4378462   -0.9997817  -0.0239053   0.0000508   0.0019346   0.0000000   0.0000000   0.0000000   0.0000000
13.6030409   -0.9997673  -0.0241999   0.0000401   0.0019511   0.0000000   0.0000000   0.0000000   0.0000000
13.7702663   -0.9996872  -0.0246600   0.0000587   0.0019899   0.0000000   0.0000000   0.0000000   0.0000000
13.9395475   -0.9998330  -0.0248440   0.0000483   0.0019996   0.0000000   0.0000000   0.0000000   0.0000000
14.1109097   -0.9997676  -0.0251864   0.0000515   0.0020310   0.0000000   0.0000000   0.0000000   0.0000000
14.2843785   -0.9997046  -0.0254264   0.0000459   0.0020588   0.0000000   0.0000000   0.0000000   0.0000000
14.4599797   -0.9998147  -0.0257386   0.0000675   0.0020764   0.0000000   0.0000000   0.0000000   0.0000000
14.6377397   -0.9997550  -0.0260090   0.0000596   0.0020967   0.0000000   0.0000000   0.0000000   0.0000000
14.8176850   -0.9998295  -0.0262345   0.0000529   0.0021356   0.0000000   0.0000000   0.0000000   0.0000000
14.9998423   -0.9998423  -0.0266837   0.0000570   0.0021628   0.0000000   0.0000000   0.0000000   0.0000000
15.1842390   -0.9998123  -0.0269182   0.0000366   0.0021753   0.0000000   0.0000000   0.0000000   0.0000000
15.3709024   -0.9998525  -0.0273139   0.0000603   0.0022112   0.0000000   0.0000000   0.0000000   0.0000000
15.5598606   -0.9996911  -0.0275091   0.0000554   0.0022366   0.0000000   0.0000000   0.0000000   0.0000000
15.7511417   -0.9997864  -0.0279009   0.0000521   0.0022743   0.0000000   0.0000000   0.0000000   0.0000000
15.9447743   -0.9998313  -0.0282230   0.0000569   0.0022839   0.0000000   0.0000000   0.0000000   0.0000000
16.1407872   -0.9997457  -0.0286612   0.0000416   0.0023363   0.0000000   0.0000000   0.0000000   0.0000000
16.3392097   -0.9997666  -0.0289362   0.0000515   0.0023581   0.0000000   0.0000000   0.0000000   0.0000000
16.5400716   -0.9999160  -0.0292971   0.0000582   0.0023696   0.0000000   0.0000000   0.0000000   0.0000000
16.7434026   -0.9999663  -0.0295488   0.0000502   0.0023992   0.0000000   0.0000000   0.0000000   0.0000000
16.9492333   -0.9998123  -0.0300386   0.0000427   0.0024443   0.0000000   0.0000000   0.0000000   0.0000000
17.1575942   -0.9998427  -0.0303743   0.0000554   0.0024568   0.0000000   0.0000000   0.0000000   0.0000000
17.3685166   -0.9998227  -0.0307171   0.0000470   0.0024946   0.0000000   0.0000000   0.0000000   0.0000000
17.5820320   -0.9998897  -0.0310042   0.0000478   0.0025307   0.0000000   0.0000000   0.0000000   0.0000000
17.7981721   -0.9999182  -0.0314824   0.0000566   0.0025578   0.0000000   0.0000000   0.0000000   0.0000000
18.0169693   -0.9997819  -0.0319028   0.0000483   0.0025792   0.0000000   0.0000000   0.0000000   0.0000000
18.2384562   -0.9998062  -0.0322165   0.0000504   0.0026230   0.0000000   0.0000000   0.0000000   0.0000000
18.4626659   -0.9998364  -0.0326485   0.0000389   0.0026414   0.0000000   0.0000000   0.0000000   0.0000000
18.6896319   -0.9999078  -0.0330501   0.0000392   0.0026757   0.0000000   0.0000000   0.0000000   0.0000000
18.9193880   -0.9999108  -0.0333532   0.0000582   0.0027021   0.0000000   0.0000000   0.0000000   0.0000000
19.1519686   -0.9998878  -0.0338172   0.0000539   0.0027392   0.0000000   0.0000000   0.0000000   0.0000000
19.3874083   -0.9999257  -0.0342323   0.0000377   0.0027872   0.0000000   0.0000000   0.0000000   0.0000000
19.6257423   -0.9999283  -0.0346661   0.0000546   0.0028099   0.0000000   0.0000000   0.0000000   0.0000000
19.8670063   -0.9999195  -0.0351371   0.0000361   0.0028553   0.0000000   0.0000000   0.0000000   0.0000000
20.1112361   -0.9999309  -0.0354840   0.0000591   0.0028833   0.0000000   0.0000000   0.0000000   0.0000000
20.3584684   -0.9999393  -0.0358695   0.0000361   0.0029257   0.0000000   0.0000000   0.0000000   0.0000000
20.6087399   -1.0000105  -0.0362790   0.0000349   0.0029526   0.0000000   0.0000000   0.0000000   0.0000000
20.8620881   -0.9999067  -0.0367737   0.0000529   0.0029586   0.0000000   0.0000000   0.0000000   0.0000000
21.1185507   -0.9998283  -0.0372068   0.0000360   0.0030392   0.0000000   0.0000000   0.0000000   0.0000000
21.3781661   -0.9999701  -0.0376845   0.0000372   0.0030580   0.0000000   0.0000000   0.0000000   0.0000000
21.6409730   -0.9999316  -0.0380613   0.0000456   0.0031088   0.0000000   0.0000000   0.0000000   0.0000000
21.9070107   -0.9999791  -0.0385361   0.0000484   0.0031376   0.0000000   0.0000000   0.0000000   0.0000000
22.1763188   -0.9998595  -0.0390937   0.0000466   0.0031628   0.0000000   0.0000000   0.0000000   0.0000000
22.4489376   -1.0000449  -0.0394722   0.0000191   0.0032084   0.0000000   0.0000000   0.0000000   0.0000000
22.7249077   -0.9999188  -0.0398394   0.0000255   0.0032459   0.0000000   0.0000000   0.0000000   0.0000000
23.0042705   -0.9999615  -0.0404824   0.0000389   0.0032991   0.0000000   0.0000000   0.0000000   0.0000000
23.2870675   -1.0000138  -0.0409047   0.0000221   0.0033356   0.0000000   0.0000000   0.0000000   0.0000000
23.5733409   -0.9999369  -0.0414063   0.0000394   0.0033717   0.0000000   0.0000000   0.0000000   0.0000000
23.8631337   -0.9999471  -0.0418677   0.0000256   0.0034143   0.0000000   0.0000000   0.0000000   0.0000000
24.1564889   -1.0000411  -0.0424107   0.0000341   0.0034578   0.0000000   0.0000000   0.0000000   0.0000000
24.4534504   -0.9999312  -0.0429485   0.0000346   0.0034894   0.0000000   0.0000000   0.0000000   0.0000000
24.7540625   -0.9998786  -0.0435202   0.0000239   0.0035328   0.0000000   0.0000000   0.0000000   0.0000000
25.0583701   -1.0000430  -0.0439727   0.0000338   0.0035766   0.0000000   0.0000000   0.0000000   0.0000000
25.3664186   -0.9999999  -0.0445272   0.0000300   0.0036251   0.0000000   0.0000000   0.0000000   0.0000000
25.6782541   -0.9999584  -0.0452010   0.0000106   0.0036698   0.0000000   0.0000000   0.0000000   0.0000000
25.9939230   -0.9999822  -0.0456051   0.0000309   0.0037160   0.0000000   0.0000000   0.0000000   0.0000000
26.3134725   -0.9999420  -0.0461314   0.0000324   0.0037592   0.0000000   0.0000000   0.0000000   0.0000000
26.6369503   -1.0000457  -0.0466164   0.0000137   0.0038042   0.0000000   0.0000000   0.0000000   0.0000000
26.9644047   -1.0000458  -0.0471519   0.0000233   0.0038505   0.0000000   0.0000000   0.0000000   0.0000000
27.2958846   -1.0000571  -0.0478384   0.0000263   0.0038962   0.0000000   0.0000000   0.0000000   0.0000000
27.6314394   -0.9999657  -0.0484045   0.0000251   0.0039444   0.0000000   0.0000000   0.0000000   0.0000000
27.9711193   -1.0000281  -0.0490199   0.0000184   0.0039768   0.0000000   0.0000000   0.0000000   0.0000000
28.3149750   -1.0000146  -0.0496495   0.0000131   0.0040283   0.0000000   0.0000000   0.0000000   0.0000000
28.6630578   -1.0000495  -0.0501720   0.0000052   0.0040773   0.0000000   0.0000000   0.0000000   0.0000000
29.0154196   -1.0000449  -0.0508346   0.0000188   0.0041334   0.0000000   0.0000000   0.0000000   0.0000000
29.3721131   -1.0000773  -0.0513437   0.0000107   0.0041757   0.0000000   0.0000000   0.0000000   0.0000000
29.7331915   -1.0000231  -0.0520275   0.0000072   0.0042518   0.0000000   0.0000000   0.0000000   0.0000000
30.0987087   -0.9999897  -0.0526355   0.0000079   0.0042898   0.0000000   0.0000000   0.0000000   0.0000000
30.4687194   -0.9999824  -0.0532349   0.0000000   0.0043366   0.0000000   0.0000000   0.0000000   0.0000000
30.8432786   -1.0000479  -0.0539646   0.0000064   0.0044106   0.0000000   0.0000000   0.0000000   0.0000000
31.2224424   -1.0000479  -0.0545214   0.0000181   0.0044520   0.0000000   0.0000000   0.0000000   0.0000000
31.6062674   -1.0000451  -0.0551769  -0.0000012   0.0044991   0.0000000   0.0000000   0.0000000   0.0000000
31.9948108   -0.9999926  -0.0558696  -0.0000090   0.0045614   0.0000000   0.0000000   0.0000000   0.0000000
32.3881306   -1.0000804  -0.0566314   0.0000028   0.0046339   0.0000000   0.0000000   0.0000000   0.0000000
32.7862857   -1.0000936  -0.0571936  -0.0000038   0.0046791   0.0000000   0.0000000   0.0000000   0.0000000
33.1893353   -1.0000639  -0.0578680   0.0000084   0.0047165   0.0000000   0.0000000   0.0000000   0.0000000
33.5973398   -1.0000707  -0.0585417  -0.0000068   0.0048009   0.0000000   0.0000000   0.0000000   0.0000000
34.0103599   -1.0001092  -0.0592552  -0.0000087   0.0048418   0.0000000   0.0000000   0.0000000   0.0000000
34.4284574   -0.9999135  -0.0599961  -0.0000216   0.0048854   0.0000000   0.0000000   0.0000000   0.0000000
34.8516946   -0.9998585  -0.0607654  -0.0000336   0.0049732   0.0000000   0.0000000   0.0000000   0.0000000
35.2801349   -0.9999672  -0.0615568  -0.0000186   0.0050310   0.0000000   0.0000000   0.0000000   0.0000000
35.7138420   -1.0000263  -0.0622304  -0.0000182   0.0050924   0.0000000   0.0000000   0.0000000   0.0000000
36.1528808   -0.9999896  -0.0629780  -0.0000208   0.0051481   0.0000000   0.0000000   0.0000000   0.0000000
36.5973168   -1.0000082  -0.0637136  -0.0000334   0.0051979   0.0000000   0.0000000   0.0000000   0.0000000
37.0472164   -0.9999992  -0.0644755  -0.0000386   0.0052897   0.0000000   0.0000000   0.0000000   0.0000000
37.5026467   -0.9999424  -0.0653646  -0.0000323   0.0053492   0.0000000   0.0000000   0.0000000   0.0000000
37.9636757   -1.0000618  -0.0660214  -0.0000362   0.0054066   0.0000000   0.0000000   0.0000000   0.0000000
38.4303722   -0.9999538  -0.0667579  -0.0000501   0.0054896   0.0000000   0.0000000   0.0000000   0.0000000
38.9028060   -0.9998699  -0.0676187  -0.0000600   0.0055447   0.0000000   0.0000000   0.0000000   0.0000000
39.3810475   -0.9999182  -0.0685145  -0.0000566   0.0056149   0.0000000   0.0000000   0.0000000   0.0000000
39.8651681   -0.9999019  -0.0692204  -0.0000414   0.0056809   0.0000000   0.0000000   0.0000000   0.0000000
40.3552402   -0.9999164  -0.0700396  -0.0000449   0.0057585   0.0000000   0.0000000   0.0000000   0.0000000
40.8513368   -0.9999528  -0.0709268  -0.0000408   0.0058272   0.0000000   0.0000000   0.0000000   0.0000000
41.3535320   -0.9997962  -0.0717643  -0.0000619   0.0059121   0.0000000   0.0000000   0.0000000   0.0000000
41.8619009   -0.9998065  -0.0726322  -0.0000619   0.0059643   0.0000000   0.0000000   0.0000000   0.0000000
42.3765193   -0.9998162  -0.0734801  -0.0000503   0.0060340   0.0000000   0.0000000   0.0000000   0.0000000
42.8974639   -0.9997785  -0.0744653  -0.0000677   0.0061155   0.0000000   0.0000000   0.0000000   0.0000000
43.4248127   -0.9996864  -0.0753889  -0.0000767   0.0061948   0.0000000   0.0000000   0.0000000   0.0000000
43.9586443   -0.9997387  -0.0762743  -0.0000614   0.0062725   0.0000000   0.0000000   0.0000000   0.0000000
44.4990385   -0.9996238  -0.0771569  -0.0000821   0.0063567   0.0000000   0.0000000   0.0000000   0.0000000
45.0460758   -0.9996564  -0.0780468  -0.0000658   0.0064279   0.0000000   0.0000000   0.0000000   0.0000000
45.5998380   -0.9995419  -0.0789899  -0.0000687   0.0065083   0.0000000   0.0000000   0.0000000   0.0000000
46.1604077   -0.9997007  -0.0799836  -0.0000792   0.0066040   0.0000000   0.0000000   0.0000000   0.0000000
46.7278686   -0.9996145  -0.0808698  -0.0001000   0.0066822   0.0000000   0.0000000   0.0000000   0.0000000
47.3023055   -0.9996274  -0.0819527  -0.0000962   0.0067567   0.0000000   0.0000000   0.0000000   0.0000000
47.8838040   -0.9994760  -0.0829111  -0.0000987   0.0068389   0.0000000   0.0000000   0.0000000   0.0000000
48.4724511   -0.9994354  -0.0838215  -0.0001011   0.0069205   0.0000000   0.0000000   0.0000000   0.0000000
49.0683345   -0.9994266  -0.0849471  -0.0001173   0.0070150   0.0000000   0.0000000   0.0000000   0.0000000
49.6715433   -0.9995992  -0.0859423  -0.0001201   0.0071107   0.0000000   0.0000000   0.0000000   0.0000000
50.2821675   -0.9993380  -0.0869212  -0.0001233   0.0071699   0.0000000   0.0000000   0.0000000   0.0000000
50.9002982   -0.9993132  -0.0880994  -0.0001433   0.0072592   0.0000000   0.0000000   0.0000000   0.0000000
51.5260277   -0.9993844  -0.0890506  -0.0001217   0.0073686   0.0000000   0.0000000   0.0000000   0.0000000
52.1594495   -0.9993755  -0.0902136  -0.0001422   0.0074617   0.0000000   0.0000000   0.0000000   0.0000000
52.8006581   -0.9992461  -0.0911964  -0.0001373   0.0075511   0.0000000   0.0000000   0.0000000   0.0000000
53.4497492   -0.9992788  -0.0923734  -0.0001443   0.0076611   0.0000000   0.0000000   0.0000000   0.0000000
54.1068198   -0.9991755  -0.0934919  -0.0001469   0.0077473   0.0000000   0.0000000   0.0000000   0.0000000
54.7719678   -0.9991414  -0.0946570  -0.0001531   0.0078677   0.0000000   0.0000000   0.0000000   0.0000000
55.4452927   -0.9990015  -0.0957604  -0.0001522   0.0079586   0.0000000   0.0000000   0.0000000   0.0000000
56.1268950   -0.9991137  -0.0968701  -0.0001564   0.0080469   0.0000000   0.0000000   0.0000000   0.0000000
56.8168763   -0.9989223  -0.0980878  -0.0001745   0.0081602   0.0000000   0.0000000   0.0000000   0.0000000
57.5153398   -0.9989243  -0.0991665  -0.0001771   0.0082520   0.0000000   0.0000000   0.0000000   0.0000000
58.2223896   -0.9987335  -0.1004279  -0.0001859   0.0083617   0.0000000   0.0000000   0.0000000   0.0000000
58.9381314   -0.9987345  -0.1016068  -0.0001813   0.0084575   0.0000000   0.0000000   0.0000000   0.0000000
59.6626719   -0.9986595  -0.1028362  -0.0001830   0.0085786   0.0000000   0.0000000   0.0000000   0.0000000
60.3961194   -0.9985330  -0.1040939  -0.0002112   0.0086772   0.0000000   0.0000000   0.0000000   0.0000000
61.1385834   -0.9985034  -0.1053527  -0.0002017   0.0087844   0.0000000   0.0000000   0.0000000   0.0000000
61.8901746   -0.9984304  -0.1066591  -0.0002119   0.0089006   0.0000000   0.0000000   0.0000000   0.0000000
62.6510053   -0.9983937  -0.1079043  -0.0002204   0.0090133   0.0000000   0.0000000   0.0000000   0.0000000
63.4211891   -0.9981816  -0.1092873  -0.0002142   0.0091310   0.0000000   0.0000000   0.0000000   0.0000000
64.2008409   -0.9982218  -0.1105090  -0.0002234   0.0092398   0.0000000   0.0000000   0.0000000   0.0000000
64.9900772   -0.9980287  -0.1119235  -0.0002369   0.0093650   0.0000000   0.0000000   0.0000000   0.0000000
65.7890158   -0.9978763  -0.1132129  -0.0002541   0.0094808   0.0000000   0.0000000   0.0000000   0.0000000
66.5977759   -0.9977314  -0.1145924  -0.0002417   0.0096028   0.0000000   0.0000000   0.0000000   0.0000000
67.4164783   -0.9977840  -0.1160225  -0.0002654   0.0097289   0.0000000   0.0000000   0.0000000   0.0000000
68.2452452   -0.9975602  -0.1173931  -0.0002513   0.0098500   0.0000000   0.0000000   0.0000000   0.0000000
69.0842003   -0.9973751  -0.1188946  -0.0002584   0.0099912   0.0000000   0.0000000   0.0000000   0.0000000
69.9334689   -0.9974215  -0.1204003  -0.0002482   0.0101365   0.0000000   0.0000000   0.0000000   0.0000000
70.7931778   -0.9973009  -0.1216503  -0.0003162   0.0102238   0.0000000   0.0000000   0.0000000   0.0000000
71.6634552   -0.9971397  -0.1232529  -0.0002819   0.0103632   0.0000000   0.0000000   0.0000000   0.0000000
72.5444312   -0.9968470  -0.1246870  -0.0003212   0.0104985   0.0000000   0.0000000   0.0000000   0.0000000
73.4362373   -0.9967733  -0.1261392  -0.0003264   0.0106196   0.0000000   0.0000000   0.0000000   0.0000000
74.3390065   -0.9964706  -0.1279112  -0.0002988   0.0107864   0.0000000   0.0000000   0.0000000   0.0000000
75.2528737   -0.9963164  -0.1294361  -0.0003229   0.0109418   0.0000000   0.0000000   0.0000000   0.0000000
76.1779753   -0.9962371  -0.1310674  -0.0003262   0.0110660   0.0000000   0.0000000   0.0000000   0.0000000
77.1144493   -0.9961704  -0.1327001  -0.0003196   0.0112109   0.0000000   0.0000000   0.0000000   0.0000000
78.0624357   -0.9958914  -0.1342509  -0.0003415   0.0113461   0.0000000   0.0000000   0.0000000   0.0000000
79.0220759   -0.9958021  -0.1358612  -0.0003535   0.0114948   0.0000000   0.0000000   0.0000000   0.0000000
79.9935132   -0.9954481  -0.1375423  -0.0003391   0.0116452   0.0000000   0.0000000   0.0000000   0.0000000
80.9768926   -0.9953889  -0.1391964  -0.0003447   0.0117999   0.0000000   0.0000000   0.0000000   0.0000000
81.9723609   -0.9951325  -0.1409416  -0.0003602   0.0119420   0.0000000   0.0000000   0.0000000   0.0000000
82.9800667   -0.9949106  -0.1427905  -0.0003571   0.0121066   0.0000000   0.0000000   0.0000000   0.0000000
84.0001605   -0.9947663  -0.1445163  -0.0003862   0.0122590   0.0000000   0.0000000   0.0000000   0.0000000
85.0327946   -0.9945116  -0.1463121  -0.0003819   0.0124224   0.0000000   0.0000000   0.0000000   0.0000000
86.0781231   -0.9942043  -0.1480276  -0.0003958   0.0125534   0.0000000   0.0000000   0.0000000   0.0000000
87.1363020   -0.9940093  -0.1499148  -0.0004051   0.0127350   0.0000000   0.0000000   0.0000000   0.0000000
88.2074894   -0.9937583  -0.1517689  -0.0004111   0.0129137   0.0000000   0.0000000   0.0000000   0.0000000
89.2918452   -0.9934358  -0.1538007  -0.0003945   0.0130461   0.0000000   0.0000000   0.0000000   0.0000000
90.3895312   -0.9932033  -0.1555791  -0.0004106   0.0132492   0.0000000   0.0000000   0.0000000   0.0000000
91.5007114   -0.9929338  -0.1577118  -0.0004126   0.0134127   0.0000000   0.0000000   0.0000000   0.0000000
92.6255515   -0.9925831  -0.1595639  -0.0004354   0.0136025   0.0000000   0.0000000   0.0000000   0.0000000
93.7642195   -0.9923526  -0.1615650  -0.0004197   0.0137401   0.0000000   0.0000000   0.0000000   0.0000000
94.9168855   -0.9919760  -0.1635322  -0.0004301   0.0139522   0.0000000   0.0000000   0.0000000   0.0000000
96.0837215   -0.9916502  -0.1656731  -0.0004326   0.0141362   0.0000000   0.0000000   0.0000000   0.0000000
97.2649017   -0.9914141  -0.1676974  -0.0004503   0.0143018   0.0000000   0.0000000   0.0000000   0.0000000
98.4606024   -0.9910308  -0.1699030  -0.0004588   0.0144886   0.0000000   0.0000000   0.0000000   0.0000000
99.6710021   -0.9907553  -0.1720085  -0.0004449   0.0146979   0.0000000   0.0000000   0.0000000   0.0000000
100.8962816  -0.9903511  -0.1741553  -0.0004673   0.0148862   0.0000000   0.0000000   0.0000000   0.0000000
102.1366237  -0.9900405  -0.1764909  -0.0004494   0.0150722   0.0000000   0.0000000   0.0000000   0.0000000
103.3922136  -0.9896323  -0.1787054  -0.0004295   0.0152614   0.0000000   0.0000000   0.0000000   0.0000000
104.6632389  -0.9893528  -0.1810128  -0.0004405   0.0154729   0.0000000   0.0000000   0.0000000   0.0000000
105.9498891  -0.9883528  -0.1831852  -0.0003532   0.0157246   0.0000000   0.0000000   0.0000000   0.0000000
107.2523564  -0.9889652  -0.1852433  -0.0005229   0.0158907   0.0000000   0.0000000   0.0000000   0.0000000
108.5708353  -0.9887125  -0.1878374  -0.0005105   0.0160507   0.0000000   0.0000000   0.0000000   0.0000000
109.9055225  -0.9876627  -0.1905967  -0.0004632   0.0161711   0.0000000   0.0000000   0.0000000   0.0000000
111.2566174  -0.9872996  -0.1925801  -0.0004614   0.0165119   0.0000000   0.0000000   0.0000000   0.0000000
112.6243216  -0.9867987  -0.1950866  -0.0004649   0.0167241   0.0000000   0.0000000   0.0000000   0.0000000
114.0088393  -0.9865193  -0.1975627  -0.0004658   0.0169441   0.0000000   0.0000000   0.0000000   0.0000000
115.4103773  -0.9861303  -0.2000843  -0.0004487   0.0171843   0.0000000   0.0000000   0.0000000   0.0000000
116.8291446  -0.9855931  -0.2025356  -0.0004744   0.0173922   0.0000000   0.0000000   0.0000000   0.0000000
118.2653533  -0.9851045  -0.2051587  -0.0004562   0.0176249   0.0000000   0.0000000   0.0000000   0.0000000
119.7192175  -0.9845669  -0.2077845  -0.0004466   0.0178577   0.0000000   0.0000000   0.0000000   0.0000000
121.1909545  -0.9841483  -0.2104149  -0.0004386   0.0181062   0.0000000   0.0000000   0.0000000   0.0000000
122.6807839  -0.9835947  -0.2132354  -0.0004575   0.0183255   0.0000000   0.0000000   0.0000000   0.0000000
124.1889281  -0.9830388  -0.2158035  -0.0004331   0.0185924   0.0000000   0.0000000   0.0000000   0.0000000
125.7156123  -0.9823627  -0.2186157  -0.0004506   0.0188223   0.0000000   0.0000000   0.0000000   0.0000000
127.2610644  -0.9819086  -0.2214533  -0.0004070   0.0190491   0.0000000   0.0000000   0.0000000   0.0000000
128.8255151  -0.9812263  -0.2243756  -0.0004159   0.0193249   0.0000000   0.0000000   0.0000000   0.0000000
130.4091980  -0.9806410  -0.2271906  -0.0004039   0.0195631   0.0000000   0.0000000   0.0000000   0.0000000
132.0123495  -0.9802342  -0.2302120  -0.0003644   0.0198402   0.0000000   0.0000000   0.0000000   0.0000000
133.6352088  -0.9796194  -0.2332965  -0.0003838   0.0200942   0.0000000   0.0000000   0.0000000   0.0000000
135.2780184  -0.9790033  -0.2366842  -0.0003810   0.0203531   0.0000000   0.0000000   0.0000000   0.0000000
136.9410235  -0.9790005  -0.2402217  -0.0003582   0.0206219   0.0000000   0.0000000   0.0000000   0.0000000
138.6244722  -0.9808457  -0.2432311  -0.0003638   0.0208735   0.0000000   0.0000000   0.0000000   0.0000000
140.3286160  -0.9789151  -0.2430090  -0.0003754   0.0212067   0.0000000   0.0000000   0.0000000   0.0000000
142.0537093  -0.9770081  -0.2464848  -0.0003181   0.0214131   0.0000000   0.0000000   0.0000000   0.0000000
143.8000095  -0.9761064  -0.2497483  -0.0002768   0.0217687   0.0000000   0.0000000   0.0000000   0.0000000
145.5677774  -0.9755644  -0.2535590  -0.0002483   0.0221296   0.0000000   0.0000000   0.0000000   0.0000000
147.3572769  -0.9746534  -0.2563150  -0.0002380   0.0223147   0.0000000   0.0000000   0.0000000   0.0000000
149.1687752  -0.9738406  -0.2596915  -0.0002069   0.0226192   0.0000000   0.0000000   0.0000000   0.0000000
151.0025426  -0.9730824  -0.2628125  -0.0001575   0.0229334   0.0000000   0.0000000   0.0000000   0.0000000
152.8588530  -0.9722998  -0.2661422  -0.0001012   0.0232165   0.0000000   0.0000000   0.0000000   0.0000000
154.7379834  -0.9714225  -0.2694176  -0.0000973   0.0235286   0.0000000   0.0000000   0.0000000   0.0000000
156.6402144  -0.9707921  -0.2728422  -0.0000238   0.0238392   0.0000000   0.0000000   0.0000000   0.0000000
158.5658301  -0.9697727  -0.2761993   0.0000127   0.0241451   0.0000000   0.0000000   0.0000000   0.0000000
160.5151177  -0.9687557  -0.2793660   0.0001143   0.0244569   0.0000000   0.0000000   0.0000000   0.0000000
162.4883685  -0.9675216  -0.2830856   0.0001248   0.0248108   0.0000000   0.0000000   0.0000000   0.0000000
164.4858769  -0.9666592  -0.2864200   0.0002457   0.0251041   0.0000000   0.0000000   0.0000000   0.0000000
166.5079411  -0.9656792  -0.2903597   0.0002869   0.0253850   0.0000000   0.0000000   0.0000000   0.0000000
168.5548630  -0.9646112  -0.2935481   0.0003564   0.0256957   0.0000000   0.0000000   0.0000000   0.0000000
170.6269483  -0.9639715  -0.2972189   0.0004581   0.0260679   0.0000000   0.0000000   0.0000000   0.0000000
172.7245062  -0.9626199  -0.3009246   0.0005460   0.0263253   0.0000000   0.0000000   0.0000000   0.0000000
174.8478498  -0.9616127  -0.3046333   0.0006094   0.0266573   0.0000000   0.0000000   0.0000000   0.0000000
176.9972963  -0.9605876  -0.3084149   0.0006908   0.0269437   0.0000000   0.0000000   0.0000000   0.0000000
179.1731664  -0.9561741  -0.3107208   0.0005794   0.0272811   0.0000000   0.0000000   0.0000000   0.0000000
181.3757850  -0.9578771  -0.3163729   0.0009255   0.0276715   0.0000000   0.0000000   0.0000000   0.0000000
183.6054809  -0.9568843  -0.3189890   0.0010247   0.0278885   0.0000000   0.0000000   0.0000000   0.0000000
185.8625870  -0.9550854  -0.3229028   0.0011521   0.0280878   0.0000000   0.0000000   0.0000000   0.0000000
188.1474402  -0.9540444  -0.3265607   0.0012007   0.0283684   0.0000000   0.0000000   0.0000000   0.0000000
190.4603817  -0.9529862  -0.3300940   0.0013449   0.0286863   0.0000000   0.0000000   0.0000000   0.0000000
192.8017567  -0.9514121  -0.3339411   0.0014054   0.0289436   0.0000000   0.0000000   0.0000000   0.0000000
195.1719148  -0.9497551  -0.3376732   0.0015510   0.0291584   0.0000000   0.0000000   0.0000000   0.0000000
197.5712099  -0.9479569  -0.3425417   0.0015431   0.0295065   0.0000000   0.0000000   0.0000000   0.0000000
200.0000000  -0.9461492  -0.3465047   0.0017293   0.0297353   0.0000000   0.0000000   0.0000000   0.0000000
